*SPEF "ieee 1481-1999"
*DESIGN "AsynFifo"
*DATE "11:11:11 Fri 11 11, 1111"
*VENDOR "OpenRCX"
*PROGRAM "Parallel Extraction"
*VERSION "1.0"
*DESIGN_FLOW "NAME_SCOPE LOCAL" "PIN_CAP NONE"
*DIVIDER /
*DELIMITER :
*BUS_DELIMITER []
*T_UNIT 1 NS
*C_UNIT 1 PF
*R_UNIT 1 OHM
*L_UNIT 1 HENRY

*NAME_MAP
*1 empty
*2 full
*3 r_clk
*4 r_data[0]
*5 r_data[1]
*6 r_data[2]
*7 r_data[3]
*8 r_data[4]
*9 r_data[5]
*10 r_data[6]
*11 r_data[7]
*12 r_rst_n
*13 rd
*16 w_clk
*17 w_data[0]
*18 w_data[1]
*19 w_data[2]
*20 w_data[3]
*21 w_data[4]
*22 w_data[5]
*23 w_data[6]
*24 w_data[7]
*25 w_rst_n
*26 wr
*27 _0000_
*28 _0001_
*29 _0002_
*30 _0003_
*31 _0004_
*32 _0005_
*33 _0006_
*34 _0007_
*35 _0008_
*36 _0009_
*37 _0010_
*38 _0011_
*39 _0012_
*40 _0013_
*41 _0014_
*42 _0015_
*43 _0016_
*44 _0017_
*45 _0018_
*46 _0019_
*47 _0020_
*48 _0021_
*49 _0022_
*50 _0023_
*51 _0024_
*52 _0025_
*53 _0026_
*54 _0027_
*55 _0028_
*56 _0029_
*57 _0030_
*58 _0031_
*59 _0032_
*60 _0033_
*61 _0034_
*62 _0035_
*63 _0036_
*64 _0037_
*65 _0038_
*66 _0039_
*67 _0040_
*68 _0041_
*69 _0042_
*70 _0043_
*71 _0044_
*72 _0045_
*73 _0046_
*74 _0047_
*75 _0048_
*76 _0049_
*77 _0050_
*78 _0051_
*79 _0052_
*80 _0053_
*81 _0054_
*82 _0055_
*83 _0056_
*84 _0057_
*85 _0058_
*86 _0059_
*87 _0060_
*88 _0061_
*89 _0062_
*90 _0063_
*91 _0064_
*92 _0065_
*93 _0066_
*94 _0067_
*95 _0068_
*96 _0069_
*97 _0070_
*98 _0071_
*99 _0072_
*100 _0073_
*101 _0074_
*102 _0075_
*103 _0076_
*104 _0077_
*105 _0078_
*106 _0079_
*107 _0080_
*108 _0081_
*109 _0082_
*110 _0083_
*111 _0084_
*112 _0085_
*113 _0086_
*114 _0087_
*115 _0088_
*116 _0089_
*117 _0090_
*118 _0091_
*119 _0092_
*120 _0093_
*121 _0094_
*122 _0095_
*123 _0096_
*124 _0097_
*125 _0098_
*126 _0099_
*127 _0100_
*128 _0101_
*129 _0102_
*130 _0103_
*131 _0104_
*132 _0105_
*133 _0106_
*134 _0107_
*135 _0108_
*136 _0109_
*137 _0110_
*138 _0111_
*139 _0112_
*140 _0113_
*141 _0114_
*142 _0115_
*143 _0116_
*144 _0117_
*145 _0118_
*146 _0119_
*147 _0120_
*148 _0121_
*149 _0122_
*150 _0123_
*151 _0124_
*152 _0125_
*153 _0126_
*154 _0127_
*155 _0128_
*156 _0129_
*157 _0130_
*158 _0131_
*159 _0132_
*160 _0133_
*161 _0134_
*162 _0135_
*163 _0136_
*164 _0137_
*165 _0138_
*166 _0139_
*167 _0140_
*168 _0141_
*169 _0142_
*170 _0143_
*171 _0144_
*172 _0145_
*173 _0146_
*174 _0147_
*175 _0148_
*176 _0149_
*177 _0150_
*178 _0151_
*179 _0152_
*180 _0153_
*181 _0154_
*182 _0155_
*183 _0156_
*184 _0157_
*185 _0158_
*186 _0159_
*187 _0160_
*188 _0161_
*189 _0162_
*190 _0163_
*191 _0164_
*192 _0165_
*193 _0166_
*194 _0167_
*195 _0168_
*196 _0169_
*197 _0170_
*198 _0171_
*199 _0172_
*200 _0173_
*201 _0174_
*202 _0175_
*203 _0176_
*204 _0177_
*205 _0178_
*206 _0179_
*207 _0180_
*208 _0181_
*209 _0182_
*210 _0183_
*211 _0184_
*212 _0185_
*213 _0186_
*214 _0187_
*215 _0188_
*216 _0189_
*217 _0190_
*218 _0191_
*219 _0192_
*220 _0193_
*221 _0194_
*222 _0195_
*223 _0196_
*224 _0197_
*225 _0198_
*226 _0199_
*227 _0200_
*228 _0201_
*229 _0202_
*230 _0203_
*231 _0204_
*232 _0205_
*233 _0206_
*234 _0207_
*235 _0208_
*236 _0209_
*237 _0210_
*238 _0211_
*239 _0212_
*240 _0213_
*241 _0214_
*242 _0215_
*243 _0216_
*244 _0217_
*245 _0218_
*246 _0219_
*247 _0220_
*248 _0221_
*249 _0222_
*250 _0223_
*251 _0224_
*252 _0225_
*253 _0226_
*254 _0227_
*255 _0228_
*256 _0229_
*257 _0230_
*258 _0231_
*259 _0232_
*260 _0233_
*261 _0234_
*262 _0235_
*263 _0236_
*264 _0237_
*265 _0238_
*266 _0239_
*267 _0240_
*268 _0241_
*269 _0242_
*270 _0243_
*271 _0244_
*272 _0245_
*273 _0246_
*274 _0247_
*275 _0248_
*276 _0249_
*277 _0250_
*278 _0251_
*279 _0252_
*280 _0253_
*281 _0254_
*282 _0255_
*283 _0256_
*284 _0257_
*285 _0258_
*286 _0259_
*287 _0260_
*288 _0261_
*289 _0262_
*290 _0263_
*291 _0264_
*292 _0265_
*293 _0266_
*294 _0267_
*295 _0268_
*296 _0269_
*297 _0270_
*298 _0271_
*299 _0272_
*300 _0273_
*301 _0274_
*302 _0275_
*303 _0276_
*304 _0277_
*305 _0278_
*306 _0279_
*307 _0280_
*308 _0281_
*309 _0282_
*310 _0283_
*311 _0284_
*312 _0285_
*313 _0286_
*314 _0287_
*315 _0288_
*316 _0289_
*317 _0290_
*318 _0291_
*319 _0292_
*320 _0293_
*321 _0294_
*322 _0295_
*323 _0296_
*324 _0297_
*325 _0298_
*326 _0299_
*327 _0300_
*328 _0301_
*329 _0302_
*330 _0303_
*331 _0304_
*332 _0305_
*333 _0306_
*334 _0307_
*335 _0308_
*336 _0309_
*337 _0310_
*338 _0311_
*339 _0312_
*340 _0313_
*341 _0314_
*342 _0315_
*343 _0316_
*344 _0317_
*345 _0318_
*346 _0319_
*347 _0320_
*348 _0321_
*349 _0322_
*350 _0323_
*351 _0324_
*352 _0325_
*353 _0326_
*354 _0327_
*355 _0328_
*356 _0329_
*357 _0330_
*358 _0331_
*359 _0332_
*360 _0333_
*361 _0334_
*362 _0335_
*363 _0336_
*364 _0337_
*365 _0338_
*366 _0339_
*367 _0340_
*368 _0341_
*369 _0342_
*370 _0343_
*371 _0344_
*372 _0345_
*373 _0346_
*374 _0347_
*375 _0348_
*376 _0349_
*377 _0350_
*378 _0351_
*379 _0352_
*380 _0353_
*381 _0354_
*382 _0355_
*383 _0356_
*384 _0357_
*385 _0358_
*386 _0359_
*387 _0360_
*388 _0361_
*389 _0362_
*390 _0363_
*391 _0364_
*392 _0365_
*393 _0366_
*394 _0367_
*395 _0368_
*396 _0369_
*397 _0370_
*398 _0371_
*399 _0372_
*400 _0373_
*401 _0374_
*402 _0375_
*403 _0376_
*404 _0377_
*405 _0378_
*406 _0379_
*407 _0380_
*408 _0381_
*409 _0382_
*410 _0383_
*411 _0384_
*412 _0385_
*413 _0386_
*414 _0387_
*415 _0388_
*416 _0389_
*417 _0390_
*418 _0391_
*419 _0392_
*420 _0393_
*421 _0394_
*422 _0395_
*423 _0396_
*424 _0397_
*425 _0398_
*426 _0399_
*427 _0400_
*428 _0401_
*429 _0402_
*430 _0403_
*431 _0404_
*432 _0405_
*433 _0406_
*434 _0407_
*435 _0408_
*436 _0409_
*437 _0410_
*438 _0411_
*439 _0412_
*440 _0413_
*441 _0414_
*442 _0415_
*443 _0416_
*444 _0417_
*445 _0418_
*446 _0419_
*447 _0420_
*448 _0421_
*449 _0422_
*450 _0423_
*451 _0424_
*452 _0425_
*453 _0426_
*454 _0427_
*455 _0428_
*456 _0429_
*457 _0430_
*458 _0431_
*459 _0432_
*460 _0433_
*461 _0434_
*462 _0435_
*463 _0436_
*464 _0437_
*465 _0438_
*466 _0439_
*467 _0440_
*468 _0441_
*469 _0442_
*470 _0443_
*471 _0444_
*472 _0445_
*473 _0446_
*474 _0447_
*475 _0448_
*476 _0449_
*477 _0450_
*478 _0451_
*479 clknet_0_w_clk
*480 clknet_4_0_0_w_clk
*481 clknet_4_10_0_w_clk
*482 clknet_4_11_0_w_clk
*483 clknet_4_12_0_w_clk
*484 clknet_4_13_0_w_clk
*485 clknet_4_14_0_w_clk
*486 clknet_4_15_0_w_clk
*487 clknet_4_1_0_w_clk
*488 clknet_4_2_0_w_clk
*489 clknet_4_3_0_w_clk
*490 clknet_4_4_0_w_clk
*491 clknet_4_5_0_w_clk
*492 clknet_4_6_0_w_clk
*493 clknet_4_7_0_w_clk
*494 clknet_4_8_0_w_clk
*495 clknet_4_9_0_w_clk
*496 mem\[0\]\[0\]
*497 mem\[0\]\[1\]
*498 mem\[0\]\[2\]
*499 mem\[0\]\[3\]
*500 mem\[0\]\[4\]
*501 mem\[0\]\[5\]
*502 mem\[0\]\[6\]
*503 mem\[0\]\[7\]
*504 mem\[10\]\[0\]
*505 mem\[10\]\[1\]
*506 mem\[10\]\[2\]
*507 mem\[10\]\[3\]
*508 mem\[10\]\[4\]
*509 mem\[10\]\[5\]
*510 mem\[10\]\[6\]
*511 mem\[10\]\[7\]
*512 mem\[11\]\[0\]
*513 mem\[11\]\[1\]
*514 mem\[11\]\[2\]
*515 mem\[11\]\[3\]
*516 mem\[11\]\[4\]
*517 mem\[11\]\[5\]
*518 mem\[11\]\[6\]
*519 mem\[11\]\[7\]
*520 mem\[12\]\[0\]
*521 mem\[12\]\[1\]
*522 mem\[12\]\[2\]
*523 mem\[12\]\[3\]
*524 mem\[12\]\[4\]
*525 mem\[12\]\[5\]
*526 mem\[12\]\[6\]
*527 mem\[12\]\[7\]
*528 mem\[13\]\[0\]
*529 mem\[13\]\[1\]
*530 mem\[13\]\[2\]
*531 mem\[13\]\[3\]
*532 mem\[13\]\[4\]
*533 mem\[13\]\[5\]
*534 mem\[13\]\[6\]
*535 mem\[13\]\[7\]
*536 mem\[14\]\[0\]
*537 mem\[14\]\[1\]
*538 mem\[14\]\[2\]
*539 mem\[14\]\[3\]
*540 mem\[14\]\[4\]
*541 mem\[14\]\[5\]
*542 mem\[14\]\[6\]
*543 mem\[14\]\[7\]
*544 mem\[15\]\[0\]
*545 mem\[15\]\[1\]
*546 mem\[15\]\[2\]
*547 mem\[15\]\[3\]
*548 mem\[15\]\[4\]
*549 mem\[15\]\[5\]
*550 mem\[15\]\[6\]
*551 mem\[15\]\[7\]
*552 mem\[1\]\[0\]
*553 mem\[1\]\[1\]
*554 mem\[1\]\[2\]
*555 mem\[1\]\[3\]
*556 mem\[1\]\[4\]
*557 mem\[1\]\[5\]
*558 mem\[1\]\[6\]
*559 mem\[1\]\[7\]
*560 mem\[2\]\[0\]
*561 mem\[2\]\[1\]
*562 mem\[2\]\[2\]
*563 mem\[2\]\[3\]
*564 mem\[2\]\[4\]
*565 mem\[2\]\[5\]
*566 mem\[2\]\[6\]
*567 mem\[2\]\[7\]
*568 mem\[3\]\[0\]
*569 mem\[3\]\[1\]
*570 mem\[3\]\[2\]
*571 mem\[3\]\[3\]
*572 mem\[3\]\[4\]
*573 mem\[3\]\[5\]
*574 mem\[3\]\[6\]
*575 mem\[3\]\[7\]
*576 mem\[4\]\[0\]
*577 mem\[4\]\[1\]
*578 mem\[4\]\[2\]
*579 mem\[4\]\[3\]
*580 mem\[4\]\[4\]
*581 mem\[4\]\[5\]
*582 mem\[4\]\[6\]
*583 mem\[4\]\[7\]
*584 mem\[5\]\[0\]
*585 mem\[5\]\[1\]
*586 mem\[5\]\[2\]
*587 mem\[5\]\[3\]
*588 mem\[5\]\[4\]
*589 mem\[5\]\[5\]
*590 mem\[5\]\[6\]
*591 mem\[5\]\[7\]
*592 mem\[6\]\[0\]
*593 mem\[6\]\[1\]
*594 mem\[6\]\[2\]
*595 mem\[6\]\[3\]
*596 mem\[6\]\[4\]
*597 mem\[6\]\[5\]
*598 mem\[6\]\[6\]
*599 mem\[6\]\[7\]
*600 mem\[7\]\[0\]
*601 mem\[7\]\[1\]
*602 mem\[7\]\[2\]
*603 mem\[7\]\[3\]
*604 mem\[7\]\[4\]
*605 mem\[7\]\[5\]
*606 mem\[7\]\[6\]
*607 mem\[7\]\[7\]
*608 mem\[8\]\[0\]
*609 mem\[8\]\[1\]
*610 mem\[8\]\[2\]
*611 mem\[8\]\[3\]
*612 mem\[8\]\[4\]
*613 mem\[8\]\[5\]
*614 mem\[8\]\[6\]
*615 mem\[8\]\[7\]
*616 mem\[9\]\[0\]
*617 mem\[9\]\[1\]
*618 mem\[9\]\[2\]
*619 mem\[9\]\[3\]
*620 mem\[9\]\[4\]
*621 mem\[9\]\[5\]
*622 mem\[9\]\[6\]
*623 mem\[9\]\[7\]
*624 net1
*625 net10
*626 net100
*627 net101
*628 net102
*629 net103
*630 net104
*631 net105
*632 net106
*633 net107
*634 net108
*635 net109
*636 net11
*637 net110
*638 net111
*639 net112
*640 net113
*641 net114
*642 net115
*643 net116
*644 net117
*645 net118
*646 net119
*647 net12
*648 net120
*649 net121
*650 net122
*651 net123
*652 net124
*653 net125
*654 net126
*655 net127
*656 net128
*657 net129
*658 net13
*659 net130
*660 net131
*661 net132
*662 net133
*663 net134
*664 net135
*665 net136
*666 net137
*667 net138
*668 net139
*669 net14
*670 net140
*671 net141
*672 net142
*673 net143
*674 net144
*675 net145
*676 net146
*677 net147
*678 net148
*679 net149
*680 net15
*681 net150
*682 net151
*683 net152
*684 net153
*685 net154
*686 net155
*687 net156
*688 net157
*689 net158
*690 net159
*691 net16
*692 net160
*693 net161
*694 net162
*695 net163
*696 net164
*697 net165
*698 net166
*699 net17
*700 net18
*701 net19
*702 net2
*703 net20
*704 net21
*705 net22
*706 net23
*707 net24
*708 net25
*709 net26
*710 net27
*711 net28
*712 net29
*713 net3
*714 net30
*715 net31
*716 net32
*717 net33
*718 net34
*719 net35
*720 net36
*721 net37
*722 net38
*723 net39
*724 net4
*725 net40
*726 net41
*727 net42
*728 net43
*729 net44
*730 net45
*731 net46
*732 net47
*733 net48
*734 net49
*735 net5
*736 net50
*737 net51
*738 net52
*739 net53
*740 net54
*741 net55
*742 net56
*743 net57
*744 net58
*745 net59
*746 net6
*747 net60
*748 net61
*749 net62
*750 net63
*751 net64
*752 net65
*753 net66
*754 net67
*755 net68
*756 net69
*757 net7
*758 net70
*759 net71
*760 net72
*761 net73
*762 net74
*763 net75
*764 net76
*765 net77
*766 net78
*767 net79
*768 net8
*769 net80
*770 net81
*771 net82
*772 net83
*773 net84
*774 net85
*775 net86
*776 net87
*777 net88
*778 net89
*779 net9
*780 net90
*781 net91
*782 net92
*783 net93
*784 net94
*785 net95
*786 net96
*787 net97
*788 net98
*789 net99
*790 r_ptr_b\[0\]
*791 r_ptr_b\[1\]
*792 r_ptr_b\[2\]
*793 r_ptr_b\[3\]
*794 r_ptr_b\[4\]
*795 r_ptr_g\[0\]
*796 r_ptr_g\[1\]
*797 r_ptr_g\[2\]
*798 r_ptr_g\[3\]
*799 r_ptr_g_sync1\[0\]
*800 r_ptr_g_sync1\[1\]
*801 r_ptr_g_sync1\[2\]
*802 r_ptr_g_sync1\[3\]
*803 r_ptr_g_sync1\[4\]
*804 r_ptr_g_sync2\[0\]
*805 r_ptr_g_sync2\[1\]
*806 r_ptr_g_sync2\[2\]
*807 r_ptr_g_sync2\[3\]
*808 r_ptr_g_sync2\[4\]
*809 w_ptr_b\[0\]
*810 w_ptr_b\[1\]
*811 w_ptr_b\[2\]
*812 w_ptr_b\[3\]
*813 w_ptr_b\[4\]
*814 w_ptr_g\[0\]
*815 w_ptr_g\[1\]
*816 w_ptr_g\[2\]
*817 w_ptr_g\[3\]
*818 w_ptr_g_sync1\[0\]
*819 w_ptr_g_sync1\[1\]
*820 w_ptr_g_sync1\[2\]
*821 w_ptr_g_sync1\[3\]
*822 w_ptr_g_sync1\[4\]
*823 w_ptr_g_sync2\[0\]
*824 w_ptr_g_sync2\[1\]
*825 w_ptr_g_sync2\[2\]
*826 w_ptr_g_sync2\[3\]
*827 w_ptr_g_sync2\[4\]
*828 ANTENNA_1
*829 FILLER_0_0_109
*830 FILLER_0_0_113
*831 FILLER_0_0_125
*832 FILLER_0_0_137
*833 FILLER_0_0_141
*834 FILLER_0_0_153
*835 FILLER_0_0_165
*836 FILLER_0_0_175
*837 FILLER_0_0_187
*838 FILLER_0_0_19
*839 FILLER_0_0_195
*840 FILLER_0_0_197
*841 FILLER_0_0_209
*842 FILLER_0_0_221
*843 FILLER_0_0_225
*844 FILLER_0_0_237
*845 FILLER_0_0_249
*846 FILLER_0_0_253
*847 FILLER_0_0_261
*848 FILLER_0_0_27
*849 FILLER_0_0_273
*850 FILLER_0_0_279
*851 FILLER_0_0_281
*852 FILLER_0_0_29
*853 FILLER_0_0_293
*854 FILLER_0_0_305
*855 FILLER_0_0_309
*856 FILLER_0_0_321
*857 FILLER_0_0_333
*858 FILLER_0_0_337
*859 FILLER_0_0_345
*860 FILLER_0_0_357
*861 FILLER_0_0_363
*862 FILLER_0_0_365
*863 FILLER_0_0_377
*864 FILLER_0_0_389
*865 FILLER_0_0_393
*866 FILLER_0_0_405
*867 FILLER_0_0_41
*868 FILLER_0_0_417
*869 FILLER_0_0_421
*870 FILLER_0_0_429
*871 FILLER_0_0_436
*872 FILLER_0_0_449
*873 FILLER_0_0_461
*874 FILLER_0_0_473
*875 FILLER_0_0_477
*876 FILLER_0_0_489
*877 FILLER_0_0_501
*878 FILLER_0_0_53
*879 FILLER_0_0_57
*880 FILLER_0_0_69
*881 FILLER_0_0_7
*882 FILLER_0_0_77
*883 FILLER_0_0_83
*884 FILLER_0_0_85
*885 FILLER_0_0_97
*886 FILLER_0_10_109
*887 FILLER_0_10_121
*888 FILLER_0_10_133
*889 FILLER_0_10_139
*890 FILLER_0_10_141
*891 FILLER_0_10_15
*892 FILLER_0_10_153
*893 FILLER_0_10_165
*894 FILLER_0_10_177
*895 FILLER_0_10_189
*896 FILLER_0_10_195
*897 FILLER_0_10_197
*898 FILLER_0_10_209
*899 FILLER_0_10_221
*900 FILLER_0_10_233
*901 FILLER_0_10_245
*902 FILLER_0_10_251
*903 FILLER_0_10_253
*904 FILLER_0_10_265
*905 FILLER_0_10_27
*906 FILLER_0_10_277
*907 FILLER_0_10_289
*908 FILLER_0_10_29
*909 FILLER_0_10_3
*910 FILLER_0_10_301
*911 FILLER_0_10_307
*912 FILLER_0_10_309
*913 FILLER_0_10_321
*914 FILLER_0_10_333
*915 FILLER_0_10_345
*916 FILLER_0_10_357
*917 FILLER_0_10_363
*918 FILLER_0_10_365
*919 FILLER_0_10_377
*920 FILLER_0_10_389
*921 FILLER_0_10_401
*922 FILLER_0_10_41
*923 FILLER_0_10_413
*924 FILLER_0_10_419
*925 FILLER_0_10_421
*926 FILLER_0_10_433
*927 FILLER_0_10_445
*928 FILLER_0_10_457
*929 FILLER_0_10_469
*930 FILLER_0_10_475
*931 FILLER_0_10_477
*932 FILLER_0_10_489
*933 FILLER_0_10_501
*934 FILLER_0_10_513
*935 FILLER_0_10_53
*936 FILLER_0_10_65
*937 FILLER_0_10_77
*938 FILLER_0_10_83
*939 FILLER_0_10_85
*940 FILLER_0_10_97
*941 FILLER_0_11_105
*942 FILLER_0_11_111
*943 FILLER_0_11_113
*944 FILLER_0_11_125
*945 FILLER_0_11_137
*946 FILLER_0_11_149
*947 FILLER_0_11_161
*948 FILLER_0_11_167
*949 FILLER_0_11_169
*950 FILLER_0_11_181
*951 FILLER_0_11_193
*952 FILLER_0_11_205
*953 FILLER_0_11_21
*954 FILLER_0_11_217
*955 FILLER_0_11_223
*956 FILLER_0_11_225
*957 FILLER_0_11_237
*958 FILLER_0_11_249
*959 FILLER_0_11_261
*960 FILLER_0_11_273
*961 FILLER_0_11_279
*962 FILLER_0_11_281
*963 FILLER_0_11_293
*964 FILLER_0_11_305
*965 FILLER_0_11_317
*966 FILLER_0_11_329
*967 FILLER_0_11_33
*968 FILLER_0_11_335
*969 FILLER_0_11_337
*970 FILLER_0_11_349
*971 FILLER_0_11_361
*972 FILLER_0_11_373
*973 FILLER_0_11_385
*974 FILLER_0_11_391
*975 FILLER_0_11_393
*976 FILLER_0_11_405
*977 FILLER_0_11_417
*978 FILLER_0_11_429
*979 FILLER_0_11_441
*980 FILLER_0_11_447
*981 FILLER_0_11_449
*982 FILLER_0_11_45
*983 FILLER_0_11_461
*984 FILLER_0_11_473
*985 FILLER_0_11_485
*986 FILLER_0_11_497
*987 FILLER_0_11_503
*988 FILLER_0_11_505
*989 FILLER_0_11_513
*990 FILLER_0_11_53
*991 FILLER_0_11_57
*992 FILLER_0_11_69
*993 FILLER_0_11_81
*994 FILLER_0_11_9
*995 FILLER_0_11_93
*996 FILLER_0_12_109
*997 FILLER_0_12_121
*998 FILLER_0_12_133
*999 FILLER_0_12_139
*1000 FILLER_0_12_141
*1001 FILLER_0_12_15
*1002 FILLER_0_12_153
*1003 FILLER_0_12_165
*1004 FILLER_0_12_177
*1005 FILLER_0_12_189
*1006 FILLER_0_12_195
*1007 FILLER_0_12_197
*1008 FILLER_0_12_209
*1009 FILLER_0_12_221
*1010 FILLER_0_12_233
*1011 FILLER_0_12_245
*1012 FILLER_0_12_251
*1013 FILLER_0_12_253
*1014 FILLER_0_12_265
*1015 FILLER_0_12_27
*1016 FILLER_0_12_277
*1017 FILLER_0_12_289
*1018 FILLER_0_12_29
*1019 FILLER_0_12_3
*1020 FILLER_0_12_301
*1021 FILLER_0_12_307
*1022 FILLER_0_12_309
*1023 FILLER_0_12_321
*1024 FILLER_0_12_333
*1025 FILLER_0_12_345
*1026 FILLER_0_12_357
*1027 FILLER_0_12_363
*1028 FILLER_0_12_365
*1029 FILLER_0_12_377
*1030 FILLER_0_12_389
*1031 FILLER_0_12_401
*1032 FILLER_0_12_41
*1033 FILLER_0_12_413
*1034 FILLER_0_12_419
*1035 FILLER_0_12_421
*1036 FILLER_0_12_433
*1037 FILLER_0_12_445
*1038 FILLER_0_12_457
*1039 FILLER_0_12_469
*1040 FILLER_0_12_475
*1041 FILLER_0_12_477
*1042 FILLER_0_12_489
*1043 FILLER_0_12_501
*1044 FILLER_0_12_513
*1045 FILLER_0_12_53
*1046 FILLER_0_12_65
*1047 FILLER_0_12_77
*1048 FILLER_0_12_83
*1049 FILLER_0_12_85
*1050 FILLER_0_12_97
*1051 FILLER_0_13_105
*1052 FILLER_0_13_111
*1053 FILLER_0_13_113
*1054 FILLER_0_13_125
*1055 FILLER_0_13_137
*1056 FILLER_0_13_149
*1057 FILLER_0_13_15
*1058 FILLER_0_13_161
*1059 FILLER_0_13_167
*1060 FILLER_0_13_169
*1061 FILLER_0_13_181
*1062 FILLER_0_13_193
*1063 FILLER_0_13_205
*1064 FILLER_0_13_217
*1065 FILLER_0_13_223
*1066 FILLER_0_13_225
*1067 FILLER_0_13_237
*1068 FILLER_0_13_249
*1069 FILLER_0_13_261
*1070 FILLER_0_13_27
*1071 FILLER_0_13_273
*1072 FILLER_0_13_279
*1073 FILLER_0_13_281
*1074 FILLER_0_13_293
*1075 FILLER_0_13_3
*1076 FILLER_0_13_305
*1077 FILLER_0_13_317
*1078 FILLER_0_13_329
*1079 FILLER_0_13_335
*1080 FILLER_0_13_337
*1081 FILLER_0_13_349
*1082 FILLER_0_13_361
*1083 FILLER_0_13_373
*1084 FILLER_0_13_385
*1085 FILLER_0_13_39
*1086 FILLER_0_13_391
*1087 FILLER_0_13_393
*1088 FILLER_0_13_405
*1089 FILLER_0_13_417
*1090 FILLER_0_13_429
*1091 FILLER_0_13_441
*1092 FILLER_0_13_447
*1093 FILLER_0_13_449
*1094 FILLER_0_13_461
*1095 FILLER_0_13_473
*1096 FILLER_0_13_485
*1097 FILLER_0_13_497
*1098 FILLER_0_13_503
*1099 FILLER_0_13_505
*1100 FILLER_0_13_51
*1101 FILLER_0_13_513
*1102 FILLER_0_13_55
*1103 FILLER_0_13_57
*1104 FILLER_0_13_69
*1105 FILLER_0_13_81
*1106 FILLER_0_13_93
*1107 FILLER_0_14_109
*1108 FILLER_0_14_121
*1109 FILLER_0_14_133
*1110 FILLER_0_14_139
*1111 FILLER_0_14_141
*1112 FILLER_0_14_15
*1113 FILLER_0_14_153
*1114 FILLER_0_14_165
*1115 FILLER_0_14_177
*1116 FILLER_0_14_189
*1117 FILLER_0_14_195
*1118 FILLER_0_14_197
*1119 FILLER_0_14_209
*1120 FILLER_0_14_221
*1121 FILLER_0_14_233
*1122 FILLER_0_14_245
*1123 FILLER_0_14_251
*1124 FILLER_0_14_253
*1125 FILLER_0_14_265
*1126 FILLER_0_14_27
*1127 FILLER_0_14_277
*1128 FILLER_0_14_289
*1129 FILLER_0_14_29
*1130 FILLER_0_14_3
*1131 FILLER_0_14_301
*1132 FILLER_0_14_307
*1133 FILLER_0_14_309
*1134 FILLER_0_14_321
*1135 FILLER_0_14_333
*1136 FILLER_0_14_345
*1137 FILLER_0_14_357
*1138 FILLER_0_14_363
*1139 FILLER_0_14_365
*1140 FILLER_0_14_377
*1141 FILLER_0_14_389
*1142 FILLER_0_14_401
*1143 FILLER_0_14_41
*1144 FILLER_0_14_413
*1145 FILLER_0_14_419
*1146 FILLER_0_14_421
*1147 FILLER_0_14_433
*1148 FILLER_0_14_445
*1149 FILLER_0_14_457
*1150 FILLER_0_14_469
*1151 FILLER_0_14_475
*1152 FILLER_0_14_477
*1153 FILLER_0_14_489
*1154 FILLER_0_14_501
*1155 FILLER_0_14_513
*1156 FILLER_0_14_53
*1157 FILLER_0_14_65
*1158 FILLER_0_14_77
*1159 FILLER_0_14_83
*1160 FILLER_0_14_85
*1161 FILLER_0_14_97
*1162 FILLER_0_15_105
*1163 FILLER_0_15_111
*1164 FILLER_0_15_113
*1165 FILLER_0_15_125
*1166 FILLER_0_15_137
*1167 FILLER_0_15_149
*1168 FILLER_0_15_15
*1169 FILLER_0_15_161
*1170 FILLER_0_15_167
*1171 FILLER_0_15_169
*1172 FILLER_0_15_181
*1173 FILLER_0_15_193
*1174 FILLER_0_15_205
*1175 FILLER_0_15_217
*1176 FILLER_0_15_223
*1177 FILLER_0_15_225
*1178 FILLER_0_15_237
*1179 FILLER_0_15_249
*1180 FILLER_0_15_261
*1181 FILLER_0_15_27
*1182 FILLER_0_15_273
*1183 FILLER_0_15_279
*1184 FILLER_0_15_281
*1185 FILLER_0_15_293
*1186 FILLER_0_15_3
*1187 FILLER_0_15_305
*1188 FILLER_0_15_317
*1189 FILLER_0_15_329
*1190 FILLER_0_15_335
*1191 FILLER_0_15_337
*1192 FILLER_0_15_349
*1193 FILLER_0_15_361
*1194 FILLER_0_15_373
*1195 FILLER_0_15_385
*1196 FILLER_0_15_39
*1197 FILLER_0_15_391
*1198 FILLER_0_15_393
*1199 FILLER_0_15_405
*1200 FILLER_0_15_417
*1201 FILLER_0_15_429
*1202 FILLER_0_15_441
*1203 FILLER_0_15_447
*1204 FILLER_0_15_449
*1205 FILLER_0_15_461
*1206 FILLER_0_15_473
*1207 FILLER_0_15_485
*1208 FILLER_0_15_497
*1209 FILLER_0_15_503
*1210 FILLER_0_15_505
*1211 FILLER_0_15_51
*1212 FILLER_0_15_513
*1213 FILLER_0_15_55
*1214 FILLER_0_15_57
*1215 FILLER_0_15_69
*1216 FILLER_0_15_81
*1217 FILLER_0_15_93
*1218 FILLER_0_16_109
*1219 FILLER_0_16_121
*1220 FILLER_0_16_133
*1221 FILLER_0_16_139
*1222 FILLER_0_16_141
*1223 FILLER_0_16_15
*1224 FILLER_0_16_153
*1225 FILLER_0_16_165
*1226 FILLER_0_16_177
*1227 FILLER_0_16_189
*1228 FILLER_0_16_195
*1229 FILLER_0_16_197
*1230 FILLER_0_16_209
*1231 FILLER_0_16_221
*1232 FILLER_0_16_229
*1233 FILLER_0_16_239
*1234 FILLER_0_16_251
*1235 FILLER_0_16_256
*1236 FILLER_0_16_268
*1237 FILLER_0_16_27
*1238 FILLER_0_16_280
*1239 FILLER_0_16_29
*1240 FILLER_0_16_292
*1241 FILLER_0_16_3
*1242 FILLER_0_16_304
*1243 FILLER_0_16_309
*1244 FILLER_0_16_321
*1245 FILLER_0_16_333
*1246 FILLER_0_16_345
*1247 FILLER_0_16_357
*1248 FILLER_0_16_363
*1249 FILLER_0_16_365
*1250 FILLER_0_16_377
*1251 FILLER_0_16_389
*1252 FILLER_0_16_401
*1253 FILLER_0_16_41
*1254 FILLER_0_16_413
*1255 FILLER_0_16_419
*1256 FILLER_0_16_421
*1257 FILLER_0_16_433
*1258 FILLER_0_16_445
*1259 FILLER_0_16_457
*1260 FILLER_0_16_469
*1261 FILLER_0_16_475
*1262 FILLER_0_16_477
*1263 FILLER_0_16_489
*1264 FILLER_0_16_501
*1265 FILLER_0_16_513
*1266 FILLER_0_16_53
*1267 FILLER_0_16_65
*1268 FILLER_0_16_77
*1269 FILLER_0_16_83
*1270 FILLER_0_16_85
*1271 FILLER_0_16_97
*1272 FILLER_0_17_105
*1273 FILLER_0_17_111
*1274 FILLER_0_17_113
*1275 FILLER_0_17_125
*1276 FILLER_0_17_137
*1277 FILLER_0_17_149
*1278 FILLER_0_17_15
*1279 FILLER_0_17_161
*1280 FILLER_0_17_167
*1281 FILLER_0_17_169
*1282 FILLER_0_17_181
*1283 FILLER_0_17_198
*1284 FILLER_0_17_202
*1285 FILLER_0_17_212
*1286 FILLER_0_17_241
*1287 FILLER_0_17_263
*1288 FILLER_0_17_27
*1289 FILLER_0_17_275
*1290 FILLER_0_17_279
*1291 FILLER_0_17_281
*1292 FILLER_0_17_293
*1293 FILLER_0_17_3
*1294 FILLER_0_17_305
*1295 FILLER_0_17_317
*1296 FILLER_0_17_329
*1297 FILLER_0_17_335
*1298 FILLER_0_17_337
*1299 FILLER_0_17_349
*1300 FILLER_0_17_361
*1301 FILLER_0_17_373
*1302 FILLER_0_17_385
*1303 FILLER_0_17_39
*1304 FILLER_0_17_391
*1305 FILLER_0_17_393
*1306 FILLER_0_17_405
*1307 FILLER_0_17_417
*1308 FILLER_0_17_429
*1309 FILLER_0_17_441
*1310 FILLER_0_17_447
*1311 FILLER_0_17_449
*1312 FILLER_0_17_461
*1313 FILLER_0_17_473
*1314 FILLER_0_17_485
*1315 FILLER_0_17_497
*1316 FILLER_0_17_503
*1317 FILLER_0_17_505
*1318 FILLER_0_17_51
*1319 FILLER_0_17_513
*1320 FILLER_0_17_55
*1321 FILLER_0_17_57
*1322 FILLER_0_17_69
*1323 FILLER_0_17_81
*1324 FILLER_0_17_93
*1325 FILLER_0_18_109
*1326 FILLER_0_18_121
*1327 FILLER_0_18_133
*1328 FILLER_0_18_139
*1329 FILLER_0_18_141
*1330 FILLER_0_18_15
*1331 FILLER_0_18_151
*1332 FILLER_0_18_159
*1333 FILLER_0_18_163
*1334 FILLER_0_18_175
*1335 FILLER_0_18_179
*1336 FILLER_0_18_197
*1337 FILLER_0_18_214
*1338 FILLER_0_18_242
*1339 FILLER_0_18_27
*1340 FILLER_0_18_277
*1341 FILLER_0_18_289
*1342 FILLER_0_18_29
*1343 FILLER_0_18_3
*1344 FILLER_0_18_301
*1345 FILLER_0_18_307
*1346 FILLER_0_18_309
*1347 FILLER_0_18_321
*1348 FILLER_0_18_333
*1349 FILLER_0_18_345
*1350 FILLER_0_18_357
*1351 FILLER_0_18_363
*1352 FILLER_0_18_365
*1353 FILLER_0_18_377
*1354 FILLER_0_18_389
*1355 FILLER_0_18_401
*1356 FILLER_0_18_41
*1357 FILLER_0_18_413
*1358 FILLER_0_18_419
*1359 FILLER_0_18_421
*1360 FILLER_0_18_433
*1361 FILLER_0_18_445
*1362 FILLER_0_18_457
*1363 FILLER_0_18_469
*1364 FILLER_0_18_475
*1365 FILLER_0_18_477
*1366 FILLER_0_18_489
*1367 FILLER_0_18_501
*1368 FILLER_0_18_513
*1369 FILLER_0_18_53
*1370 FILLER_0_18_65
*1371 FILLER_0_18_77
*1372 FILLER_0_18_83
*1373 FILLER_0_18_85
*1374 FILLER_0_18_97
*1375 FILLER_0_19_105
*1376 FILLER_0_19_111
*1377 FILLER_0_19_113
*1378 FILLER_0_19_125
*1379 FILLER_0_19_131
*1380 FILLER_0_19_15
*1381 FILLER_0_19_151
*1382 FILLER_0_19_185
*1383 FILLER_0_19_193
*1384 FILLER_0_19_206
*1385 FILLER_0_19_210
*1386 FILLER_0_19_219
*1387 FILLER_0_19_223
*1388 FILLER_0_19_225
*1389 FILLER_0_19_27
*1390 FILLER_0_19_276
*1391 FILLER_0_19_289
*1392 FILLER_0_19_3
*1393 FILLER_0_19_301
*1394 FILLER_0_19_313
*1395 FILLER_0_19_325
*1396 FILLER_0_19_333
*1397 FILLER_0_19_337
*1398 FILLER_0_19_349
*1399 FILLER_0_19_361
*1400 FILLER_0_19_373
*1401 FILLER_0_19_385
*1402 FILLER_0_19_39
*1403 FILLER_0_19_391
*1404 FILLER_0_19_393
*1405 FILLER_0_19_405
*1406 FILLER_0_19_417
*1407 FILLER_0_19_429
*1408 FILLER_0_19_441
*1409 FILLER_0_19_447
*1410 FILLER_0_19_449
*1411 FILLER_0_19_461
*1412 FILLER_0_19_473
*1413 FILLER_0_19_485
*1414 FILLER_0_19_497
*1415 FILLER_0_19_503
*1416 FILLER_0_19_505
*1417 FILLER_0_19_51
*1418 FILLER_0_19_513
*1419 FILLER_0_19_55
*1420 FILLER_0_19_57
*1421 FILLER_0_19_69
*1422 FILLER_0_19_81
*1423 FILLER_0_19_93
*1424 FILLER_0_1_105
*1425 FILLER_0_1_111
*1426 FILLER_0_1_113
*1427 FILLER_0_1_125
*1428 FILLER_0_1_137
*1429 FILLER_0_1_149
*1430 FILLER_0_1_15
*1431 FILLER_0_1_161
*1432 FILLER_0_1_167
*1433 FILLER_0_1_169
*1434 FILLER_0_1_181
*1435 FILLER_0_1_193
*1436 FILLER_0_1_205
*1437 FILLER_0_1_217
*1438 FILLER_0_1_223
*1439 FILLER_0_1_225
*1440 FILLER_0_1_237
*1441 FILLER_0_1_249
*1442 FILLER_0_1_261
*1443 FILLER_0_1_27
*1444 FILLER_0_1_273
*1445 FILLER_0_1_279
*1446 FILLER_0_1_281
*1447 FILLER_0_1_293
*1448 FILLER_0_1_3
*1449 FILLER_0_1_305
*1450 FILLER_0_1_317
*1451 FILLER_0_1_329
*1452 FILLER_0_1_335
*1453 FILLER_0_1_337
*1454 FILLER_0_1_349
*1455 FILLER_0_1_361
*1456 FILLER_0_1_373
*1457 FILLER_0_1_385
*1458 FILLER_0_1_39
*1459 FILLER_0_1_391
*1460 FILLER_0_1_393
*1461 FILLER_0_1_405
*1462 FILLER_0_1_417
*1463 FILLER_0_1_429
*1464 FILLER_0_1_441
*1465 FILLER_0_1_447
*1466 FILLER_0_1_449
*1467 FILLER_0_1_461
*1468 FILLER_0_1_473
*1469 FILLER_0_1_485
*1470 FILLER_0_1_497
*1471 FILLER_0_1_503
*1472 FILLER_0_1_505
*1473 FILLER_0_1_51
*1474 FILLER_0_1_513
*1475 FILLER_0_1_55
*1476 FILLER_0_1_57
*1477 FILLER_0_1_69
*1478 FILLER_0_1_81
*1479 FILLER_0_1_93
*1480 FILLER_0_20_109
*1481 FILLER_0_20_121
*1482 FILLER_0_20_129
*1483 FILLER_0_20_15
*1484 FILLER_0_20_195
*1485 FILLER_0_20_214
*1486 FILLER_0_20_226
*1487 FILLER_0_20_241
*1488 FILLER_0_20_249
*1489 FILLER_0_20_253
*1490 FILLER_0_20_261
*1491 FILLER_0_20_265
*1492 FILLER_0_20_27
*1493 FILLER_0_20_277
*1494 FILLER_0_20_289
*1495 FILLER_0_20_29
*1496 FILLER_0_20_3
*1497 FILLER_0_20_301
*1498 FILLER_0_20_307
*1499 FILLER_0_20_309
*1500 FILLER_0_20_321
*1501 FILLER_0_20_333
*1502 FILLER_0_20_345
*1503 FILLER_0_20_357
*1504 FILLER_0_20_363
*1505 FILLER_0_20_365
*1506 FILLER_0_20_377
*1507 FILLER_0_20_389
*1508 FILLER_0_20_401
*1509 FILLER_0_20_41
*1510 FILLER_0_20_413
*1511 FILLER_0_20_419
*1512 FILLER_0_20_421
*1513 FILLER_0_20_433
*1514 FILLER_0_20_445
*1515 FILLER_0_20_457
*1516 FILLER_0_20_469
*1517 FILLER_0_20_475
*1518 FILLER_0_20_477
*1519 FILLER_0_20_489
*1520 FILLER_0_20_501
*1521 FILLER_0_20_513
*1522 FILLER_0_20_53
*1523 FILLER_0_20_65
*1524 FILLER_0_20_77
*1525 FILLER_0_20_83
*1526 FILLER_0_20_85
*1527 FILLER_0_20_97
*1528 FILLER_0_21_105
*1529 FILLER_0_21_111
*1530 FILLER_0_21_124
*1531 FILLER_0_21_136
*1532 FILLER_0_21_140
*1533 FILLER_0_21_15
*1534 FILLER_0_21_161
*1535 FILLER_0_21_178
*1536 FILLER_0_21_216
*1537 FILLER_0_21_225
*1538 FILLER_0_21_238
*1539 FILLER_0_21_250
*1540 FILLER_0_21_262
*1541 FILLER_0_21_27
*1542 FILLER_0_21_273
*1543 FILLER_0_21_279
*1544 FILLER_0_21_281
*1545 FILLER_0_21_293
*1546 FILLER_0_21_3
*1547 FILLER_0_21_305
*1548 FILLER_0_21_317
*1549 FILLER_0_21_329
*1550 FILLER_0_21_335
*1551 FILLER_0_21_337
*1552 FILLER_0_21_349
*1553 FILLER_0_21_361
*1554 FILLER_0_21_373
*1555 FILLER_0_21_385
*1556 FILLER_0_21_39
*1557 FILLER_0_21_391
*1558 FILLER_0_21_393
*1559 FILLER_0_21_405
*1560 FILLER_0_21_417
*1561 FILLER_0_21_429
*1562 FILLER_0_21_441
*1563 FILLER_0_21_447
*1564 FILLER_0_21_449
*1565 FILLER_0_21_461
*1566 FILLER_0_21_473
*1567 FILLER_0_21_485
*1568 FILLER_0_21_497
*1569 FILLER_0_21_503
*1570 FILLER_0_21_505
*1571 FILLER_0_21_51
*1572 FILLER_0_21_513
*1573 FILLER_0_21_55
*1574 FILLER_0_21_57
*1575 FILLER_0_21_69
*1576 FILLER_0_21_81
*1577 FILLER_0_21_93
*1578 FILLER_0_22_101
*1579 FILLER_0_22_138
*1580 FILLER_0_22_15
*1581 FILLER_0_22_150
*1582 FILLER_0_22_162
*1583 FILLER_0_22_170
*1584 FILLER_0_22_179
*1585 FILLER_0_22_191
*1586 FILLER_0_22_197
*1587 FILLER_0_22_214
*1588 FILLER_0_22_221
*1589 FILLER_0_22_262
*1590 FILLER_0_22_27
*1591 FILLER_0_22_288
*1592 FILLER_0_22_29
*1593 FILLER_0_22_3
*1594 FILLER_0_22_300
*1595 FILLER_0_22_309
*1596 FILLER_0_22_321
*1597 FILLER_0_22_333
*1598 FILLER_0_22_345
*1599 FILLER_0_22_357
*1600 FILLER_0_22_363
*1601 FILLER_0_22_365
*1602 FILLER_0_22_377
*1603 FILLER_0_22_389
*1604 FILLER_0_22_401
*1605 FILLER_0_22_41
*1606 FILLER_0_22_413
*1607 FILLER_0_22_419
*1608 FILLER_0_22_421
*1609 FILLER_0_22_433
*1610 FILLER_0_22_445
*1611 FILLER_0_22_457
*1612 FILLER_0_22_469
*1613 FILLER_0_22_475
*1614 FILLER_0_22_477
*1615 FILLER_0_22_489
*1616 FILLER_0_22_501
*1617 FILLER_0_22_513
*1618 FILLER_0_22_53
*1619 FILLER_0_22_65
*1620 FILLER_0_22_77
*1621 FILLER_0_22_83
*1622 FILLER_0_22_85
*1623 FILLER_0_22_97
*1624 FILLER_0_23_116
*1625 FILLER_0_23_15
*1626 FILLER_0_23_163
*1627 FILLER_0_23_167
*1628 FILLER_0_23_169
*1629 FILLER_0_23_181
*1630 FILLER_0_23_193
*1631 FILLER_0_23_201
*1632 FILLER_0_23_241
*1633 FILLER_0_23_245
*1634 FILLER_0_23_27
*1635 FILLER_0_23_278
*1636 FILLER_0_23_281
*1637 FILLER_0_23_293
*1638 FILLER_0_23_3
*1639 FILLER_0_23_305
*1640 FILLER_0_23_317
*1641 FILLER_0_23_329
*1642 FILLER_0_23_335
*1643 FILLER_0_23_337
*1644 FILLER_0_23_349
*1645 FILLER_0_23_361
*1646 FILLER_0_23_373
*1647 FILLER_0_23_385
*1648 FILLER_0_23_39
*1649 FILLER_0_23_391
*1650 FILLER_0_23_393
*1651 FILLER_0_23_405
*1652 FILLER_0_23_417
*1653 FILLER_0_23_429
*1654 FILLER_0_23_441
*1655 FILLER_0_23_447
*1656 FILLER_0_23_449
*1657 FILLER_0_23_461
*1658 FILLER_0_23_473
*1659 FILLER_0_23_485
*1660 FILLER_0_23_497
*1661 FILLER_0_23_503
*1662 FILLER_0_23_505
*1663 FILLER_0_23_51
*1664 FILLER_0_23_513
*1665 FILLER_0_23_55
*1666 FILLER_0_23_57
*1667 FILLER_0_23_69
*1668 FILLER_0_23_81
*1669 FILLER_0_24_113
*1670 FILLER_0_24_128
*1671 FILLER_0_24_141
*1672 FILLER_0_24_15
*1673 FILLER_0_24_153
*1674 FILLER_0_24_157
*1675 FILLER_0_24_174
*1676 FILLER_0_24_186
*1677 FILLER_0_24_194
*1678 FILLER_0_24_197
*1679 FILLER_0_24_209
*1680 FILLER_0_24_221
*1681 FILLER_0_24_244
*1682 FILLER_0_24_269
*1683 FILLER_0_24_27
*1684 FILLER_0_24_281
*1685 FILLER_0_24_29
*1686 FILLER_0_24_293
*1687 FILLER_0_24_3
*1688 FILLER_0_24_305
*1689 FILLER_0_24_309
*1690 FILLER_0_24_321
*1691 FILLER_0_24_333
*1692 FILLER_0_24_345
*1693 FILLER_0_24_357
*1694 FILLER_0_24_363
*1695 FILLER_0_24_365
*1696 FILLER_0_24_377
*1697 FILLER_0_24_389
*1698 FILLER_0_24_401
*1699 FILLER_0_24_41
*1700 FILLER_0_24_413
*1701 FILLER_0_24_419
*1702 FILLER_0_24_421
*1703 FILLER_0_24_433
*1704 FILLER_0_24_445
*1705 FILLER_0_24_457
*1706 FILLER_0_24_469
*1707 FILLER_0_24_475
*1708 FILLER_0_24_477
*1709 FILLER_0_24_489
*1710 FILLER_0_24_501
*1711 FILLER_0_24_513
*1712 FILLER_0_24_53
*1713 FILLER_0_24_65
*1714 FILLER_0_24_77
*1715 FILLER_0_24_83
*1716 FILLER_0_24_85
*1717 FILLER_0_25_101
*1718 FILLER_0_25_121
*1719 FILLER_0_25_133
*1720 FILLER_0_25_145
*1721 FILLER_0_25_15
*1722 FILLER_0_25_153
*1723 FILLER_0_25_193
*1724 FILLER_0_25_214
*1725 FILLER_0_25_222
*1726 FILLER_0_25_225
*1727 FILLER_0_25_236
*1728 FILLER_0_25_248
*1729 FILLER_0_25_260
*1730 FILLER_0_25_268
*1731 FILLER_0_25_27
*1732 FILLER_0_25_281
*1733 FILLER_0_25_293
*1734 FILLER_0_25_3
*1735 FILLER_0_25_305
*1736 FILLER_0_25_317
*1737 FILLER_0_25_329
*1738 FILLER_0_25_335
*1739 FILLER_0_25_346
*1740 FILLER_0_25_358
*1741 FILLER_0_25_370
*1742 FILLER_0_25_382
*1743 FILLER_0_25_39
*1744 FILLER_0_25_390
*1745 FILLER_0_25_393
*1746 FILLER_0_25_405
*1747 FILLER_0_25_417
*1748 FILLER_0_25_429
*1749 FILLER_0_25_441
*1750 FILLER_0_25_447
*1751 FILLER_0_25_449
*1752 FILLER_0_25_461
*1753 FILLER_0_25_473
*1754 FILLER_0_25_485
*1755 FILLER_0_25_497
*1756 FILLER_0_25_503
*1757 FILLER_0_25_505
*1758 FILLER_0_25_51
*1759 FILLER_0_25_511
*1760 FILLER_0_25_55
*1761 FILLER_0_25_57
*1762 FILLER_0_25_69
*1763 FILLER_0_25_81
*1764 FILLER_0_25_93
*1765 FILLER_0_26_105
*1766 FILLER_0_26_117
*1767 FILLER_0_26_129
*1768 FILLER_0_26_15
*1769 FILLER_0_26_150
*1770 FILLER_0_26_156
*1771 FILLER_0_26_213
*1772 FILLER_0_26_221
*1773 FILLER_0_26_247
*1774 FILLER_0_26_251
*1775 FILLER_0_26_27
*1776 FILLER_0_26_29
*1777 FILLER_0_26_296
*1778 FILLER_0_26_3
*1779 FILLER_0_26_309
*1780 FILLER_0_26_329
*1781 FILLER_0_26_351
*1782 FILLER_0_26_363
*1783 FILLER_0_26_365
*1784 FILLER_0_26_37
*1785 FILLER_0_26_377
*1786 FILLER_0_26_389
*1787 FILLER_0_26_401
*1788 FILLER_0_26_413
*1789 FILLER_0_26_419
*1790 FILLER_0_26_421
*1791 FILLER_0_26_43
*1792 FILLER_0_26_433
*1793 FILLER_0_26_445
*1794 FILLER_0_26_457
*1795 FILLER_0_26_469
*1796 FILLER_0_26_475
*1797 FILLER_0_26_477
*1798 FILLER_0_26_489
*1799 FILLER_0_26_501
*1800 FILLER_0_26_513
*1801 FILLER_0_26_55
*1802 FILLER_0_26_68
*1803 FILLER_0_26_80
*1804 FILLER_0_27_101
*1805 FILLER_0_27_109
*1806 FILLER_0_27_113
*1807 FILLER_0_27_13
*1808 FILLER_0_27_132
*1809 FILLER_0_27_167
*1810 FILLER_0_27_169
*1811 FILLER_0_27_203
*1812 FILLER_0_27_214
*1813 FILLER_0_27_241
*1814 FILLER_0_27_25
*1815 FILLER_0_27_278
*1816 FILLER_0_27_289
*1817 FILLER_0_27_301
*1818 FILLER_0_27_322
*1819 FILLER_0_27_334
*1820 FILLER_0_27_340
*1821 FILLER_0_27_352
*1822 FILLER_0_27_364
*1823 FILLER_0_27_376
*1824 FILLER_0_27_388
*1825 FILLER_0_27_393
*1826 FILLER_0_27_405
*1827 FILLER_0_27_417
*1828 FILLER_0_27_429
*1829 FILLER_0_27_441
*1830 FILLER_0_27_447
*1831 FILLER_0_27_449
*1832 FILLER_0_27_461
*1833 FILLER_0_27_473
*1834 FILLER_0_27_485
*1835 FILLER_0_27_497
*1836 FILLER_0_27_503
*1837 FILLER_0_27_505
*1838 FILLER_0_27_513
*1839 FILLER_0_27_53
*1840 FILLER_0_27_64
*1841 FILLER_0_27_73
*1842 FILLER_0_27_81
*1843 FILLER_0_27_9
*1844 FILLER_0_28_105
*1845 FILLER_0_28_139
*1846 FILLER_0_28_171
*1847 FILLER_0_28_179
*1848 FILLER_0_28_190
*1849 FILLER_0_28_20
*1850 FILLER_0_28_205
*1851 FILLER_0_28_217
*1852 FILLER_0_28_225
*1853 FILLER_0_28_235
*1854 FILLER_0_28_244
*1855 FILLER_0_28_253
*1856 FILLER_0_28_263
*1857 FILLER_0_28_278
*1858 FILLER_0_28_29
*1859 FILLER_0_28_290
*1860 FILLER_0_28_3
*1861 FILLER_0_28_302
*1862 FILLER_0_28_309
*1863 FILLER_0_28_321
*1864 FILLER_0_28_333
*1865 FILLER_0_28_345
*1866 FILLER_0_28_357
*1867 FILLER_0_28_363
*1868 FILLER_0_28_365
*1869 FILLER_0_28_377
*1870 FILLER_0_28_389
*1871 FILLER_0_28_401
*1872 FILLER_0_28_41
*1873 FILLER_0_28_413
*1874 FILLER_0_28_419
*1875 FILLER_0_28_421
*1876 FILLER_0_28_433
*1877 FILLER_0_28_445
*1878 FILLER_0_28_457
*1879 FILLER_0_28_469
*1880 FILLER_0_28_475
*1881 FILLER_0_28_477
*1882 FILLER_0_28_489
*1883 FILLER_0_28_501
*1884 FILLER_0_28_513
*1885 FILLER_0_28_62
*1886 FILLER_0_28_68
*1887 FILLER_0_28_76
*1888 FILLER_0_29_122
*1889 FILLER_0_29_133
*1890 FILLER_0_29_155
*1891 FILLER_0_29_166
*1892 FILLER_0_29_169
*1893 FILLER_0_29_181
*1894 FILLER_0_29_193
*1895 FILLER_0_29_210
*1896 FILLER_0_29_222
*1897 FILLER_0_29_253
*1898 FILLER_0_29_264
*1899 FILLER_0_29_268
*1900 FILLER_0_29_289
*1901 FILLER_0_29_3
*1902 FILLER_0_29_301
*1903 FILLER_0_29_313
*1904 FILLER_0_29_325
*1905 FILLER_0_29_333
*1906 FILLER_0_29_353
*1907 FILLER_0_29_365
*1908 FILLER_0_29_377
*1909 FILLER_0_29_389
*1910 FILLER_0_29_39
*1911 FILLER_0_29_393
*1912 FILLER_0_29_405
*1913 FILLER_0_29_417
*1914 FILLER_0_29_429
*1915 FILLER_0_29_441
*1916 FILLER_0_29_447
*1917 FILLER_0_29_449
*1918 FILLER_0_29_461
*1919 FILLER_0_29_473
*1920 FILLER_0_29_485
*1921 FILLER_0_29_497
*1922 FILLER_0_29_503
*1923 FILLER_0_29_505
*1924 FILLER_0_29_51
*1925 FILLER_0_29_513
*1926 FILLER_0_29_55
*1927 FILLER_0_29_68
*1928 FILLER_0_29_88
*1929 FILLER_0_2_109
*1930 FILLER_0_2_121
*1931 FILLER_0_2_133
*1932 FILLER_0_2_139
*1933 FILLER_0_2_141
*1934 FILLER_0_2_15
*1935 FILLER_0_2_153
*1936 FILLER_0_2_165
*1937 FILLER_0_2_177
*1938 FILLER_0_2_189
*1939 FILLER_0_2_195
*1940 FILLER_0_2_197
*1941 FILLER_0_2_209
*1942 FILLER_0_2_221
*1943 FILLER_0_2_233
*1944 FILLER_0_2_245
*1945 FILLER_0_2_251
*1946 FILLER_0_2_253
*1947 FILLER_0_2_265
*1948 FILLER_0_2_27
*1949 FILLER_0_2_277
*1950 FILLER_0_2_289
*1951 FILLER_0_2_29
*1952 FILLER_0_2_3
*1953 FILLER_0_2_301
*1954 FILLER_0_2_307
*1955 FILLER_0_2_309
*1956 FILLER_0_2_321
*1957 FILLER_0_2_333
*1958 FILLER_0_2_345
*1959 FILLER_0_2_357
*1960 FILLER_0_2_363
*1961 FILLER_0_2_365
*1962 FILLER_0_2_377
*1963 FILLER_0_2_389
*1964 FILLER_0_2_401
*1965 FILLER_0_2_41
*1966 FILLER_0_2_413
*1967 FILLER_0_2_419
*1968 FILLER_0_2_421
*1969 FILLER_0_2_433
*1970 FILLER_0_2_445
*1971 FILLER_0_2_457
*1972 FILLER_0_2_469
*1973 FILLER_0_2_475
*1974 FILLER_0_2_477
*1975 FILLER_0_2_489
*1976 FILLER_0_2_501
*1977 FILLER_0_2_513
*1978 FILLER_0_2_53
*1979 FILLER_0_2_65
*1980 FILLER_0_2_77
*1981 FILLER_0_2_83
*1982 FILLER_0_2_85
*1983 FILLER_0_2_97
*1984 FILLER_0_30_109
*1985 FILLER_0_30_121
*1986 FILLER_0_30_134
*1987 FILLER_0_30_15
*1988 FILLER_0_30_150
*1989 FILLER_0_30_156
*1990 FILLER_0_30_181
*1991 FILLER_0_30_191
*1992 FILLER_0_30_195
*1993 FILLER_0_30_222
*1994 FILLER_0_30_248
*1995 FILLER_0_30_262
*1996 FILLER_0_30_27
*1997 FILLER_0_30_284
*1998 FILLER_0_30_296
*1999 FILLER_0_30_3
*2000 FILLER_0_30_309
*2001 FILLER_0_30_321
*2002 FILLER_0_30_339
*2003 FILLER_0_30_351
*2004 FILLER_0_30_36
*2005 FILLER_0_30_363
*2006 FILLER_0_30_365
*2007 FILLER_0_30_377
*2008 FILLER_0_30_389
*2009 FILLER_0_30_401
*2010 FILLER_0_30_413
*2011 FILLER_0_30_419
*2012 FILLER_0_30_421
*2013 FILLER_0_30_433
*2014 FILLER_0_30_445
*2015 FILLER_0_30_457
*2016 FILLER_0_30_469
*2017 FILLER_0_30_475
*2018 FILLER_0_30_477
*2019 FILLER_0_30_48
*2020 FILLER_0_30_489
*2021 FILLER_0_30_501
*2022 FILLER_0_30_513
*2023 FILLER_0_30_52
*2024 FILLER_0_30_56
*2025 FILLER_0_30_68
*2026 FILLER_0_30_74
*2027 FILLER_0_30_82
*2028 FILLER_0_30_85
*2029 FILLER_0_30_97
*2030 FILLER_0_31_100
*2031 FILLER_0_31_113
*2032 FILLER_0_31_124
*2033 FILLER_0_31_130
*2034 FILLER_0_31_139
*2035 FILLER_0_31_15
*2036 FILLER_0_31_152
*2037 FILLER_0_31_156
*2038 FILLER_0_31_169
*2039 FILLER_0_31_173
*2040 FILLER_0_31_219
*2041 FILLER_0_31_225
*2042 FILLER_0_31_242
*2043 FILLER_0_31_27
*2044 FILLER_0_31_277
*2045 FILLER_0_31_3
*2046 FILLER_0_31_308
*2047 FILLER_0_31_320
*2048 FILLER_0_31_332
*2049 FILLER_0_31_337
*2050 FILLER_0_31_349
*2051 FILLER_0_31_361
*2052 FILLER_0_31_373
*2053 FILLER_0_31_385
*2054 FILLER_0_31_39
*2055 FILLER_0_31_391
*2056 FILLER_0_31_393
*2057 FILLER_0_31_405
*2058 FILLER_0_31_417
*2059 FILLER_0_31_429
*2060 FILLER_0_31_441
*2061 FILLER_0_31_447
*2062 FILLER_0_31_449
*2063 FILLER_0_31_461
*2064 FILLER_0_31_473
*2065 FILLER_0_31_485
*2066 FILLER_0_31_497
*2067 FILLER_0_31_503
*2068 FILLER_0_31_505
*2069 FILLER_0_31_51
*2070 FILLER_0_31_513
*2071 FILLER_0_31_55
*2072 FILLER_0_31_85
*2073 FILLER_0_32_104
*2074 FILLER_0_32_135
*2075 FILLER_0_32_139
*2076 FILLER_0_32_141
*2077 FILLER_0_32_15
*2078 FILLER_0_32_152
*2079 FILLER_0_32_164
*2080 FILLER_0_32_176
*2081 FILLER_0_32_182
*2082 FILLER_0_32_197
*2083 FILLER_0_32_210
*2084 FILLER_0_32_214
*2085 FILLER_0_32_221
*2086 FILLER_0_32_245
*2087 FILLER_0_32_251
*2088 FILLER_0_32_269
*2089 FILLER_0_32_27
*2090 FILLER_0_32_281
*2091 FILLER_0_32_3
*2092 FILLER_0_32_305
*2093 FILLER_0_32_317
*2094 FILLER_0_32_325
*2095 FILLER_0_32_343
*2096 FILLER_0_32_355
*2097 FILLER_0_32_36
*2098 FILLER_0_32_363
*2099 FILLER_0_32_365
*2100 FILLER_0_32_377
*2101 FILLER_0_32_389
*2102 FILLER_0_32_401
*2103 FILLER_0_32_413
*2104 FILLER_0_32_419
*2105 FILLER_0_32_421
*2106 FILLER_0_32_433
*2107 FILLER_0_32_445
*2108 FILLER_0_32_457
*2109 FILLER_0_32_469
*2110 FILLER_0_32_475
*2111 FILLER_0_32_477
*2112 FILLER_0_32_489
*2113 FILLER_0_32_501
*2114 FILLER_0_32_513
*2115 FILLER_0_32_57
*2116 FILLER_0_32_69
*2117 FILLER_0_32_81
*2118 FILLER_0_32_91
*2119 FILLER_0_33_11
*2120 FILLER_0_33_113
*2121 FILLER_0_33_117
*2122 FILLER_0_33_135
*2123 FILLER_0_33_16
*2124 FILLER_0_33_165
*2125 FILLER_0_33_169
*2126 FILLER_0_33_179
*2127 FILLER_0_33_191
*2128 FILLER_0_33_20
*2129 FILLER_0_33_203
*2130 FILLER_0_33_215
*2131 FILLER_0_33_223
*2132 FILLER_0_33_225
*2133 FILLER_0_33_237
*2134 FILLER_0_33_246
*2135 FILLER_0_33_258
*2136 FILLER_0_33_273
*2137 FILLER_0_33_279
*2138 FILLER_0_33_281
*2139 FILLER_0_33_3
*2140 FILLER_0_33_30
*2141 FILLER_0_33_310
*2142 FILLER_0_33_322
*2143 FILLER_0_33_333
*2144 FILLER_0_33_354
*2145 FILLER_0_33_366
*2146 FILLER_0_33_378
*2147 FILLER_0_33_390
*2148 FILLER_0_33_393
*2149 FILLER_0_33_405
*2150 FILLER_0_33_417
*2151 FILLER_0_33_42
*2152 FILLER_0_33_429
*2153 FILLER_0_33_441
*2154 FILLER_0_33_447
*2155 FILLER_0_33_449
*2156 FILLER_0_33_461
*2157 FILLER_0_33_473
*2158 FILLER_0_33_485
*2159 FILLER_0_33_497
*2160 FILLER_0_33_503
*2161 FILLER_0_33_505
*2162 FILLER_0_33_513
*2163 FILLER_0_33_54
*2164 FILLER_0_33_57
*2165 FILLER_0_33_69
*2166 FILLER_0_33_81
*2167 FILLER_0_33_99
*2168 FILLER_0_34_112
*2169 FILLER_0_34_137
*2170 FILLER_0_34_141
*2171 FILLER_0_34_178
*2172 FILLER_0_34_214
*2173 FILLER_0_34_222
*2174 FILLER_0_34_250
*2175 FILLER_0_34_253
*2176 FILLER_0_34_26
*2177 FILLER_0_34_265
*2178 FILLER_0_34_282
*2179 FILLER_0_34_29
*2180 FILLER_0_34_3
*2181 FILLER_0_34_307
*2182 FILLER_0_34_309
*2183 FILLER_0_34_321
*2184 FILLER_0_34_342
*2185 FILLER_0_34_354
*2186 FILLER_0_34_362
*2187 FILLER_0_34_365
*2188 FILLER_0_34_377
*2189 FILLER_0_34_389
*2190 FILLER_0_34_401
*2191 FILLER_0_34_41
*2192 FILLER_0_34_413
*2193 FILLER_0_34_419
*2194 FILLER_0_34_421
*2195 FILLER_0_34_433
*2196 FILLER_0_34_445
*2197 FILLER_0_34_457
*2198 FILLER_0_34_469
*2199 FILLER_0_34_475
*2200 FILLER_0_34_477
*2201 FILLER_0_34_489
*2202 FILLER_0_34_501
*2203 FILLER_0_34_513
*2204 FILLER_0_34_73
*2205 FILLER_0_34_81
*2206 FILLER_0_34_85
*2207 FILLER_0_35_103
*2208 FILLER_0_35_111
*2209 FILLER_0_35_138
*2210 FILLER_0_35_15
*2211 FILLER_0_35_169
*2212 FILLER_0_35_177
*2213 FILLER_0_35_197
*2214 FILLER_0_35_21
*2215 FILLER_0_35_217
*2216 FILLER_0_35_223
*2217 FILLER_0_35_225
*2218 FILLER_0_35_265
*2219 FILLER_0_35_290
*2220 FILLER_0_35_3
*2221 FILLER_0_35_305
*2222 FILLER_0_35_332
*2223 FILLER_0_35_361
*2224 FILLER_0_35_373
*2225 FILLER_0_35_385
*2226 FILLER_0_35_391
*2227 FILLER_0_35_393
*2228 FILLER_0_35_405
*2229 FILLER_0_35_417
*2230 FILLER_0_35_429
*2231 FILLER_0_35_441
*2232 FILLER_0_35_447
*2233 FILLER_0_35_449
*2234 FILLER_0_35_461
*2235 FILLER_0_35_473
*2236 FILLER_0_35_485
*2237 FILLER_0_35_49
*2238 FILLER_0_35_497
*2239 FILLER_0_35_503
*2240 FILLER_0_35_505
*2241 FILLER_0_35_513
*2242 FILLER_0_35_55
*2243 FILLER_0_35_65
*2244 FILLER_0_35_73
*2245 FILLER_0_36_109
*2246 FILLER_0_36_121
*2247 FILLER_0_36_129
*2248 FILLER_0_36_161
*2249 FILLER_0_36_173
*2250 FILLER_0_36_181
*2251 FILLER_0_36_194
*2252 FILLER_0_36_205
*2253 FILLER_0_36_209
*2254 FILLER_0_36_250
*2255 FILLER_0_36_262
*2256 FILLER_0_36_29
*2257 FILLER_0_36_3
*2258 FILLER_0_36_307
*2259 FILLER_0_36_309
*2260 FILLER_0_36_314
*2261 FILLER_0_36_322
*2262 FILLER_0_36_345
*2263 FILLER_0_36_357
*2264 FILLER_0_36_363
*2265 FILLER_0_36_365
*2266 FILLER_0_36_377
*2267 FILLER_0_36_389
*2268 FILLER_0_36_401
*2269 FILLER_0_36_41
*2270 FILLER_0_36_413
*2271 FILLER_0_36_419
*2272 FILLER_0_36_421
*2273 FILLER_0_36_433
*2274 FILLER_0_36_445
*2275 FILLER_0_36_457
*2276 FILLER_0_36_469
*2277 FILLER_0_36_475
*2278 FILLER_0_36_477
*2279 FILLER_0_36_489
*2280 FILLER_0_36_501
*2281 FILLER_0_36_513
*2282 FILLER_0_36_7
*2283 FILLER_0_36_72
*2284 FILLER_0_36_85
*2285 FILLER_0_36_97
*2286 FILLER_0_37_113
*2287 FILLER_0_37_125
*2288 FILLER_0_37_129
*2289 FILLER_0_37_163
*2290 FILLER_0_37_167
*2291 FILLER_0_37_169
*2292 FILLER_0_37_173
*2293 FILLER_0_37_182
*2294 FILLER_0_37_194
*2295 FILLER_0_37_202
*2296 FILLER_0_37_23
*2297 FILLER_0_37_245
*2298 FILLER_0_37_265
*2299 FILLER_0_37_277
*2300 FILLER_0_37_281
*2301 FILLER_0_37_291
*2302 FILLER_0_37_299
*2303 FILLER_0_37_319
*2304 FILLER_0_37_331
*2305 FILLER_0_37_345
*2306 FILLER_0_37_35
*2307 FILLER_0_37_357
*2308 FILLER_0_37_369
*2309 FILLER_0_37_381
*2310 FILLER_0_37_389
*2311 FILLER_0_37_393
*2312 FILLER_0_37_405
*2313 FILLER_0_37_417
*2314 FILLER_0_37_429
*2315 FILLER_0_37_441
*2316 FILLER_0_37_447
*2317 FILLER_0_37_449
*2318 FILLER_0_37_461
*2319 FILLER_0_37_473
*2320 FILLER_0_37_485
*2321 FILLER_0_37_497
*2322 FILLER_0_37_503
*2323 FILLER_0_37_505
*2324 FILLER_0_37_513
*2325 FILLER_0_37_54
*2326 FILLER_0_37_57
*2327 FILLER_0_37_69
*2328 FILLER_0_37_90
*2329 FILLER_0_38_120
*2330 FILLER_0_38_132
*2331 FILLER_0_38_15
*2332 FILLER_0_38_185
*2333 FILLER_0_38_189
*2334 FILLER_0_38_193
*2335 FILLER_0_38_197
*2336 FILLER_0_38_201
*2337 FILLER_0_38_205
*2338 FILLER_0_38_213
*2339 FILLER_0_38_219
*2340 FILLER_0_38_231
*2341 FILLER_0_38_243
*2342 FILLER_0_38_251
*2343 FILLER_0_38_253
*2344 FILLER_0_38_265
*2345 FILLER_0_38_27
*2346 FILLER_0_38_274
*2347 FILLER_0_38_278
*2348 FILLER_0_38_29
*2349 FILLER_0_38_295
*2350 FILLER_0_38_3
*2351 FILLER_0_38_307
*2352 FILLER_0_38_309
*2353 FILLER_0_38_317
*2354 FILLER_0_38_345
*2355 FILLER_0_38_357
*2356 FILLER_0_38_363
*2357 FILLER_0_38_365
*2358 FILLER_0_38_37
*2359 FILLER_0_38_377
*2360 FILLER_0_38_389
*2361 FILLER_0_38_401
*2362 FILLER_0_38_413
*2363 FILLER_0_38_419
*2364 FILLER_0_38_421
*2365 FILLER_0_38_433
*2366 FILLER_0_38_445
*2367 FILLER_0_38_457
*2368 FILLER_0_38_469
*2369 FILLER_0_38_475
*2370 FILLER_0_38_477
*2371 FILLER_0_38_489
*2372 FILLER_0_38_501
*2373 FILLER_0_38_513
*2374 FILLER_0_38_66
*2375 FILLER_0_38_78
*2376 FILLER_0_38_85
*2377 FILLER_0_38_97
*2378 FILLER_0_39_102
*2379 FILLER_0_39_111
*2380 FILLER_0_39_113
*2381 FILLER_0_39_123
*2382 FILLER_0_39_135
*2383 FILLER_0_39_147
*2384 FILLER_0_39_15
*2385 FILLER_0_39_155
*2386 FILLER_0_39_169
*2387 FILLER_0_39_213
*2388 FILLER_0_39_222
*2389 FILLER_0_39_225
*2390 FILLER_0_39_234
*2391 FILLER_0_39_246
*2392 FILLER_0_39_261
*2393 FILLER_0_39_27
*2394 FILLER_0_39_293
*2395 FILLER_0_39_3
*2396 FILLER_0_39_325
*2397 FILLER_0_39_333
*2398 FILLER_0_39_337
*2399 FILLER_0_39_355
*2400 FILLER_0_39_367
*2401 FILLER_0_39_379
*2402 FILLER_0_39_391
*2403 FILLER_0_39_393
*2404 FILLER_0_39_405
*2405 FILLER_0_39_417
*2406 FILLER_0_39_429
*2407 FILLER_0_39_441
*2408 FILLER_0_39_447
*2409 FILLER_0_39_449
*2410 FILLER_0_39_461
*2411 FILLER_0_39_473
*2412 FILLER_0_39_485
*2413 FILLER_0_39_497
*2414 FILLER_0_39_503
*2415 FILLER_0_39_505
*2416 FILLER_0_39_513
*2417 FILLER_0_39_52
*2418 FILLER_0_39_66
*2419 FILLER_0_39_78
*2420 FILLER_0_39_90
*2421 FILLER_0_3_105
*2422 FILLER_0_3_111
*2423 FILLER_0_3_113
*2424 FILLER_0_3_125
*2425 FILLER_0_3_137
*2426 FILLER_0_3_149
*2427 FILLER_0_3_15
*2428 FILLER_0_3_161
*2429 FILLER_0_3_167
*2430 FILLER_0_3_169
*2431 FILLER_0_3_181
*2432 FILLER_0_3_193
*2433 FILLER_0_3_205
*2434 FILLER_0_3_217
*2435 FILLER_0_3_223
*2436 FILLER_0_3_225
*2437 FILLER_0_3_237
*2438 FILLER_0_3_249
*2439 FILLER_0_3_261
*2440 FILLER_0_3_27
*2441 FILLER_0_3_273
*2442 FILLER_0_3_279
*2443 FILLER_0_3_281
*2444 FILLER_0_3_293
*2445 FILLER_0_3_3
*2446 FILLER_0_3_305
*2447 FILLER_0_3_317
*2448 FILLER_0_3_329
*2449 FILLER_0_3_335
*2450 FILLER_0_3_337
*2451 FILLER_0_3_349
*2452 FILLER_0_3_361
*2453 FILLER_0_3_373
*2454 FILLER_0_3_385
*2455 FILLER_0_3_39
*2456 FILLER_0_3_391
*2457 FILLER_0_3_393
*2458 FILLER_0_3_405
*2459 FILLER_0_3_417
*2460 FILLER_0_3_429
*2461 FILLER_0_3_441
*2462 FILLER_0_3_447
*2463 FILLER_0_3_449
*2464 FILLER_0_3_461
*2465 FILLER_0_3_473
*2466 FILLER_0_3_485
*2467 FILLER_0_3_497
*2468 FILLER_0_3_503
*2469 FILLER_0_3_505
*2470 FILLER_0_3_51
*2471 FILLER_0_3_513
*2472 FILLER_0_3_55
*2473 FILLER_0_3_57
*2474 FILLER_0_3_69
*2475 FILLER_0_3_81
*2476 FILLER_0_3_93
*2477 FILLER_0_40_112
*2478 FILLER_0_40_124
*2479 FILLER_0_40_141
*2480 FILLER_0_40_153
*2481 FILLER_0_40_249
*2482 FILLER_0_40_269
*2483 FILLER_0_40_281
*2484 FILLER_0_40_3
*2485 FILLER_0_40_325
*2486 FILLER_0_40_337
*2487 FILLER_0_40_345
*2488 FILLER_0_40_36
*2489 FILLER_0_40_362
*2490 FILLER_0_40_365
*2491 FILLER_0_40_377
*2492 FILLER_0_40_389
*2493 FILLER_0_40_401
*2494 FILLER_0_40_413
*2495 FILLER_0_40_419
*2496 FILLER_0_40_42
*2497 FILLER_0_40_421
*2498 FILLER_0_40_433
*2499 FILLER_0_40_445
*2500 FILLER_0_40_457
*2501 FILLER_0_40_469
*2502 FILLER_0_40_475
*2503 FILLER_0_40_477
*2504 FILLER_0_40_489
*2505 FILLER_0_40_501
*2506 FILLER_0_40_513
*2507 FILLER_0_40_7
*2508 FILLER_0_40_85
*2509 FILLER_0_40_97
*2510 FILLER_0_41_109
*2511 FILLER_0_41_125
*2512 FILLER_0_41_147
*2513 FILLER_0_41_163
*2514 FILLER_0_41_167
*2515 FILLER_0_41_178
*2516 FILLER_0_41_184
*2517 FILLER_0_41_211
*2518 FILLER_0_41_23
*2519 FILLER_0_41_234
*2520 FILLER_0_41_267
*2521 FILLER_0_41_279
*2522 FILLER_0_41_289
*2523 FILLER_0_41_301
*2524 FILLER_0_41_305
*2525 FILLER_0_41_309
*2526 FILLER_0_41_331
*2527 FILLER_0_41_335
*2528 FILLER_0_41_337
*2529 FILLER_0_41_349
*2530 FILLER_0_41_35
*2531 FILLER_0_41_361
*2532 FILLER_0_41_373
*2533 FILLER_0_41_385
*2534 FILLER_0_41_391
*2535 FILLER_0_41_393
*2536 FILLER_0_41_405
*2537 FILLER_0_41_417
*2538 FILLER_0_41_429
*2539 FILLER_0_41_43
*2540 FILLER_0_41_441
*2541 FILLER_0_41_447
*2542 FILLER_0_41_449
*2543 FILLER_0_41_461
*2544 FILLER_0_41_473
*2545 FILLER_0_41_48
*2546 FILLER_0_41_485
*2547 FILLER_0_41_497
*2548 FILLER_0_41_503
*2549 FILLER_0_41_505
*2550 FILLER_0_41_511
*2551 FILLER_0_41_57
*2552 FILLER_0_41_63
*2553 FILLER_0_41_75
*2554 FILLER_0_41_83
*2555 FILLER_0_41_92
*2556 FILLER_0_41_96
*2557 FILLER_0_42_107
*2558 FILLER_0_42_119
*2559 FILLER_0_42_13
*2560 FILLER_0_42_144
*2561 FILLER_0_42_148
*2562 FILLER_0_42_163
*2563 FILLER_0_42_171
*2564 FILLER_0_42_182
*2565 FILLER_0_42_194
*2566 FILLER_0_42_205
*2567 FILLER_0_42_233
*2568 FILLER_0_42_248
*2569 FILLER_0_42_25
*2570 FILLER_0_42_261
*2571 FILLER_0_42_29
*2572 FILLER_0_42_291
*2573 FILLER_0_42_300
*2574 FILLER_0_42_309
*2575 FILLER_0_42_313
*2576 FILLER_0_42_331
*2577 FILLER_0_42_343
*2578 FILLER_0_42_35
*2579 FILLER_0_42_355
*2580 FILLER_0_42_363
*2581 FILLER_0_42_365
*2582 FILLER_0_42_377
*2583 FILLER_0_42_389
*2584 FILLER_0_42_401
*2585 FILLER_0_42_413
*2586 FILLER_0_42_419
*2587 FILLER_0_42_421
*2588 FILLER_0_42_433
*2589 FILLER_0_42_445
*2590 FILLER_0_42_457
*2591 FILLER_0_42_469
*2592 FILLER_0_42_475
*2593 FILLER_0_42_477
*2594 FILLER_0_42_489
*2595 FILLER_0_42_501
*2596 FILLER_0_42_513
*2597 FILLER_0_42_65
*2598 FILLER_0_42_85
*2599 FILLER_0_42_9
*2600 FILLER_0_42_93
*2601 FILLER_0_43_109
*2602 FILLER_0_43_127
*2603 FILLER_0_43_131
*2604 FILLER_0_43_158
*2605 FILLER_0_43_166
*2606 FILLER_0_43_169
*2607 FILLER_0_43_190
*2608 FILLER_0_43_202
*2609 FILLER_0_43_214
*2610 FILLER_0_43_222
*2611 FILLER_0_43_225
*2612 FILLER_0_43_239
*2613 FILLER_0_43_251
*2614 FILLER_0_43_259
*2615 FILLER_0_43_28
*2616 FILLER_0_43_311
*2617 FILLER_0_43_323
*2618 FILLER_0_43_327
*2619 FILLER_0_43_331
*2620 FILLER_0_43_335
*2621 FILLER_0_43_346
*2622 FILLER_0_43_358
*2623 FILLER_0_43_370
*2624 FILLER_0_43_382
*2625 FILLER_0_43_390
*2626 FILLER_0_43_393
*2627 FILLER_0_43_40
*2628 FILLER_0_43_405
*2629 FILLER_0_43_417
*2630 FILLER_0_43_429
*2631 FILLER_0_43_441
*2632 FILLER_0_43_447
*2633 FILLER_0_43_449
*2634 FILLER_0_43_461
*2635 FILLER_0_43_473
*2636 FILLER_0_43_485
*2637 FILLER_0_43_497
*2638 FILLER_0_43_503
*2639 FILLER_0_43_505
*2640 FILLER_0_43_513
*2641 FILLER_0_43_52
*2642 FILLER_0_43_57
*2643 FILLER_0_43_63
*2644 FILLER_0_43_74
*2645 FILLER_0_43_82
*2646 FILLER_0_44_100
*2647 FILLER_0_44_112
*2648 FILLER_0_44_132
*2649 FILLER_0_44_141
*2650 FILLER_0_44_15
*2651 FILLER_0_44_159
*2652 FILLER_0_44_183
*2653 FILLER_0_44_197
*2654 FILLER_0_44_208
*2655 FILLER_0_44_21
*2656 FILLER_0_44_220
*2657 FILLER_0_44_232
*2658 FILLER_0_44_244
*2659 FILLER_0_44_253
*2660 FILLER_0_44_261
*2661 FILLER_0_44_267
*2662 FILLER_0_44_27
*2663 FILLER_0_44_3
*2664 FILLER_0_44_303
*2665 FILLER_0_44_307
*2666 FILLER_0_44_309
*2667 FILLER_0_44_313
*2668 FILLER_0_44_355
*2669 FILLER_0_44_363
*2670 FILLER_0_44_365
*2671 FILLER_0_44_377
*2672 FILLER_0_44_38
*2673 FILLER_0_44_389
*2674 FILLER_0_44_401
*2675 FILLER_0_44_413
*2676 FILLER_0_44_419
*2677 FILLER_0_44_421
*2678 FILLER_0_44_433
*2679 FILLER_0_44_44
*2680 FILLER_0_44_445
*2681 FILLER_0_44_457
*2682 FILLER_0_44_469
*2683 FILLER_0_44_475
*2684 FILLER_0_44_477
*2685 FILLER_0_44_489
*2686 FILLER_0_44_501
*2687 FILLER_0_44_513
*2688 FILLER_0_44_52
*2689 FILLER_0_44_63
*2690 FILLER_0_44_75
*2691 FILLER_0_44_83
*2692 FILLER_0_45_111
*2693 FILLER_0_45_113
*2694 FILLER_0_45_120
*2695 FILLER_0_45_124
*2696 FILLER_0_45_146
*2697 FILLER_0_45_162
*2698 FILLER_0_45_178
*2699 FILLER_0_45_219
*2700 FILLER_0_45_223
*2701 FILLER_0_45_242
*2702 FILLER_0_45_267
*2703 FILLER_0_45_279
*2704 FILLER_0_45_281
*2705 FILLER_0_45_285
*2706 FILLER_0_45_3
*2707 FILLER_0_45_356
*2708 FILLER_0_45_368
*2709 FILLER_0_45_380
*2710 FILLER_0_45_393
*2711 FILLER_0_45_405
*2712 FILLER_0_45_417
*2713 FILLER_0_45_429
*2714 FILLER_0_45_441
*2715 FILLER_0_45_447
*2716 FILLER_0_45_449
*2717 FILLER_0_45_461
*2718 FILLER_0_45_473
*2719 FILLER_0_45_485
*2720 FILLER_0_45_497
*2721 FILLER_0_45_503
*2722 FILLER_0_45_505
*2723 FILLER_0_45_51
*2724 FILLER_0_45_513
*2725 FILLER_0_45_55
*2726 FILLER_0_45_77
*2727 FILLER_0_45_81
*2728 FILLER_0_45_88
*2729 FILLER_0_45_99
*2730 FILLER_0_46_117
*2731 FILLER_0_46_147
*2732 FILLER_0_46_15
*2733 FILLER_0_46_164
*2734 FILLER_0_46_176
*2735 FILLER_0_46_188
*2736 FILLER_0_46_200
*2737 FILLER_0_46_212
*2738 FILLER_0_46_247
*2739 FILLER_0_46_269
*2740 FILLER_0_46_27
*2741 FILLER_0_46_281
*2742 FILLER_0_46_295
*2743 FILLER_0_46_3
*2744 FILLER_0_46_307
*2745 FILLER_0_46_320
*2746 FILLER_0_46_324
*2747 FILLER_0_46_346
*2748 FILLER_0_46_358
*2749 FILLER_0_46_36
*2750 FILLER_0_46_365
*2751 FILLER_0_46_377
*2752 FILLER_0_46_389
*2753 FILLER_0_46_401
*2754 FILLER_0_46_413
*2755 FILLER_0_46_419
*2756 FILLER_0_46_421
*2757 FILLER_0_46_433
*2758 FILLER_0_46_445
*2759 FILLER_0_46_457
*2760 FILLER_0_46_469
*2761 FILLER_0_46_475
*2762 FILLER_0_46_477
*2763 FILLER_0_46_48
*2764 FILLER_0_46_489
*2765 FILLER_0_46_501
*2766 FILLER_0_46_513
*2767 FILLER_0_46_60
*2768 FILLER_0_46_68
*2769 FILLER_0_46_73
*2770 FILLER_0_46_85
*2771 FILLER_0_47_106
*2772 FILLER_0_47_11
*2773 FILLER_0_47_113
*2774 FILLER_0_47_158
*2775 FILLER_0_47_166
*2776 FILLER_0_47_169
*2777 FILLER_0_47_183
*2778 FILLER_0_47_198
*2779 FILLER_0_47_210
*2780 FILLER_0_47_218
*2781 FILLER_0_47_223
*2782 FILLER_0_47_264
*2783 FILLER_0_47_276
*2784 FILLER_0_47_281
*2785 FILLER_0_47_289
*2786 FILLER_0_47_3
*2787 FILLER_0_47_311
*2788 FILLER_0_47_32
*2789 FILLER_0_47_323
*2790 FILLER_0_47_335
*2791 FILLER_0_47_345
*2792 FILLER_0_47_357
*2793 FILLER_0_47_369
*2794 FILLER_0_47_381
*2795 FILLER_0_47_389
*2796 FILLER_0_47_393
*2797 FILLER_0_47_405
*2798 FILLER_0_47_417
*2799 FILLER_0_47_429
*2800 FILLER_0_47_441
*2801 FILLER_0_47_447
*2802 FILLER_0_47_449
*2803 FILLER_0_47_461
*2804 FILLER_0_47_473
*2805 FILLER_0_47_485
*2806 FILLER_0_47_497
*2807 FILLER_0_47_50
*2808 FILLER_0_47_503
*2809 FILLER_0_47_505
*2810 FILLER_0_47_513
*2811 FILLER_0_47_66
*2812 FILLER_0_47_78
*2813 FILLER_0_47_86
*2814 FILLER_0_47_90
*2815 FILLER_0_48_107
*2816 FILLER_0_48_115
*2817 FILLER_0_48_134
*2818 FILLER_0_48_141
*2819 FILLER_0_48_158
*2820 FILLER_0_48_205
*2821 FILLER_0_48_213
*2822 FILLER_0_48_23
*2823 FILLER_0_48_232
*2824 FILLER_0_48_246
*2825 FILLER_0_48_261
*2826 FILLER_0_48_27
*2827 FILLER_0_48_286
*2828 FILLER_0_48_29
*2829 FILLER_0_48_290
*2830 FILLER_0_48_305
*2831 FILLER_0_48_318
*2832 FILLER_0_48_346
*2833 FILLER_0_48_356
*2834 FILLER_0_48_365
*2835 FILLER_0_48_37
*2836 FILLER_0_48_377
*2837 FILLER_0_48_389
*2838 FILLER_0_48_401
*2839 FILLER_0_48_413
*2840 FILLER_0_48_419
*2841 FILLER_0_48_421
*2842 FILLER_0_48_433
*2843 FILLER_0_48_445
*2844 FILLER_0_48_457
*2845 FILLER_0_48_469
*2846 FILLER_0_48_475
*2847 FILLER_0_48_477
*2848 FILLER_0_48_489
*2849 FILLER_0_48_501
*2850 FILLER_0_48_513
*2851 FILLER_0_48_60
*2852 FILLER_0_48_81
*2853 FILLER_0_49_102
*2854 FILLER_0_49_110
*2855 FILLER_0_49_113
*2856 FILLER_0_49_125
*2857 FILLER_0_49_133
*2858 FILLER_0_49_145
*2859 FILLER_0_49_15
*2860 FILLER_0_49_157
*2861 FILLER_0_49_178
*2862 FILLER_0_49_187
*2863 FILLER_0_49_204
*2864 FILLER_0_49_216
*2865 FILLER_0_49_225
*2866 FILLER_0_49_239
*2867 FILLER_0_49_251
*2868 FILLER_0_49_259
*2869 FILLER_0_49_27
*2870 FILLER_0_49_290
*2871 FILLER_0_49_3
*2872 FILLER_0_49_308
*2873 FILLER_0_49_329
*2874 FILLER_0_49_335
*2875 FILLER_0_49_337
*2876 FILLER_0_49_364
*2877 FILLER_0_49_376
*2878 FILLER_0_49_388
*2879 FILLER_0_49_39
*2880 FILLER_0_49_393
*2881 FILLER_0_49_405
*2882 FILLER_0_49_417
*2883 FILLER_0_49_429
*2884 FILLER_0_49_441
*2885 FILLER_0_49_447
*2886 FILLER_0_49_449
*2887 FILLER_0_49_461
*2888 FILLER_0_49_473
*2889 FILLER_0_49_485
*2890 FILLER_0_49_497
*2891 FILLER_0_49_503
*2892 FILLER_0_49_505
*2893 FILLER_0_49_51
*2894 FILLER_0_49_513
*2895 FILLER_0_49_55
*2896 FILLER_0_49_57
*2897 FILLER_0_49_61
*2898 FILLER_0_49_85
*2899 FILLER_0_49_97
*2900 FILLER_0_4_109
*2901 FILLER_0_4_121
*2902 FILLER_0_4_133
*2903 FILLER_0_4_139
*2904 FILLER_0_4_141
*2905 FILLER_0_4_15
*2906 FILLER_0_4_153
*2907 FILLER_0_4_165
*2908 FILLER_0_4_177
*2909 FILLER_0_4_189
*2910 FILLER_0_4_195
*2911 FILLER_0_4_197
*2912 FILLER_0_4_209
*2913 FILLER_0_4_221
*2914 FILLER_0_4_233
*2915 FILLER_0_4_245
*2916 FILLER_0_4_251
*2917 FILLER_0_4_253
*2918 FILLER_0_4_265
*2919 FILLER_0_4_27
*2920 FILLER_0_4_277
*2921 FILLER_0_4_289
*2922 FILLER_0_4_29
*2923 FILLER_0_4_3
*2924 FILLER_0_4_301
*2925 FILLER_0_4_307
*2926 FILLER_0_4_309
*2927 FILLER_0_4_321
*2928 FILLER_0_4_333
*2929 FILLER_0_4_345
*2930 FILLER_0_4_357
*2931 FILLER_0_4_363
*2932 FILLER_0_4_365
*2933 FILLER_0_4_377
*2934 FILLER_0_4_389
*2935 FILLER_0_4_401
*2936 FILLER_0_4_41
*2937 FILLER_0_4_413
*2938 FILLER_0_4_419
*2939 FILLER_0_4_421
*2940 FILLER_0_4_433
*2941 FILLER_0_4_445
*2942 FILLER_0_4_457
*2943 FILLER_0_4_469
*2944 FILLER_0_4_475
*2945 FILLER_0_4_477
*2946 FILLER_0_4_489
*2947 FILLER_0_4_501
*2948 FILLER_0_4_513
*2949 FILLER_0_4_53
*2950 FILLER_0_4_65
*2951 FILLER_0_4_77
*2952 FILLER_0_4_83
*2953 FILLER_0_4_85
*2954 FILLER_0_4_97
*2955 FILLER_0_50_100
*2956 FILLER_0_50_127
*2957 FILLER_0_50_139
*2958 FILLER_0_50_141
*2959 FILLER_0_50_149
*2960 FILLER_0_50_186
*2961 FILLER_0_50_195
*2962 FILLER_0_50_221
*2963 FILLER_0_50_229
*2964 FILLER_0_50_23
*2965 FILLER_0_50_250
*2966 FILLER_0_50_261
*2967 FILLER_0_50_27
*2968 FILLER_0_50_279
*2969 FILLER_0_50_304
*2970 FILLER_0_50_32
*2971 FILLER_0_50_321
*2972 FILLER_0_50_333
*2973 FILLER_0_50_365
*2974 FILLER_0_50_377
*2975 FILLER_0_50_389
*2976 FILLER_0_50_401
*2977 FILLER_0_50_413
*2978 FILLER_0_50_419
*2979 FILLER_0_50_421
*2980 FILLER_0_50_43
*2981 FILLER_0_50_433
*2982 FILLER_0_50_445
*2983 FILLER_0_50_457
*2984 FILLER_0_50_469
*2985 FILLER_0_50_475
*2986 FILLER_0_50_477
*2987 FILLER_0_50_489
*2988 FILLER_0_50_501
*2989 FILLER_0_50_513
*2990 FILLER_0_50_55
*2991 FILLER_0_50_67
*2992 FILLER_0_50_79
*2993 FILLER_0_50_83
*2994 FILLER_0_50_85
*2995 FILLER_0_50_96
*2996 FILLER_0_51_108
*2997 FILLER_0_51_113
*2998 FILLER_0_51_125
*2999 FILLER_0_51_164
*3000 FILLER_0_51_178
*3001 FILLER_0_51_190
*3002 FILLER_0_51_221
*3003 FILLER_0_51_252
*3004 FILLER_0_51_264
*3005 FILLER_0_51_276
*3006 FILLER_0_51_281
*3007 FILLER_0_51_285
*3008 FILLER_0_51_295
*3009 FILLER_0_51_307
*3010 FILLER_0_51_331
*3011 FILLER_0_51_335
*3012 FILLER_0_51_337
*3013 FILLER_0_51_345
*3014 FILLER_0_51_357
*3015 FILLER_0_51_369
*3016 FILLER_0_51_381
*3017 FILLER_0_51_389
*3018 FILLER_0_51_393
*3019 FILLER_0_51_405
*3020 FILLER_0_51_417
*3021 FILLER_0_51_429
*3022 FILLER_0_51_43
*3023 FILLER_0_51_441
*3024 FILLER_0_51_447
*3025 FILLER_0_51_449
*3026 FILLER_0_51_461
*3027 FILLER_0_51_473
*3028 FILLER_0_51_485
*3029 FILLER_0_51_497
*3030 FILLER_0_51_503
*3031 FILLER_0_51_505
*3032 FILLER_0_51_51
*3033 FILLER_0_51_513
*3034 FILLER_0_51_57
*3035 FILLER_0_51_67
*3036 FILLER_0_51_79
*3037 FILLER_0_51_85
*3038 FILLER_0_51_95
*3039 FILLER_0_52_128
*3040 FILLER_0_52_135
*3041 FILLER_0_52_15
*3042 FILLER_0_52_186
*3043 FILLER_0_52_194
*3044 FILLER_0_52_197
*3045 FILLER_0_52_205
*3046 FILLER_0_52_21
*3047 FILLER_0_52_225
*3048 FILLER_0_52_246
*3049 FILLER_0_52_277
*3050 FILLER_0_52_29
*3051 FILLER_0_52_3
*3052 FILLER_0_52_302
*3053 FILLER_0_52_306
*3054 FILLER_0_52_309
*3055 FILLER_0_52_351
*3056 FILLER_0_52_363
*3057 FILLER_0_52_365
*3058 FILLER_0_52_37
*3059 FILLER_0_52_377
*3060 FILLER_0_52_389
*3061 FILLER_0_52_401
*3062 FILLER_0_52_413
*3063 FILLER_0_52_419
*3064 FILLER_0_52_421
*3065 FILLER_0_52_433
*3066 FILLER_0_52_445
*3067 FILLER_0_52_45
*3068 FILLER_0_52_457
*3069 FILLER_0_52_469
*3070 FILLER_0_52_475
*3071 FILLER_0_52_477
*3072 FILLER_0_52_489
*3073 FILLER_0_52_501
*3074 FILLER_0_52_513
*3075 FILLER_0_52_75
*3076 FILLER_0_53_107
*3077 FILLER_0_53_111
*3078 FILLER_0_53_113
*3079 FILLER_0_53_125
*3080 FILLER_0_53_137
*3081 FILLER_0_53_141
*3082 FILLER_0_53_15
*3083 FILLER_0_53_162
*3084 FILLER_0_53_166
*3085 FILLER_0_53_169
*3086 FILLER_0_53_179
*3087 FILLER_0_53_185
*3088 FILLER_0_53_195
*3089 FILLER_0_53_219
*3090 FILLER_0_53_223
*3091 FILLER_0_53_225
*3092 FILLER_0_53_23
*3093 FILLER_0_53_240
*3094 FILLER_0_53_268
*3095 FILLER_0_53_297
*3096 FILLER_0_53_3
*3097 FILLER_0_53_31
*3098 FILLER_0_53_315
*3099 FILLER_0_53_330
*3100 FILLER_0_53_361
*3101 FILLER_0_53_373
*3102 FILLER_0_53_385
*3103 FILLER_0_53_391
*3104 FILLER_0_53_393
*3105 FILLER_0_53_405
*3106 FILLER_0_53_417
*3107 FILLER_0_53_429
*3108 FILLER_0_53_43
*3109 FILLER_0_53_441
*3110 FILLER_0_53_447
*3111 FILLER_0_53_449
*3112 FILLER_0_53_461
*3113 FILLER_0_53_473
*3114 FILLER_0_53_485
*3115 FILLER_0_53_497
*3116 FILLER_0_53_503
*3117 FILLER_0_53_505
*3118 FILLER_0_53_513
*3119 FILLER_0_53_57
*3120 FILLER_0_53_83
*3121 FILLER_0_53_95
*3122 FILLER_0_54_109
*3123 FILLER_0_54_121
*3124 FILLER_0_54_133
*3125 FILLER_0_54_139
*3126 FILLER_0_54_144
*3127 FILLER_0_54_15
*3128 FILLER_0_54_156
*3129 FILLER_0_54_176
*3130 FILLER_0_54_222
*3131 FILLER_0_54_234
*3132 FILLER_0_54_246
*3133 FILLER_0_54_251
*3134 FILLER_0_54_253
*3135 FILLER_0_54_264
*3136 FILLER_0_54_27
*3137 FILLER_0_54_276
*3138 FILLER_0_54_288
*3139 FILLER_0_54_29
*3140 FILLER_0_54_3
*3141 FILLER_0_54_300
*3142 FILLER_0_54_318
*3143 FILLER_0_54_326
*3144 FILLER_0_54_343
*3145 FILLER_0_54_355
*3146 FILLER_0_54_363
*3147 FILLER_0_54_365
*3148 FILLER_0_54_377
*3149 FILLER_0_54_389
*3150 FILLER_0_54_401
*3151 FILLER_0_54_41
*3152 FILLER_0_54_413
*3153 FILLER_0_54_419
*3154 FILLER_0_54_421
*3155 FILLER_0_54_433
*3156 FILLER_0_54_445
*3157 FILLER_0_54_457
*3158 FILLER_0_54_469
*3159 FILLER_0_54_475
*3160 FILLER_0_54_477
*3161 FILLER_0_54_489
*3162 FILLER_0_54_501
*3163 FILLER_0_54_513
*3164 FILLER_0_54_62
*3165 FILLER_0_54_72
*3166 FILLER_0_54_85
*3167 FILLER_0_54_97
*3168 FILLER_0_55_105
*3169 FILLER_0_55_15
*3170 FILLER_0_55_150
*3171 FILLER_0_55_162
*3172 FILLER_0_55_189
*3173 FILLER_0_55_201
*3174 FILLER_0_55_219
*3175 FILLER_0_55_223
*3176 FILLER_0_55_225
*3177 FILLER_0_55_237
*3178 FILLER_0_55_261
*3179 FILLER_0_55_27
*3180 FILLER_0_55_273
*3181 FILLER_0_55_277
*3182 FILLER_0_55_290
*3183 FILLER_0_55_3
*3184 FILLER_0_55_302
*3185 FILLER_0_55_322
*3186 FILLER_0_55_354
*3187 FILLER_0_55_366
*3188 FILLER_0_55_378
*3189 FILLER_0_55_39
*3190 FILLER_0_55_390
*3191 FILLER_0_55_393
*3192 FILLER_0_55_405
*3193 FILLER_0_55_417
*3194 FILLER_0_55_429
*3195 FILLER_0_55_441
*3196 FILLER_0_55_447
*3197 FILLER_0_55_449
*3198 FILLER_0_55_461
*3199 FILLER_0_55_473
*3200 FILLER_0_55_485
*3201 FILLER_0_55_497
*3202 FILLER_0_55_503
*3203 FILLER_0_55_505
*3204 FILLER_0_55_51
*3205 FILLER_0_55_513
*3206 FILLER_0_55_55
*3207 FILLER_0_55_57
*3208 FILLER_0_55_69
*3209 FILLER_0_55_81
*3210 FILLER_0_55_93
*3211 FILLER_0_56_136
*3212 FILLER_0_56_15
*3213 FILLER_0_56_157
*3214 FILLER_0_56_169
*3215 FILLER_0_56_181
*3216 FILLER_0_56_193
*3217 FILLER_0_56_197
*3218 FILLER_0_56_202
*3219 FILLER_0_56_225
*3220 FILLER_0_56_229
*3221 FILLER_0_56_239
*3222 FILLER_0_56_251
*3223 FILLER_0_56_27
*3224 FILLER_0_56_270
*3225 FILLER_0_56_29
*3226 FILLER_0_56_295
*3227 FILLER_0_56_3
*3228 FILLER_0_56_307
*3229 FILLER_0_56_318
*3230 FILLER_0_56_330
*3231 FILLER_0_56_342
*3232 FILLER_0_56_354
*3233 FILLER_0_56_362
*3234 FILLER_0_56_365
*3235 FILLER_0_56_377
*3236 FILLER_0_56_389
*3237 FILLER_0_56_401
*3238 FILLER_0_56_41
*3239 FILLER_0_56_413
*3240 FILLER_0_56_419
*3241 FILLER_0_56_421
*3242 FILLER_0_56_433
*3243 FILLER_0_56_445
*3244 FILLER_0_56_457
*3245 FILLER_0_56_469
*3246 FILLER_0_56_475
*3247 FILLER_0_56_477
*3248 FILLER_0_56_489
*3249 FILLER_0_56_501
*3250 FILLER_0_56_509
*3251 FILLER_0_56_53
*3252 FILLER_0_56_65
*3253 FILLER_0_56_77
*3254 FILLER_0_56_83
*3255 FILLER_0_56_85
*3256 FILLER_0_56_97
*3257 FILLER_0_57_105
*3258 FILLER_0_57_111
*3259 FILLER_0_57_142
*3260 FILLER_0_57_15
*3261 FILLER_0_57_160
*3262 FILLER_0_57_164
*3263 FILLER_0_57_185
*3264 FILLER_0_57_198
*3265 FILLER_0_57_222
*3266 FILLER_0_57_262
*3267 FILLER_0_57_27
*3268 FILLER_0_57_274
*3269 FILLER_0_57_279
*3270 FILLER_0_57_290
*3271 FILLER_0_57_3
*3272 FILLER_0_57_329
*3273 FILLER_0_57_335
*3274 FILLER_0_57_337
*3275 FILLER_0_57_349
*3276 FILLER_0_57_361
*3277 FILLER_0_57_373
*3278 FILLER_0_57_385
*3279 FILLER_0_57_39
*3280 FILLER_0_57_391
*3281 FILLER_0_57_393
*3282 FILLER_0_57_405
*3283 FILLER_0_57_417
*3284 FILLER_0_57_429
*3285 FILLER_0_57_441
*3286 FILLER_0_57_447
*3287 FILLER_0_57_449
*3288 FILLER_0_57_461
*3289 FILLER_0_57_473
*3290 FILLER_0_57_485
*3291 FILLER_0_57_497
*3292 FILLER_0_57_503
*3293 FILLER_0_57_505
*3294 FILLER_0_57_51
*3295 FILLER_0_57_513
*3296 FILLER_0_57_55
*3297 FILLER_0_57_57
*3298 FILLER_0_57_69
*3299 FILLER_0_57_81
*3300 FILLER_0_57_93
*3301 FILLER_0_58_109
*3302 FILLER_0_58_121
*3303 FILLER_0_58_139
*3304 FILLER_0_58_141
*3305 FILLER_0_58_15
*3306 FILLER_0_58_197
*3307 FILLER_0_58_219
*3308 FILLER_0_58_230
*3309 FILLER_0_58_246
*3310 FILLER_0_58_269
*3311 FILLER_0_58_27
*3312 FILLER_0_58_29
*3313 FILLER_0_58_3
*3314 FILLER_0_58_312
*3315 FILLER_0_58_322
*3316 FILLER_0_58_334
*3317 FILLER_0_58_346
*3318 FILLER_0_58_358
*3319 FILLER_0_58_365
*3320 FILLER_0_58_377
*3321 FILLER_0_58_389
*3322 FILLER_0_58_401
*3323 FILLER_0_58_41
*3324 FILLER_0_58_413
*3325 FILLER_0_58_419
*3326 FILLER_0_58_421
*3327 FILLER_0_58_433
*3328 FILLER_0_58_445
*3329 FILLER_0_58_457
*3330 FILLER_0_58_469
*3331 FILLER_0_58_475
*3332 FILLER_0_58_477
*3333 FILLER_0_58_489
*3334 FILLER_0_58_501
*3335 FILLER_0_58_513
*3336 FILLER_0_58_53
*3337 FILLER_0_58_65
*3338 FILLER_0_58_77
*3339 FILLER_0_58_83
*3340 FILLER_0_58_85
*3341 FILLER_0_58_97
*3342 FILLER_0_59_105
*3343 FILLER_0_59_111
*3344 FILLER_0_59_113
*3345 FILLER_0_59_125
*3346 FILLER_0_59_137
*3347 FILLER_0_59_146
*3348 FILLER_0_59_169
*3349 FILLER_0_59_191
*3350 FILLER_0_59_203
*3351 FILLER_0_59_207
*3352 FILLER_0_59_21
*3353 FILLER_0_59_211
*3354 FILLER_0_59_223
*3355 FILLER_0_59_225
*3356 FILLER_0_59_240
*3357 FILLER_0_59_261
*3358 FILLER_0_59_271
*3359 FILLER_0_59_279
*3360 FILLER_0_59_281
*3361 FILLER_0_59_295
*3362 FILLER_0_59_314
*3363 FILLER_0_59_326
*3364 FILLER_0_59_33
*3365 FILLER_0_59_334
*3366 FILLER_0_59_337
*3367 FILLER_0_59_349
*3368 FILLER_0_59_361
*3369 FILLER_0_59_373
*3370 FILLER_0_59_385
*3371 FILLER_0_59_391
*3372 FILLER_0_59_393
*3373 FILLER_0_59_405
*3374 FILLER_0_59_417
*3375 FILLER_0_59_429
*3376 FILLER_0_59_441
*3377 FILLER_0_59_447
*3378 FILLER_0_59_449
*3379 FILLER_0_59_45
*3380 FILLER_0_59_461
*3381 FILLER_0_59_473
*3382 FILLER_0_59_485
*3383 FILLER_0_59_497
*3384 FILLER_0_59_503
*3385 FILLER_0_59_505
*3386 FILLER_0_59_513
*3387 FILLER_0_59_53
*3388 FILLER_0_59_57
*3389 FILLER_0_59_69
*3390 FILLER_0_59_81
*3391 FILLER_0_59_9
*3392 FILLER_0_59_93
*3393 FILLER_0_5_105
*3394 FILLER_0_5_111
*3395 FILLER_0_5_113
*3396 FILLER_0_5_125
*3397 FILLER_0_5_137
*3398 FILLER_0_5_149
*3399 FILLER_0_5_15
*3400 FILLER_0_5_161
*3401 FILLER_0_5_167
*3402 FILLER_0_5_169
*3403 FILLER_0_5_181
*3404 FILLER_0_5_193
*3405 FILLER_0_5_205
*3406 FILLER_0_5_217
*3407 FILLER_0_5_223
*3408 FILLER_0_5_225
*3409 FILLER_0_5_237
*3410 FILLER_0_5_249
*3411 FILLER_0_5_261
*3412 FILLER_0_5_27
*3413 FILLER_0_5_273
*3414 FILLER_0_5_279
*3415 FILLER_0_5_281
*3416 FILLER_0_5_293
*3417 FILLER_0_5_3
*3418 FILLER_0_5_305
*3419 FILLER_0_5_317
*3420 FILLER_0_5_329
*3421 FILLER_0_5_335
*3422 FILLER_0_5_337
*3423 FILLER_0_5_349
*3424 FILLER_0_5_361
*3425 FILLER_0_5_373
*3426 FILLER_0_5_385
*3427 FILLER_0_5_39
*3428 FILLER_0_5_391
*3429 FILLER_0_5_393
*3430 FILLER_0_5_405
*3431 FILLER_0_5_417
*3432 FILLER_0_5_429
*3433 FILLER_0_5_441
*3434 FILLER_0_5_447
*3435 FILLER_0_5_449
*3436 FILLER_0_5_461
*3437 FILLER_0_5_473
*3438 FILLER_0_5_485
*3439 FILLER_0_5_497
*3440 FILLER_0_5_503
*3441 FILLER_0_5_505
*3442 FILLER_0_5_51
*3443 FILLER_0_5_513
*3444 FILLER_0_5_55
*3445 FILLER_0_5_57
*3446 FILLER_0_5_69
*3447 FILLER_0_5_81
*3448 FILLER_0_5_93
*3449 FILLER_0_60_109
*3450 FILLER_0_60_121
*3451 FILLER_0_60_133
*3452 FILLER_0_60_139
*3453 FILLER_0_60_141
*3454 FILLER_0_60_15
*3455 FILLER_0_60_150
*3456 FILLER_0_60_158
*3457 FILLER_0_60_176
*3458 FILLER_0_60_188
*3459 FILLER_0_60_193
*3460 FILLER_0_60_197
*3461 FILLER_0_60_201
*3462 FILLER_0_60_211
*3463 FILLER_0_60_223
*3464 FILLER_0_60_253
*3465 FILLER_0_60_265
*3466 FILLER_0_60_27
*3467 FILLER_0_60_277
*3468 FILLER_0_60_289
*3469 FILLER_0_60_29
*3470 FILLER_0_60_3
*3471 FILLER_0_60_301
*3472 FILLER_0_60_307
*3473 FILLER_0_60_309
*3474 FILLER_0_60_321
*3475 FILLER_0_60_333
*3476 FILLER_0_60_345
*3477 FILLER_0_60_357
*3478 FILLER_0_60_363
*3479 FILLER_0_60_365
*3480 FILLER_0_60_377
*3481 FILLER_0_60_389
*3482 FILLER_0_60_401
*3483 FILLER_0_60_41
*3484 FILLER_0_60_413
*3485 FILLER_0_60_419
*3486 FILLER_0_60_421
*3487 FILLER_0_60_433
*3488 FILLER_0_60_445
*3489 FILLER_0_60_457
*3490 FILLER_0_60_469
*3491 FILLER_0_60_475
*3492 FILLER_0_60_477
*3493 FILLER_0_60_489
*3494 FILLER_0_60_501
*3495 FILLER_0_60_513
*3496 FILLER_0_60_53
*3497 FILLER_0_60_65
*3498 FILLER_0_60_77
*3499 FILLER_0_60_83
*3500 FILLER_0_60_85
*3501 FILLER_0_60_97
*3502 FILLER_0_61_105
*3503 FILLER_0_61_111
*3504 FILLER_0_61_113
*3505 FILLER_0_61_125
*3506 FILLER_0_61_137
*3507 FILLER_0_61_15
*3508 FILLER_0_61_178
*3509 FILLER_0_61_212
*3510 FILLER_0_61_225
*3511 FILLER_0_61_237
*3512 FILLER_0_61_241
*3513 FILLER_0_61_267
*3514 FILLER_0_61_27
*3515 FILLER_0_61_279
*3516 FILLER_0_61_281
*3517 FILLER_0_61_293
*3518 FILLER_0_61_3
*3519 FILLER_0_61_305
*3520 FILLER_0_61_317
*3521 FILLER_0_61_329
*3522 FILLER_0_61_335
*3523 FILLER_0_61_337
*3524 FILLER_0_61_349
*3525 FILLER_0_61_361
*3526 FILLER_0_61_373
*3527 FILLER_0_61_385
*3528 FILLER_0_61_39
*3529 FILLER_0_61_391
*3530 FILLER_0_61_393
*3531 FILLER_0_61_405
*3532 FILLER_0_61_417
*3533 FILLER_0_61_429
*3534 FILLER_0_61_441
*3535 FILLER_0_61_447
*3536 FILLER_0_61_449
*3537 FILLER_0_61_461
*3538 FILLER_0_61_473
*3539 FILLER_0_61_485
*3540 FILLER_0_61_497
*3541 FILLER_0_61_503
*3542 FILLER_0_61_505
*3543 FILLER_0_61_51
*3544 FILLER_0_61_513
*3545 FILLER_0_61_55
*3546 FILLER_0_61_57
*3547 FILLER_0_61_69
*3548 FILLER_0_61_81
*3549 FILLER_0_61_93
*3550 FILLER_0_62_109
*3551 FILLER_0_62_121
*3552 FILLER_0_62_133
*3553 FILLER_0_62_139
*3554 FILLER_0_62_141
*3555 FILLER_0_62_15
*3556 FILLER_0_62_153
*3557 FILLER_0_62_172
*3558 FILLER_0_62_183
*3559 FILLER_0_62_195
*3560 FILLER_0_62_217
*3561 FILLER_0_62_229
*3562 FILLER_0_62_241
*3563 FILLER_0_62_249
*3564 FILLER_0_62_253
*3565 FILLER_0_62_259
*3566 FILLER_0_62_268
*3567 FILLER_0_62_27
*3568 FILLER_0_62_280
*3569 FILLER_0_62_29
*3570 FILLER_0_62_292
*3571 FILLER_0_62_3
*3572 FILLER_0_62_304
*3573 FILLER_0_62_309
*3574 FILLER_0_62_321
*3575 FILLER_0_62_333
*3576 FILLER_0_62_345
*3577 FILLER_0_62_357
*3578 FILLER_0_62_363
*3579 FILLER_0_62_365
*3580 FILLER_0_62_377
*3581 FILLER_0_62_389
*3582 FILLER_0_62_401
*3583 FILLER_0_62_41
*3584 FILLER_0_62_413
*3585 FILLER_0_62_419
*3586 FILLER_0_62_421
*3587 FILLER_0_62_433
*3588 FILLER_0_62_445
*3589 FILLER_0_62_457
*3590 FILLER_0_62_469
*3591 FILLER_0_62_475
*3592 FILLER_0_62_477
*3593 FILLER_0_62_489
*3594 FILLER_0_62_501
*3595 FILLER_0_62_513
*3596 FILLER_0_62_53
*3597 FILLER_0_62_65
*3598 FILLER_0_62_77
*3599 FILLER_0_62_83
*3600 FILLER_0_62_85
*3601 FILLER_0_62_97
*3602 FILLER_0_63_105
*3603 FILLER_0_63_111
*3604 FILLER_0_63_113
*3605 FILLER_0_63_125
*3606 FILLER_0_63_137
*3607 FILLER_0_63_149
*3608 FILLER_0_63_15
*3609 FILLER_0_63_161
*3610 FILLER_0_63_167
*3611 FILLER_0_63_169
*3612 FILLER_0_63_181
*3613 FILLER_0_63_193
*3614 FILLER_0_63_207
*3615 FILLER_0_63_219
*3616 FILLER_0_63_223
*3617 FILLER_0_63_225
*3618 FILLER_0_63_237
*3619 FILLER_0_63_249
*3620 FILLER_0_63_261
*3621 FILLER_0_63_27
*3622 FILLER_0_63_273
*3623 FILLER_0_63_279
*3624 FILLER_0_63_281
*3625 FILLER_0_63_293
*3626 FILLER_0_63_3
*3627 FILLER_0_63_305
*3628 FILLER_0_63_317
*3629 FILLER_0_63_329
*3630 FILLER_0_63_335
*3631 FILLER_0_63_337
*3632 FILLER_0_63_349
*3633 FILLER_0_63_361
*3634 FILLER_0_63_373
*3635 FILLER_0_63_385
*3636 FILLER_0_63_39
*3637 FILLER_0_63_391
*3638 FILLER_0_63_393
*3639 FILLER_0_63_405
*3640 FILLER_0_63_417
*3641 FILLER_0_63_429
*3642 FILLER_0_63_441
*3643 FILLER_0_63_447
*3644 FILLER_0_63_449
*3645 FILLER_0_63_461
*3646 FILLER_0_63_473
*3647 FILLER_0_63_485
*3648 FILLER_0_63_497
*3649 FILLER_0_63_503
*3650 FILLER_0_63_505
*3651 FILLER_0_63_51
*3652 FILLER_0_63_513
*3653 FILLER_0_63_55
*3654 FILLER_0_63_57
*3655 FILLER_0_63_69
*3656 FILLER_0_63_81
*3657 FILLER_0_63_93
*3658 FILLER_0_64_109
*3659 FILLER_0_64_121
*3660 FILLER_0_64_133
*3661 FILLER_0_64_139
*3662 FILLER_0_64_141
*3663 FILLER_0_64_15
*3664 FILLER_0_64_153
*3665 FILLER_0_64_165
*3666 FILLER_0_64_177
*3667 FILLER_0_64_189
*3668 FILLER_0_64_195
*3669 FILLER_0_64_197
*3670 FILLER_0_64_209
*3671 FILLER_0_64_221
*3672 FILLER_0_64_233
*3673 FILLER_0_64_245
*3674 FILLER_0_64_251
*3675 FILLER_0_64_253
*3676 FILLER_0_64_265
*3677 FILLER_0_64_27
*3678 FILLER_0_64_277
*3679 FILLER_0_64_289
*3680 FILLER_0_64_29
*3681 FILLER_0_64_3
*3682 FILLER_0_64_301
*3683 FILLER_0_64_307
*3684 FILLER_0_64_309
*3685 FILLER_0_64_321
*3686 FILLER_0_64_333
*3687 FILLER_0_64_345
*3688 FILLER_0_64_357
*3689 FILLER_0_64_363
*3690 FILLER_0_64_365
*3691 FILLER_0_64_377
*3692 FILLER_0_64_389
*3693 FILLER_0_64_401
*3694 FILLER_0_64_41
*3695 FILLER_0_64_413
*3696 FILLER_0_64_419
*3697 FILLER_0_64_421
*3698 FILLER_0_64_433
*3699 FILLER_0_64_445
*3700 FILLER_0_64_457
*3701 FILLER_0_64_469
*3702 FILLER_0_64_475
*3703 FILLER_0_64_477
*3704 FILLER_0_64_489
*3705 FILLER_0_64_501
*3706 FILLER_0_64_513
*3707 FILLER_0_64_53
*3708 FILLER_0_64_65
*3709 FILLER_0_64_77
*3710 FILLER_0_64_83
*3711 FILLER_0_64_85
*3712 FILLER_0_64_97
*3713 FILLER_0_65_105
*3714 FILLER_0_65_111
*3715 FILLER_0_65_113
*3716 FILLER_0_65_125
*3717 FILLER_0_65_137
*3718 FILLER_0_65_149
*3719 FILLER_0_65_15
*3720 FILLER_0_65_161
*3721 FILLER_0_65_167
*3722 FILLER_0_65_169
*3723 FILLER_0_65_181
*3724 FILLER_0_65_193
*3725 FILLER_0_65_205
*3726 FILLER_0_65_217
*3727 FILLER_0_65_223
*3728 FILLER_0_65_225
*3729 FILLER_0_65_237
*3730 FILLER_0_65_249
*3731 FILLER_0_65_261
*3732 FILLER_0_65_27
*3733 FILLER_0_65_273
*3734 FILLER_0_65_279
*3735 FILLER_0_65_281
*3736 FILLER_0_65_293
*3737 FILLER_0_65_3
*3738 FILLER_0_65_305
*3739 FILLER_0_65_317
*3740 FILLER_0_65_329
*3741 FILLER_0_65_335
*3742 FILLER_0_65_337
*3743 FILLER_0_65_349
*3744 FILLER_0_65_361
*3745 FILLER_0_65_373
*3746 FILLER_0_65_385
*3747 FILLER_0_65_39
*3748 FILLER_0_65_391
*3749 FILLER_0_65_393
*3750 FILLER_0_65_405
*3751 FILLER_0_65_417
*3752 FILLER_0_65_429
*3753 FILLER_0_65_441
*3754 FILLER_0_65_447
*3755 FILLER_0_65_449
*3756 FILLER_0_65_461
*3757 FILLER_0_65_473
*3758 FILLER_0_65_485
*3759 FILLER_0_65_497
*3760 FILLER_0_65_503
*3761 FILLER_0_65_505
*3762 FILLER_0_65_51
*3763 FILLER_0_65_513
*3764 FILLER_0_65_55
*3765 FILLER_0_65_57
*3766 FILLER_0_65_69
*3767 FILLER_0_65_81
*3768 FILLER_0_65_93
*3769 FILLER_0_66_109
*3770 FILLER_0_66_121
*3771 FILLER_0_66_133
*3772 FILLER_0_66_139
*3773 FILLER_0_66_141
*3774 FILLER_0_66_15
*3775 FILLER_0_66_153
*3776 FILLER_0_66_165
*3777 FILLER_0_66_177
*3778 FILLER_0_66_189
*3779 FILLER_0_66_195
*3780 FILLER_0_66_197
*3781 FILLER_0_66_209
*3782 FILLER_0_66_221
*3783 FILLER_0_66_233
*3784 FILLER_0_66_245
*3785 FILLER_0_66_251
*3786 FILLER_0_66_253
*3787 FILLER_0_66_265
*3788 FILLER_0_66_27
*3789 FILLER_0_66_277
*3790 FILLER_0_66_289
*3791 FILLER_0_66_29
*3792 FILLER_0_66_3
*3793 FILLER_0_66_301
*3794 FILLER_0_66_307
*3795 FILLER_0_66_309
*3796 FILLER_0_66_321
*3797 FILLER_0_66_333
*3798 FILLER_0_66_345
*3799 FILLER_0_66_357
*3800 FILLER_0_66_363
*3801 FILLER_0_66_365
*3802 FILLER_0_66_377
*3803 FILLER_0_66_389
*3804 FILLER_0_66_401
*3805 FILLER_0_66_41
*3806 FILLER_0_66_413
*3807 FILLER_0_66_419
*3808 FILLER_0_66_421
*3809 FILLER_0_66_433
*3810 FILLER_0_66_445
*3811 FILLER_0_66_457
*3812 FILLER_0_66_469
*3813 FILLER_0_66_475
*3814 FILLER_0_66_477
*3815 FILLER_0_66_489
*3816 FILLER_0_66_501
*3817 FILLER_0_66_513
*3818 FILLER_0_66_53
*3819 FILLER_0_66_65
*3820 FILLER_0_66_77
*3821 FILLER_0_66_83
*3822 FILLER_0_66_85
*3823 FILLER_0_66_97
*3824 FILLER_0_67_105
*3825 FILLER_0_67_111
*3826 FILLER_0_67_113
*3827 FILLER_0_67_125
*3828 FILLER_0_67_137
*3829 FILLER_0_67_149
*3830 FILLER_0_67_15
*3831 FILLER_0_67_161
*3832 FILLER_0_67_167
*3833 FILLER_0_67_169
*3834 FILLER_0_67_181
*3835 FILLER_0_67_193
*3836 FILLER_0_67_205
*3837 FILLER_0_67_217
*3838 FILLER_0_67_223
*3839 FILLER_0_67_225
*3840 FILLER_0_67_237
*3841 FILLER_0_67_249
*3842 FILLER_0_67_261
*3843 FILLER_0_67_27
*3844 FILLER_0_67_273
*3845 FILLER_0_67_279
*3846 FILLER_0_67_281
*3847 FILLER_0_67_293
*3848 FILLER_0_67_3
*3849 FILLER_0_67_305
*3850 FILLER_0_67_317
*3851 FILLER_0_67_329
*3852 FILLER_0_67_335
*3853 FILLER_0_67_337
*3854 FILLER_0_67_349
*3855 FILLER_0_67_361
*3856 FILLER_0_67_373
*3857 FILLER_0_67_385
*3858 FILLER_0_67_39
*3859 FILLER_0_67_391
*3860 FILLER_0_67_393
*3861 FILLER_0_67_405
*3862 FILLER_0_67_417
*3863 FILLER_0_67_429
*3864 FILLER_0_67_441
*3865 FILLER_0_67_447
*3866 FILLER_0_67_449
*3867 FILLER_0_67_461
*3868 FILLER_0_67_473
*3869 FILLER_0_67_485
*3870 FILLER_0_67_497
*3871 FILLER_0_67_503
*3872 FILLER_0_67_505
*3873 FILLER_0_67_51
*3874 FILLER_0_67_513
*3875 FILLER_0_67_55
*3876 FILLER_0_67_57
*3877 FILLER_0_67_69
*3878 FILLER_0_67_81
*3879 FILLER_0_67_93
*3880 FILLER_0_68_109
*3881 FILLER_0_68_121
*3882 FILLER_0_68_133
*3883 FILLER_0_68_139
*3884 FILLER_0_68_141
*3885 FILLER_0_68_15
*3886 FILLER_0_68_153
*3887 FILLER_0_68_165
*3888 FILLER_0_68_177
*3889 FILLER_0_68_189
*3890 FILLER_0_68_195
*3891 FILLER_0_68_197
*3892 FILLER_0_68_209
*3893 FILLER_0_68_221
*3894 FILLER_0_68_233
*3895 FILLER_0_68_245
*3896 FILLER_0_68_251
*3897 FILLER_0_68_253
*3898 FILLER_0_68_265
*3899 FILLER_0_68_27
*3900 FILLER_0_68_277
*3901 FILLER_0_68_289
*3902 FILLER_0_68_29
*3903 FILLER_0_68_3
*3904 FILLER_0_68_301
*3905 FILLER_0_68_307
*3906 FILLER_0_68_309
*3907 FILLER_0_68_321
*3908 FILLER_0_68_333
*3909 FILLER_0_68_345
*3910 FILLER_0_68_357
*3911 FILLER_0_68_363
*3912 FILLER_0_68_365
*3913 FILLER_0_68_377
*3914 FILLER_0_68_389
*3915 FILLER_0_68_401
*3916 FILLER_0_68_41
*3917 FILLER_0_68_413
*3918 FILLER_0_68_419
*3919 FILLER_0_68_421
*3920 FILLER_0_68_433
*3921 FILLER_0_68_445
*3922 FILLER_0_68_457
*3923 FILLER_0_68_469
*3924 FILLER_0_68_475
*3925 FILLER_0_68_477
*3926 FILLER_0_68_489
*3927 FILLER_0_68_501
*3928 FILLER_0_68_513
*3929 FILLER_0_68_53
*3930 FILLER_0_68_65
*3931 FILLER_0_68_77
*3932 FILLER_0_68_83
*3933 FILLER_0_68_85
*3934 FILLER_0_68_97
*3935 FILLER_0_69_105
*3936 FILLER_0_69_111
*3937 FILLER_0_69_113
*3938 FILLER_0_69_125
*3939 FILLER_0_69_137
*3940 FILLER_0_69_149
*3941 FILLER_0_69_15
*3942 FILLER_0_69_161
*3943 FILLER_0_69_167
*3944 FILLER_0_69_169
*3945 FILLER_0_69_181
*3946 FILLER_0_69_193
*3947 FILLER_0_69_205
*3948 FILLER_0_69_217
*3949 FILLER_0_69_223
*3950 FILLER_0_69_225
*3951 FILLER_0_69_237
*3952 FILLER_0_69_249
*3953 FILLER_0_69_261
*3954 FILLER_0_69_27
*3955 FILLER_0_69_273
*3956 FILLER_0_69_279
*3957 FILLER_0_69_281
*3958 FILLER_0_69_293
*3959 FILLER_0_69_3
*3960 FILLER_0_69_305
*3961 FILLER_0_69_317
*3962 FILLER_0_69_329
*3963 FILLER_0_69_335
*3964 FILLER_0_69_337
*3965 FILLER_0_69_349
*3966 FILLER_0_69_361
*3967 FILLER_0_69_373
*3968 FILLER_0_69_385
*3969 FILLER_0_69_39
*3970 FILLER_0_69_391
*3971 FILLER_0_69_393
*3972 FILLER_0_69_405
*3973 FILLER_0_69_417
*3974 FILLER_0_69_429
*3975 FILLER_0_69_441
*3976 FILLER_0_69_447
*3977 FILLER_0_69_449
*3978 FILLER_0_69_461
*3979 FILLER_0_69_473
*3980 FILLER_0_69_485
*3981 FILLER_0_69_497
*3982 FILLER_0_69_503
*3983 FILLER_0_69_505
*3984 FILLER_0_69_51
*3985 FILLER_0_69_513
*3986 FILLER_0_69_55
*3987 FILLER_0_69_57
*3988 FILLER_0_69_69
*3989 FILLER_0_69_81
*3990 FILLER_0_69_93
*3991 FILLER_0_6_109
*3992 FILLER_0_6_121
*3993 FILLER_0_6_133
*3994 FILLER_0_6_139
*3995 FILLER_0_6_141
*3996 FILLER_0_6_15
*3997 FILLER_0_6_153
*3998 FILLER_0_6_165
*3999 FILLER_0_6_177
*4000 FILLER_0_6_189
*4001 FILLER_0_6_195
*4002 FILLER_0_6_197
*4003 FILLER_0_6_209
*4004 FILLER_0_6_221
*4005 FILLER_0_6_233
*4006 FILLER_0_6_245
*4007 FILLER_0_6_251
*4008 FILLER_0_6_253
*4009 FILLER_0_6_265
*4010 FILLER_0_6_27
*4011 FILLER_0_6_277
*4012 FILLER_0_6_289
*4013 FILLER_0_6_29
*4014 FILLER_0_6_3
*4015 FILLER_0_6_301
*4016 FILLER_0_6_307
*4017 FILLER_0_6_309
*4018 FILLER_0_6_321
*4019 FILLER_0_6_333
*4020 FILLER_0_6_345
*4021 FILLER_0_6_357
*4022 FILLER_0_6_363
*4023 FILLER_0_6_365
*4024 FILLER_0_6_377
*4025 FILLER_0_6_389
*4026 FILLER_0_6_401
*4027 FILLER_0_6_41
*4028 FILLER_0_6_413
*4029 FILLER_0_6_419
*4030 FILLER_0_6_421
*4031 FILLER_0_6_433
*4032 FILLER_0_6_445
*4033 FILLER_0_6_457
*4034 FILLER_0_6_469
*4035 FILLER_0_6_475
*4036 FILLER_0_6_477
*4037 FILLER_0_6_489
*4038 FILLER_0_6_501
*4039 FILLER_0_6_513
*4040 FILLER_0_6_53
*4041 FILLER_0_6_65
*4042 FILLER_0_6_77
*4043 FILLER_0_6_83
*4044 FILLER_0_6_85
*4045 FILLER_0_6_97
*4046 FILLER_0_70_109
*4047 FILLER_0_70_121
*4048 FILLER_0_70_133
*4049 FILLER_0_70_139
*4050 FILLER_0_70_141
*4051 FILLER_0_70_15
*4052 FILLER_0_70_153
*4053 FILLER_0_70_165
*4054 FILLER_0_70_177
*4055 FILLER_0_70_189
*4056 FILLER_0_70_195
*4057 FILLER_0_70_197
*4058 FILLER_0_70_209
*4059 FILLER_0_70_221
*4060 FILLER_0_70_233
*4061 FILLER_0_70_245
*4062 FILLER_0_70_251
*4063 FILLER_0_70_253
*4064 FILLER_0_70_265
*4065 FILLER_0_70_27
*4066 FILLER_0_70_277
*4067 FILLER_0_70_289
*4068 FILLER_0_70_29
*4069 FILLER_0_70_3
*4070 FILLER_0_70_301
*4071 FILLER_0_70_307
*4072 FILLER_0_70_309
*4073 FILLER_0_70_321
*4074 FILLER_0_70_333
*4075 FILLER_0_70_345
*4076 FILLER_0_70_357
*4077 FILLER_0_70_363
*4078 FILLER_0_70_365
*4079 FILLER_0_70_377
*4080 FILLER_0_70_389
*4081 FILLER_0_70_401
*4082 FILLER_0_70_41
*4083 FILLER_0_70_413
*4084 FILLER_0_70_419
*4085 FILLER_0_70_421
*4086 FILLER_0_70_433
*4087 FILLER_0_70_445
*4088 FILLER_0_70_457
*4089 FILLER_0_70_469
*4090 FILLER_0_70_475
*4091 FILLER_0_70_477
*4092 FILLER_0_70_489
*4093 FILLER_0_70_501
*4094 FILLER_0_70_513
*4095 FILLER_0_70_53
*4096 FILLER_0_70_65
*4097 FILLER_0_70_77
*4098 FILLER_0_70_83
*4099 FILLER_0_70_85
*4100 FILLER_0_70_97
*4101 FILLER_0_71_105
*4102 FILLER_0_71_111
*4103 FILLER_0_71_113
*4104 FILLER_0_71_125
*4105 FILLER_0_71_137
*4106 FILLER_0_71_149
*4107 FILLER_0_71_15
*4108 FILLER_0_71_161
*4109 FILLER_0_71_167
*4110 FILLER_0_71_169
*4111 FILLER_0_71_181
*4112 FILLER_0_71_193
*4113 FILLER_0_71_205
*4114 FILLER_0_71_217
*4115 FILLER_0_71_223
*4116 FILLER_0_71_225
*4117 FILLER_0_71_237
*4118 FILLER_0_71_249
*4119 FILLER_0_71_261
*4120 FILLER_0_71_27
*4121 FILLER_0_71_273
*4122 FILLER_0_71_279
*4123 FILLER_0_71_281
*4124 FILLER_0_71_293
*4125 FILLER_0_71_3
*4126 FILLER_0_71_305
*4127 FILLER_0_71_317
*4128 FILLER_0_71_329
*4129 FILLER_0_71_335
*4130 FILLER_0_71_337
*4131 FILLER_0_71_349
*4132 FILLER_0_71_361
*4133 FILLER_0_71_373
*4134 FILLER_0_71_385
*4135 FILLER_0_71_39
*4136 FILLER_0_71_391
*4137 FILLER_0_71_393
*4138 FILLER_0_71_405
*4139 FILLER_0_71_417
*4140 FILLER_0_71_429
*4141 FILLER_0_71_441
*4142 FILLER_0_71_447
*4143 FILLER_0_71_449
*4144 FILLER_0_71_461
*4145 FILLER_0_71_473
*4146 FILLER_0_71_485
*4147 FILLER_0_71_497
*4148 FILLER_0_71_503
*4149 FILLER_0_71_505
*4150 FILLER_0_71_51
*4151 FILLER_0_71_513
*4152 FILLER_0_71_55
*4153 FILLER_0_71_57
*4154 FILLER_0_71_69
*4155 FILLER_0_71_81
*4156 FILLER_0_71_93
*4157 FILLER_0_72_109
*4158 FILLER_0_72_121
*4159 FILLER_0_72_133
*4160 FILLER_0_72_139
*4161 FILLER_0_72_141
*4162 FILLER_0_72_15
*4163 FILLER_0_72_153
*4164 FILLER_0_72_165
*4165 FILLER_0_72_177
*4166 FILLER_0_72_189
*4167 FILLER_0_72_195
*4168 FILLER_0_72_197
*4169 FILLER_0_72_209
*4170 FILLER_0_72_221
*4171 FILLER_0_72_233
*4172 FILLER_0_72_245
*4173 FILLER_0_72_251
*4174 FILLER_0_72_253
*4175 FILLER_0_72_265
*4176 FILLER_0_72_27
*4177 FILLER_0_72_277
*4178 FILLER_0_72_289
*4179 FILLER_0_72_29
*4180 FILLER_0_72_3
*4181 FILLER_0_72_301
*4182 FILLER_0_72_307
*4183 FILLER_0_72_309
*4184 FILLER_0_72_321
*4185 FILLER_0_72_333
*4186 FILLER_0_72_345
*4187 FILLER_0_72_357
*4188 FILLER_0_72_363
*4189 FILLER_0_72_365
*4190 FILLER_0_72_377
*4191 FILLER_0_72_389
*4192 FILLER_0_72_401
*4193 FILLER_0_72_41
*4194 FILLER_0_72_413
*4195 FILLER_0_72_419
*4196 FILLER_0_72_421
*4197 FILLER_0_72_433
*4198 FILLER_0_72_445
*4199 FILLER_0_72_457
*4200 FILLER_0_72_469
*4201 FILLER_0_72_475
*4202 FILLER_0_72_477
*4203 FILLER_0_72_489
*4204 FILLER_0_72_501
*4205 FILLER_0_72_509
*4206 FILLER_0_72_53
*4207 FILLER_0_72_65
*4208 FILLER_0_72_77
*4209 FILLER_0_72_83
*4210 FILLER_0_72_85
*4211 FILLER_0_72_97
*4212 FILLER_0_73_105
*4213 FILLER_0_73_111
*4214 FILLER_0_73_113
*4215 FILLER_0_73_125
*4216 FILLER_0_73_137
*4217 FILLER_0_73_149
*4218 FILLER_0_73_15
*4219 FILLER_0_73_161
*4220 FILLER_0_73_167
*4221 FILLER_0_73_169
*4222 FILLER_0_73_181
*4223 FILLER_0_73_193
*4224 FILLER_0_73_205
*4225 FILLER_0_73_217
*4226 FILLER_0_73_223
*4227 FILLER_0_73_225
*4228 FILLER_0_73_237
*4229 FILLER_0_73_249
*4230 FILLER_0_73_261
*4231 FILLER_0_73_27
*4232 FILLER_0_73_273
*4233 FILLER_0_73_279
*4234 FILLER_0_73_281
*4235 FILLER_0_73_293
*4236 FILLER_0_73_3
*4237 FILLER_0_73_305
*4238 FILLER_0_73_317
*4239 FILLER_0_73_329
*4240 FILLER_0_73_335
*4241 FILLER_0_73_337
*4242 FILLER_0_73_349
*4243 FILLER_0_73_361
*4244 FILLER_0_73_373
*4245 FILLER_0_73_385
*4246 FILLER_0_73_39
*4247 FILLER_0_73_391
*4248 FILLER_0_73_393
*4249 FILLER_0_73_405
*4250 FILLER_0_73_417
*4251 FILLER_0_73_429
*4252 FILLER_0_73_441
*4253 FILLER_0_73_447
*4254 FILLER_0_73_449
*4255 FILLER_0_73_461
*4256 FILLER_0_73_473
*4257 FILLER_0_73_485
*4258 FILLER_0_73_497
*4259 FILLER_0_73_503
*4260 FILLER_0_73_505
*4261 FILLER_0_73_51
*4262 FILLER_0_73_513
*4263 FILLER_0_73_55
*4264 FILLER_0_73_57
*4265 FILLER_0_73_69
*4266 FILLER_0_73_81
*4267 FILLER_0_73_93
*4268 FILLER_0_74_109
*4269 FILLER_0_74_121
*4270 FILLER_0_74_133
*4271 FILLER_0_74_139
*4272 FILLER_0_74_141
*4273 FILLER_0_74_15
*4274 FILLER_0_74_153
*4275 FILLER_0_74_165
*4276 FILLER_0_74_177
*4277 FILLER_0_74_189
*4278 FILLER_0_74_195
*4279 FILLER_0_74_197
*4280 FILLER_0_74_209
*4281 FILLER_0_74_221
*4282 FILLER_0_74_233
*4283 FILLER_0_74_245
*4284 FILLER_0_74_251
*4285 FILLER_0_74_253
*4286 FILLER_0_74_265
*4287 FILLER_0_74_27
*4288 FILLER_0_74_277
*4289 FILLER_0_74_289
*4290 FILLER_0_74_29
*4291 FILLER_0_74_3
*4292 FILLER_0_74_301
*4293 FILLER_0_74_307
*4294 FILLER_0_74_309
*4295 FILLER_0_74_321
*4296 FILLER_0_74_333
*4297 FILLER_0_74_345
*4298 FILLER_0_74_357
*4299 FILLER_0_74_363
*4300 FILLER_0_74_365
*4301 FILLER_0_74_377
*4302 FILLER_0_74_389
*4303 FILLER_0_74_401
*4304 FILLER_0_74_41
*4305 FILLER_0_74_413
*4306 FILLER_0_74_419
*4307 FILLER_0_74_421
*4308 FILLER_0_74_433
*4309 FILLER_0_74_445
*4310 FILLER_0_74_457
*4311 FILLER_0_74_469
*4312 FILLER_0_74_475
*4313 FILLER_0_74_477
*4314 FILLER_0_74_489
*4315 FILLER_0_74_501
*4316 FILLER_0_74_513
*4317 FILLER_0_74_53
*4318 FILLER_0_74_65
*4319 FILLER_0_74_77
*4320 FILLER_0_74_83
*4321 FILLER_0_74_85
*4322 FILLER_0_74_97
*4323 FILLER_0_75_105
*4324 FILLER_0_75_111
*4325 FILLER_0_75_113
*4326 FILLER_0_75_125
*4327 FILLER_0_75_137
*4328 FILLER_0_75_149
*4329 FILLER_0_75_161
*4330 FILLER_0_75_167
*4331 FILLER_0_75_169
*4332 FILLER_0_75_181
*4333 FILLER_0_75_193
*4334 FILLER_0_75_205
*4335 FILLER_0_75_21
*4336 FILLER_0_75_217
*4337 FILLER_0_75_223
*4338 FILLER_0_75_225
*4339 FILLER_0_75_237
*4340 FILLER_0_75_249
*4341 FILLER_0_75_261
*4342 FILLER_0_75_273
*4343 FILLER_0_75_279
*4344 FILLER_0_75_281
*4345 FILLER_0_75_293
*4346 FILLER_0_75_305
*4347 FILLER_0_75_317
*4348 FILLER_0_75_329
*4349 FILLER_0_75_33
*4350 FILLER_0_75_335
*4351 FILLER_0_75_337
*4352 FILLER_0_75_349
*4353 FILLER_0_75_361
*4354 FILLER_0_75_373
*4355 FILLER_0_75_385
*4356 FILLER_0_75_391
*4357 FILLER_0_75_393
*4358 FILLER_0_75_405
*4359 FILLER_0_75_417
*4360 FILLER_0_75_429
*4361 FILLER_0_75_441
*4362 FILLER_0_75_447
*4363 FILLER_0_75_449
*4364 FILLER_0_75_45
*4365 FILLER_0_75_461
*4366 FILLER_0_75_473
*4367 FILLER_0_75_485
*4368 FILLER_0_75_497
*4369 FILLER_0_75_503
*4370 FILLER_0_75_505
*4371 FILLER_0_75_513
*4372 FILLER_0_75_53
*4373 FILLER_0_75_57
*4374 FILLER_0_75_69
*4375 FILLER_0_75_81
*4376 FILLER_0_75_9
*4377 FILLER_0_75_93
*4378 FILLER_0_76_109
*4379 FILLER_0_76_121
*4380 FILLER_0_76_133
*4381 FILLER_0_76_139
*4382 FILLER_0_76_141
*4383 FILLER_0_76_15
*4384 FILLER_0_76_153
*4385 FILLER_0_76_165
*4386 FILLER_0_76_177
*4387 FILLER_0_76_189
*4388 FILLER_0_76_195
*4389 FILLER_0_76_197
*4390 FILLER_0_76_209
*4391 FILLER_0_76_221
*4392 FILLER_0_76_233
*4393 FILLER_0_76_245
*4394 FILLER_0_76_251
*4395 FILLER_0_76_253
*4396 FILLER_0_76_265
*4397 FILLER_0_76_27
*4398 FILLER_0_76_277
*4399 FILLER_0_76_289
*4400 FILLER_0_76_29
*4401 FILLER_0_76_3
*4402 FILLER_0_76_301
*4403 FILLER_0_76_307
*4404 FILLER_0_76_309
*4405 FILLER_0_76_321
*4406 FILLER_0_76_333
*4407 FILLER_0_76_345
*4408 FILLER_0_76_357
*4409 FILLER_0_76_363
*4410 FILLER_0_76_365
*4411 FILLER_0_76_377
*4412 FILLER_0_76_389
*4413 FILLER_0_76_401
*4414 FILLER_0_76_41
*4415 FILLER_0_76_413
*4416 FILLER_0_76_419
*4417 FILLER_0_76_421
*4418 FILLER_0_76_433
*4419 FILLER_0_76_445
*4420 FILLER_0_76_457
*4421 FILLER_0_76_469
*4422 FILLER_0_76_475
*4423 FILLER_0_76_477
*4424 FILLER_0_76_489
*4425 FILLER_0_76_501
*4426 FILLER_0_76_513
*4427 FILLER_0_76_53
*4428 FILLER_0_76_65
*4429 FILLER_0_76_77
*4430 FILLER_0_76_83
*4431 FILLER_0_76_85
*4432 FILLER_0_76_97
*4433 FILLER_0_77_105
*4434 FILLER_0_77_111
*4435 FILLER_0_77_113
*4436 FILLER_0_77_125
*4437 FILLER_0_77_137
*4438 FILLER_0_77_149
*4439 FILLER_0_77_15
*4440 FILLER_0_77_161
*4441 FILLER_0_77_167
*4442 FILLER_0_77_169
*4443 FILLER_0_77_181
*4444 FILLER_0_77_193
*4445 FILLER_0_77_205
*4446 FILLER_0_77_217
*4447 FILLER_0_77_223
*4448 FILLER_0_77_225
*4449 FILLER_0_77_237
*4450 FILLER_0_77_249
*4451 FILLER_0_77_261
*4452 FILLER_0_77_27
*4453 FILLER_0_77_273
*4454 FILLER_0_77_279
*4455 FILLER_0_77_281
*4456 FILLER_0_77_293
*4457 FILLER_0_77_3
*4458 FILLER_0_77_305
*4459 FILLER_0_77_317
*4460 FILLER_0_77_329
*4461 FILLER_0_77_335
*4462 FILLER_0_77_337
*4463 FILLER_0_77_349
*4464 FILLER_0_77_361
*4465 FILLER_0_77_373
*4466 FILLER_0_77_385
*4467 FILLER_0_77_39
*4468 FILLER_0_77_391
*4469 FILLER_0_77_393
*4470 FILLER_0_77_405
*4471 FILLER_0_77_417
*4472 FILLER_0_77_429
*4473 FILLER_0_77_441
*4474 FILLER_0_77_447
*4475 FILLER_0_77_449
*4476 FILLER_0_77_461
*4477 FILLER_0_77_473
*4478 FILLER_0_77_485
*4479 FILLER_0_77_497
*4480 FILLER_0_77_503
*4481 FILLER_0_77_505
*4482 FILLER_0_77_51
*4483 FILLER_0_77_513
*4484 FILLER_0_77_55
*4485 FILLER_0_77_57
*4486 FILLER_0_77_69
*4487 FILLER_0_77_81
*4488 FILLER_0_77_93
*4489 FILLER_0_78_109
*4490 FILLER_0_78_121
*4491 FILLER_0_78_133
*4492 FILLER_0_78_139
*4493 FILLER_0_78_141
*4494 FILLER_0_78_15
*4495 FILLER_0_78_153
*4496 FILLER_0_78_165
*4497 FILLER_0_78_177
*4498 FILLER_0_78_189
*4499 FILLER_0_78_195
*4500 FILLER_0_78_197
*4501 FILLER_0_78_209
*4502 FILLER_0_78_221
*4503 FILLER_0_78_233
*4504 FILLER_0_78_245
*4505 FILLER_0_78_251
*4506 FILLER_0_78_253
*4507 FILLER_0_78_265
*4508 FILLER_0_78_27
*4509 FILLER_0_78_277
*4510 FILLER_0_78_289
*4511 FILLER_0_78_29
*4512 FILLER_0_78_3
*4513 FILLER_0_78_301
*4514 FILLER_0_78_307
*4515 FILLER_0_78_309
*4516 FILLER_0_78_321
*4517 FILLER_0_78_333
*4518 FILLER_0_78_345
*4519 FILLER_0_78_357
*4520 FILLER_0_78_363
*4521 FILLER_0_78_365
*4522 FILLER_0_78_377
*4523 FILLER_0_78_389
*4524 FILLER_0_78_401
*4525 FILLER_0_78_41
*4526 FILLER_0_78_413
*4527 FILLER_0_78_419
*4528 FILLER_0_78_421
*4529 FILLER_0_78_433
*4530 FILLER_0_78_445
*4531 FILLER_0_78_457
*4532 FILLER_0_78_469
*4533 FILLER_0_78_475
*4534 FILLER_0_78_477
*4535 FILLER_0_78_489
*4536 FILLER_0_78_501
*4537 FILLER_0_78_513
*4538 FILLER_0_78_53
*4539 FILLER_0_78_65
*4540 FILLER_0_78_77
*4541 FILLER_0_78_83
*4542 FILLER_0_78_85
*4543 FILLER_0_78_97
*4544 FILLER_0_79_105
*4545 FILLER_0_79_111
*4546 FILLER_0_79_113
*4547 FILLER_0_79_125
*4548 FILLER_0_79_137
*4549 FILLER_0_79_149
*4550 FILLER_0_79_15
*4551 FILLER_0_79_161
*4552 FILLER_0_79_167
*4553 FILLER_0_79_169
*4554 FILLER_0_79_181
*4555 FILLER_0_79_193
*4556 FILLER_0_79_205
*4557 FILLER_0_79_217
*4558 FILLER_0_79_223
*4559 FILLER_0_79_225
*4560 FILLER_0_79_237
*4561 FILLER_0_79_249
*4562 FILLER_0_79_261
*4563 FILLER_0_79_27
*4564 FILLER_0_79_273
*4565 FILLER_0_79_279
*4566 FILLER_0_79_281
*4567 FILLER_0_79_293
*4568 FILLER_0_79_3
*4569 FILLER_0_79_305
*4570 FILLER_0_79_317
*4571 FILLER_0_79_329
*4572 FILLER_0_79_335
*4573 FILLER_0_79_337
*4574 FILLER_0_79_349
*4575 FILLER_0_79_361
*4576 FILLER_0_79_373
*4577 FILLER_0_79_385
*4578 FILLER_0_79_39
*4579 FILLER_0_79_391
*4580 FILLER_0_79_393
*4581 FILLER_0_79_405
*4582 FILLER_0_79_417
*4583 FILLER_0_79_429
*4584 FILLER_0_79_441
*4585 FILLER_0_79_447
*4586 FILLER_0_79_449
*4587 FILLER_0_79_461
*4588 FILLER_0_79_473
*4589 FILLER_0_79_485
*4590 FILLER_0_79_497
*4591 FILLER_0_79_503
*4592 FILLER_0_79_505
*4593 FILLER_0_79_51
*4594 FILLER_0_79_513
*4595 FILLER_0_79_55
*4596 FILLER_0_79_57
*4597 FILLER_0_79_69
*4598 FILLER_0_79_81
*4599 FILLER_0_79_93
*4600 FILLER_0_7_105
*4601 FILLER_0_7_111
*4602 FILLER_0_7_113
*4603 FILLER_0_7_125
*4604 FILLER_0_7_137
*4605 FILLER_0_7_149
*4606 FILLER_0_7_15
*4607 FILLER_0_7_161
*4608 FILLER_0_7_167
*4609 FILLER_0_7_169
*4610 FILLER_0_7_181
*4611 FILLER_0_7_193
*4612 FILLER_0_7_205
*4613 FILLER_0_7_217
*4614 FILLER_0_7_223
*4615 FILLER_0_7_225
*4616 FILLER_0_7_237
*4617 FILLER_0_7_249
*4618 FILLER_0_7_261
*4619 FILLER_0_7_27
*4620 FILLER_0_7_273
*4621 FILLER_0_7_279
*4622 FILLER_0_7_281
*4623 FILLER_0_7_293
*4624 FILLER_0_7_3
*4625 FILLER_0_7_305
*4626 FILLER_0_7_317
*4627 FILLER_0_7_329
*4628 FILLER_0_7_335
*4629 FILLER_0_7_337
*4630 FILLER_0_7_349
*4631 FILLER_0_7_361
*4632 FILLER_0_7_373
*4633 FILLER_0_7_385
*4634 FILLER_0_7_39
*4635 FILLER_0_7_391
*4636 FILLER_0_7_393
*4637 FILLER_0_7_405
*4638 FILLER_0_7_417
*4639 FILLER_0_7_429
*4640 FILLER_0_7_441
*4641 FILLER_0_7_447
*4642 FILLER_0_7_449
*4643 FILLER_0_7_461
*4644 FILLER_0_7_473
*4645 FILLER_0_7_485
*4646 FILLER_0_7_497
*4647 FILLER_0_7_503
*4648 FILLER_0_7_505
*4649 FILLER_0_7_51
*4650 FILLER_0_7_513
*4651 FILLER_0_7_55
*4652 FILLER_0_7_57
*4653 FILLER_0_7_69
*4654 FILLER_0_7_81
*4655 FILLER_0_7_93
*4656 FILLER_0_80_109
*4657 FILLER_0_80_121
*4658 FILLER_0_80_133
*4659 FILLER_0_80_139
*4660 FILLER_0_80_141
*4661 FILLER_0_80_15
*4662 FILLER_0_80_153
*4663 FILLER_0_80_165
*4664 FILLER_0_80_177
*4665 FILLER_0_80_189
*4666 FILLER_0_80_195
*4667 FILLER_0_80_197
*4668 FILLER_0_80_209
*4669 FILLER_0_80_221
*4670 FILLER_0_80_233
*4671 FILLER_0_80_245
*4672 FILLER_0_80_251
*4673 FILLER_0_80_253
*4674 FILLER_0_80_265
*4675 FILLER_0_80_27
*4676 FILLER_0_80_277
*4677 FILLER_0_80_289
*4678 FILLER_0_80_29
*4679 FILLER_0_80_3
*4680 FILLER_0_80_301
*4681 FILLER_0_80_307
*4682 FILLER_0_80_309
*4683 FILLER_0_80_321
*4684 FILLER_0_80_333
*4685 FILLER_0_80_345
*4686 FILLER_0_80_357
*4687 FILLER_0_80_363
*4688 FILLER_0_80_365
*4689 FILLER_0_80_377
*4690 FILLER_0_80_389
*4691 FILLER_0_80_401
*4692 FILLER_0_80_41
*4693 FILLER_0_80_413
*4694 FILLER_0_80_419
*4695 FILLER_0_80_421
*4696 FILLER_0_80_433
*4697 FILLER_0_80_445
*4698 FILLER_0_80_457
*4699 FILLER_0_80_469
*4700 FILLER_0_80_475
*4701 FILLER_0_80_477
*4702 FILLER_0_80_489
*4703 FILLER_0_80_501
*4704 FILLER_0_80_513
*4705 FILLER_0_80_53
*4706 FILLER_0_80_65
*4707 FILLER_0_80_77
*4708 FILLER_0_80_83
*4709 FILLER_0_80_85
*4710 FILLER_0_80_97
*4711 FILLER_0_81_105
*4712 FILLER_0_81_111
*4713 FILLER_0_81_113
*4714 FILLER_0_81_125
*4715 FILLER_0_81_137
*4716 FILLER_0_81_149
*4717 FILLER_0_81_15
*4718 FILLER_0_81_161
*4719 FILLER_0_81_167
*4720 FILLER_0_81_169
*4721 FILLER_0_81_181
*4722 FILLER_0_81_193
*4723 FILLER_0_81_205
*4724 FILLER_0_81_217
*4725 FILLER_0_81_223
*4726 FILLER_0_81_225
*4727 FILLER_0_81_237
*4728 FILLER_0_81_249
*4729 FILLER_0_81_261
*4730 FILLER_0_81_27
*4731 FILLER_0_81_273
*4732 FILLER_0_81_279
*4733 FILLER_0_81_281
*4734 FILLER_0_81_293
*4735 FILLER_0_81_3
*4736 FILLER_0_81_305
*4737 FILLER_0_81_317
*4738 FILLER_0_81_329
*4739 FILLER_0_81_335
*4740 FILLER_0_81_337
*4741 FILLER_0_81_349
*4742 FILLER_0_81_361
*4743 FILLER_0_81_373
*4744 FILLER_0_81_385
*4745 FILLER_0_81_39
*4746 FILLER_0_81_391
*4747 FILLER_0_81_393
*4748 FILLER_0_81_405
*4749 FILLER_0_81_417
*4750 FILLER_0_81_429
*4751 FILLER_0_81_441
*4752 FILLER_0_81_447
*4753 FILLER_0_81_449
*4754 FILLER_0_81_461
*4755 FILLER_0_81_473
*4756 FILLER_0_81_485
*4757 FILLER_0_81_497
*4758 FILLER_0_81_503
*4759 FILLER_0_81_505
*4760 FILLER_0_81_51
*4761 FILLER_0_81_513
*4762 FILLER_0_81_55
*4763 FILLER_0_81_57
*4764 FILLER_0_81_69
*4765 FILLER_0_81_81
*4766 FILLER_0_81_93
*4767 FILLER_0_82_105
*4768 FILLER_0_82_111
*4769 FILLER_0_82_113
*4770 FILLER_0_82_125
*4771 FILLER_0_82_137
*4772 FILLER_0_82_141
*4773 FILLER_0_82_153
*4774 FILLER_0_82_165
*4775 FILLER_0_82_169
*4776 FILLER_0_82_181
*4777 FILLER_0_82_19
*4778 FILLER_0_82_193
*4779 FILLER_0_82_197
*4780 FILLER_0_82_209
*4781 FILLER_0_82_221
*4782 FILLER_0_82_225
*4783 FILLER_0_82_237
*4784 FILLER_0_82_249
*4785 FILLER_0_82_253
*4786 FILLER_0_82_265
*4787 FILLER_0_82_27
*4788 FILLER_0_82_277
*4789 FILLER_0_82_281
*4790 FILLER_0_82_29
*4791 FILLER_0_82_293
*4792 FILLER_0_82_305
*4793 FILLER_0_82_309
*4794 FILLER_0_82_321
*4795 FILLER_0_82_333
*4796 FILLER_0_82_337
*4797 FILLER_0_82_349
*4798 FILLER_0_82_359
*4799 FILLER_0_82_363
*4800 FILLER_0_82_365
*4801 FILLER_0_82_377
*4802 FILLER_0_82_389
*4803 FILLER_0_82_393
*4804 FILLER_0_82_405
*4805 FILLER_0_82_41
*4806 FILLER_0_82_417
*4807 FILLER_0_82_421
*4808 FILLER_0_82_433
*4809 FILLER_0_82_445
*4810 FILLER_0_82_455
*4811 FILLER_0_82_459
*4812 FILLER_0_82_471
*4813 FILLER_0_82_475
*4814 FILLER_0_82_477
*4815 FILLER_0_82_489
*4816 FILLER_0_82_501
*4817 FILLER_0_82_505
*4818 FILLER_0_82_509
*4819 FILLER_0_82_53
*4820 FILLER_0_82_57
*4821 FILLER_0_82_69
*4822 FILLER_0_82_7
*4823 FILLER_0_82_81
*4824 FILLER_0_82_85
*4825 FILLER_0_82_93
*4826 FILLER_0_8_109
*4827 FILLER_0_8_121
*4828 FILLER_0_8_133
*4829 FILLER_0_8_139
*4830 FILLER_0_8_141
*4831 FILLER_0_8_15
*4832 FILLER_0_8_153
*4833 FILLER_0_8_165
*4834 FILLER_0_8_177
*4835 FILLER_0_8_189
*4836 FILLER_0_8_195
*4837 FILLER_0_8_197
*4838 FILLER_0_8_209
*4839 FILLER_0_8_221
*4840 FILLER_0_8_233
*4841 FILLER_0_8_245
*4842 FILLER_0_8_251
*4843 FILLER_0_8_253
*4844 FILLER_0_8_265
*4845 FILLER_0_8_27
*4846 FILLER_0_8_277
*4847 FILLER_0_8_289
*4848 FILLER_0_8_29
*4849 FILLER_0_8_3
*4850 FILLER_0_8_301
*4851 FILLER_0_8_307
*4852 FILLER_0_8_309
*4853 FILLER_0_8_321
*4854 FILLER_0_8_333
*4855 FILLER_0_8_345
*4856 FILLER_0_8_357
*4857 FILLER_0_8_363
*4858 FILLER_0_8_365
*4859 FILLER_0_8_377
*4860 FILLER_0_8_389
*4861 FILLER_0_8_401
*4862 FILLER_0_8_41
*4863 FILLER_0_8_413
*4864 FILLER_0_8_419
*4865 FILLER_0_8_421
*4866 FILLER_0_8_433
*4867 FILLER_0_8_445
*4868 FILLER_0_8_457
*4869 FILLER_0_8_469
*4870 FILLER_0_8_475
*4871 FILLER_0_8_477
*4872 FILLER_0_8_489
*4873 FILLER_0_8_501
*4874 FILLER_0_8_513
*4875 FILLER_0_8_53
*4876 FILLER_0_8_65
*4877 FILLER_0_8_77
*4878 FILLER_0_8_83
*4879 FILLER_0_8_85
*4880 FILLER_0_8_97
*4881 FILLER_0_9_105
*4882 FILLER_0_9_111
*4883 FILLER_0_9_113
*4884 FILLER_0_9_125
*4885 FILLER_0_9_137
*4886 FILLER_0_9_149
*4887 FILLER_0_9_15
*4888 FILLER_0_9_161
*4889 FILLER_0_9_167
*4890 FILLER_0_9_169
*4891 FILLER_0_9_181
*4892 FILLER_0_9_193
*4893 FILLER_0_9_205
*4894 FILLER_0_9_217
*4895 FILLER_0_9_223
*4896 FILLER_0_9_225
*4897 FILLER_0_9_237
*4898 FILLER_0_9_249
*4899 FILLER_0_9_261
*4900 FILLER_0_9_27
*4901 FILLER_0_9_273
*4902 FILLER_0_9_279
*4903 FILLER_0_9_281
*4904 FILLER_0_9_293
*4905 FILLER_0_9_3
*4906 FILLER_0_9_305
*4907 FILLER_0_9_317
*4908 FILLER_0_9_329
*4909 FILLER_0_9_335
*4910 FILLER_0_9_337
*4911 FILLER_0_9_349
*4912 FILLER_0_9_361
*4913 FILLER_0_9_373
*4914 FILLER_0_9_385
*4915 FILLER_0_9_39
*4916 FILLER_0_9_391
*4917 FILLER_0_9_393
*4918 FILLER_0_9_405
*4919 FILLER_0_9_417
*4920 FILLER_0_9_429
*4921 FILLER_0_9_441
*4922 FILLER_0_9_447
*4923 FILLER_0_9_449
*4924 FILLER_0_9_461
*4925 FILLER_0_9_473
*4926 FILLER_0_9_485
*4927 FILLER_0_9_497
*4928 FILLER_0_9_503
*4929 FILLER_0_9_505
*4930 FILLER_0_9_509
*4931 FILLER_0_9_51
*4932 FILLER_0_9_55
*4933 FILLER_0_9_57
*4934 FILLER_0_9_69
*4935 FILLER_0_9_81
*4936 FILLER_0_9_93
*4937 PHY_0
*4938 PHY_1
*4939 PHY_10
*4940 PHY_100
*4941 PHY_101
*4942 PHY_102
*4943 PHY_103
*4944 PHY_104
*4945 PHY_105
*4946 PHY_106
*4947 PHY_107
*4948 PHY_108
*4949 PHY_109
*4950 PHY_11
*4951 PHY_110
*4952 PHY_111
*4953 PHY_112
*4954 PHY_113
*4955 PHY_114
*4956 PHY_115
*4957 PHY_116
*4958 PHY_117
*4959 PHY_118
*4960 PHY_119
*4961 PHY_12
*4962 PHY_120
*4963 PHY_121
*4964 PHY_122
*4965 PHY_123
*4966 PHY_124
*4967 PHY_125
*4968 PHY_126
*4969 PHY_127
*4970 PHY_128
*4971 PHY_129
*4972 PHY_13
*4973 PHY_130
*4974 PHY_131
*4975 PHY_132
*4976 PHY_133
*4977 PHY_134
*4978 PHY_135
*4979 PHY_136
*4980 PHY_137
*4981 PHY_138
*4982 PHY_139
*4983 PHY_14
*4984 PHY_140
*4985 PHY_141
*4986 PHY_142
*4987 PHY_143
*4988 PHY_144
*4989 PHY_145
*4990 PHY_146
*4991 PHY_147
*4992 PHY_148
*4993 PHY_149
*4994 PHY_15
*4995 PHY_150
*4996 PHY_151
*4997 PHY_152
*4998 PHY_153
*4999 PHY_154
*5000 PHY_155
*5001 PHY_156
*5002 PHY_157
*5003 PHY_158
*5004 PHY_159
*5005 PHY_16
*5006 PHY_160
*5007 PHY_161
*5008 PHY_162
*5009 PHY_163
*5010 PHY_164
*5011 PHY_165
*5012 PHY_17
*5013 PHY_18
*5014 PHY_19
*5015 PHY_2
*5016 PHY_20
*5017 PHY_21
*5018 PHY_22
*5019 PHY_23
*5020 PHY_24
*5021 PHY_25
*5022 PHY_26
*5023 PHY_27
*5024 PHY_28
*5025 PHY_29
*5026 PHY_3
*5027 PHY_30
*5028 PHY_31
*5029 PHY_32
*5030 PHY_33
*5031 PHY_34
*5032 PHY_35
*5033 PHY_36
*5034 PHY_37
*5035 PHY_38
*5036 PHY_39
*5037 PHY_4
*5038 PHY_40
*5039 PHY_41
*5040 PHY_42
*5041 PHY_43
*5042 PHY_44
*5043 PHY_45
*5044 PHY_46
*5045 PHY_47
*5046 PHY_48
*5047 PHY_49
*5048 PHY_5
*5049 PHY_50
*5050 PHY_51
*5051 PHY_52
*5052 PHY_53
*5053 PHY_54
*5054 PHY_55
*5055 PHY_56
*5056 PHY_57
*5057 PHY_58
*5058 PHY_59
*5059 PHY_6
*5060 PHY_60
*5061 PHY_61
*5062 PHY_62
*5063 PHY_63
*5064 PHY_64
*5065 PHY_65
*5066 PHY_66
*5067 PHY_67
*5068 PHY_68
*5069 PHY_69
*5070 PHY_7
*5071 PHY_70
*5072 PHY_71
*5073 PHY_72
*5074 PHY_73
*5075 PHY_74
*5076 PHY_75
*5077 PHY_76
*5078 PHY_77
*5079 PHY_78
*5080 PHY_79
*5081 PHY_8
*5082 PHY_80
*5083 PHY_81
*5084 PHY_82
*5085 PHY_83
*5086 PHY_84
*5087 PHY_85
*5088 PHY_86
*5089 PHY_87
*5090 PHY_88
*5091 PHY_89
*5092 PHY_9
*5093 PHY_90
*5094 PHY_91
*5095 PHY_92
*5096 PHY_93
*5097 PHY_94
*5098 PHY_95
*5099 PHY_96
*5100 PHY_97
*5101 PHY_98
*5102 PHY_99
*5103 TAP_166
*5104 TAP_167
*5105 TAP_168
*5106 TAP_169
*5107 TAP_170
*5108 TAP_171
*5109 TAP_172
*5110 TAP_173
*5111 TAP_174
*5112 TAP_175
*5113 TAP_176
*5114 TAP_177
*5115 TAP_178
*5116 TAP_179
*5117 TAP_180
*5118 TAP_181
*5119 TAP_182
*5120 TAP_183
*5121 TAP_184
*5122 TAP_185
*5123 TAP_186
*5124 TAP_187
*5125 TAP_188
*5126 TAP_189
*5127 TAP_190
*5128 TAP_191
*5129 TAP_192
*5130 TAP_193
*5131 TAP_194
*5132 TAP_195
*5133 TAP_196
*5134 TAP_197
*5135 TAP_198
*5136 TAP_199
*5137 TAP_200
*5138 TAP_201
*5139 TAP_202
*5140 TAP_203
*5141 TAP_204
*5142 TAP_205
*5143 TAP_206
*5144 TAP_207
*5145 TAP_208
*5146 TAP_209
*5147 TAP_210
*5148 TAP_211
*5149 TAP_212
*5150 TAP_213
*5151 TAP_214
*5152 TAP_215
*5153 TAP_216
*5154 TAP_217
*5155 TAP_218
*5156 TAP_219
*5157 TAP_220
*5158 TAP_221
*5159 TAP_222
*5160 TAP_223
*5161 TAP_224
*5162 TAP_225
*5163 TAP_226
*5164 TAP_227
*5165 TAP_228
*5166 TAP_229
*5167 TAP_230
*5168 TAP_231
*5169 TAP_232
*5170 TAP_233
*5171 TAP_234
*5172 TAP_235
*5173 TAP_236
*5174 TAP_237
*5175 TAP_238
*5176 TAP_239
*5177 TAP_240
*5178 TAP_241
*5179 TAP_242
*5180 TAP_243
*5181 TAP_244
*5182 TAP_245
*5183 TAP_246
*5184 TAP_247
*5185 TAP_248
*5186 TAP_249
*5187 TAP_250
*5188 TAP_251
*5189 TAP_252
*5190 TAP_253
*5191 TAP_254
*5192 TAP_255
*5193 TAP_256
*5194 TAP_257
*5195 TAP_258
*5196 TAP_259
*5197 TAP_260
*5198 TAP_261
*5199 TAP_262
*5200 TAP_263
*5201 TAP_264
*5202 TAP_265
*5203 TAP_266
*5204 TAP_267
*5205 TAP_268
*5206 TAP_269
*5207 TAP_270
*5208 TAP_271
*5209 TAP_272
*5210 TAP_273
*5211 TAP_274
*5212 TAP_275
*5213 TAP_276
*5214 TAP_277
*5215 TAP_278
*5216 TAP_279
*5217 TAP_280
*5218 TAP_281
*5219 TAP_282
*5220 TAP_283
*5221 TAP_284
*5222 TAP_285
*5223 TAP_286
*5224 TAP_287
*5225 TAP_288
*5226 TAP_289
*5227 TAP_290
*5228 TAP_291
*5229 TAP_292
*5230 TAP_293
*5231 TAP_294
*5232 TAP_295
*5233 TAP_296
*5234 TAP_297
*5235 TAP_298
*5236 TAP_299
*5237 TAP_300
*5238 TAP_301
*5239 TAP_302
*5240 TAP_303
*5241 TAP_304
*5242 TAP_305
*5243 TAP_306
*5244 TAP_307
*5245 TAP_308
*5246 TAP_309
*5247 TAP_310
*5248 TAP_311
*5249 TAP_312
*5250 TAP_313
*5251 TAP_314
*5252 TAP_315
*5253 TAP_316
*5254 TAP_317
*5255 TAP_318
*5256 TAP_319
*5257 TAP_320
*5258 TAP_321
*5259 TAP_322
*5260 TAP_323
*5261 TAP_324
*5262 TAP_325
*5263 TAP_326
*5264 TAP_327
*5265 TAP_328
*5266 TAP_329
*5267 TAP_330
*5268 TAP_331
*5269 TAP_332
*5270 TAP_333
*5271 TAP_334
*5272 TAP_335
*5273 TAP_336
*5274 TAP_337
*5275 TAP_338
*5276 TAP_339
*5277 TAP_340
*5278 TAP_341
*5279 TAP_342
*5280 TAP_343
*5281 TAP_344
*5282 TAP_345
*5283 TAP_346
*5284 TAP_347
*5285 TAP_348
*5286 TAP_349
*5287 TAP_350
*5288 TAP_351
*5289 TAP_352
*5290 TAP_353
*5291 TAP_354
*5292 TAP_355
*5293 TAP_356
*5294 TAP_357
*5295 TAP_358
*5296 TAP_359
*5297 TAP_360
*5298 TAP_361
*5299 TAP_362
*5300 TAP_363
*5301 TAP_364
*5302 TAP_365
*5303 TAP_366
*5304 TAP_367
*5305 TAP_368
*5306 TAP_369
*5307 TAP_370
*5308 TAP_371
*5309 TAP_372
*5310 TAP_373
*5311 TAP_374
*5312 TAP_375
*5313 TAP_376
*5314 TAP_377
*5315 TAP_378
*5316 TAP_379
*5317 TAP_380
*5318 TAP_381
*5319 TAP_382
*5320 TAP_383
*5321 TAP_384
*5322 TAP_385
*5323 TAP_386
*5324 TAP_387
*5325 TAP_388
*5326 TAP_389
*5327 TAP_390
*5328 TAP_391
*5329 TAP_392
*5330 TAP_393
*5331 TAP_394
*5332 TAP_395
*5333 TAP_396
*5334 TAP_397
*5335 TAP_398
*5336 TAP_399
*5337 TAP_400
*5338 TAP_401
*5339 TAP_402
*5340 TAP_403
*5341 TAP_404
*5342 TAP_405
*5343 TAP_406
*5344 TAP_407
*5345 TAP_408
*5346 TAP_409
*5347 TAP_410
*5348 TAP_411
*5349 TAP_412
*5350 TAP_413
*5351 TAP_414
*5352 TAP_415
*5353 TAP_416
*5354 TAP_417
*5355 TAP_418
*5356 TAP_419
*5357 TAP_420
*5358 TAP_421
*5359 TAP_422
*5360 TAP_423
*5361 TAP_424
*5362 TAP_425
*5363 TAP_426
*5364 TAP_427
*5365 TAP_428
*5366 TAP_429
*5367 TAP_430
*5368 TAP_431
*5369 TAP_432
*5370 TAP_433
*5371 TAP_434
*5372 TAP_435
*5373 TAP_436
*5374 TAP_437
*5375 TAP_438
*5376 TAP_439
*5377 TAP_440
*5378 TAP_441
*5379 TAP_442
*5380 TAP_443
*5381 TAP_444
*5382 TAP_445
*5383 TAP_446
*5384 TAP_447
*5385 TAP_448
*5386 TAP_449
*5387 TAP_450
*5388 TAP_451
*5389 TAP_452
*5390 TAP_453
*5391 TAP_454
*5392 TAP_455
*5393 TAP_456
*5394 TAP_457
*5395 TAP_458
*5396 TAP_459
*5397 TAP_460
*5398 TAP_461
*5399 TAP_462
*5400 TAP_463
*5401 TAP_464
*5402 TAP_465
*5403 TAP_466
*5404 TAP_467
*5405 TAP_468
*5406 TAP_469
*5407 TAP_470
*5408 TAP_471
*5409 TAP_472
*5410 TAP_473
*5411 TAP_474
*5412 TAP_475
*5413 TAP_476
*5414 TAP_477
*5415 TAP_478
*5416 TAP_479
*5417 TAP_480
*5418 TAP_481
*5419 TAP_482
*5420 TAP_483
*5421 TAP_484
*5422 TAP_485
*5423 TAP_486
*5424 TAP_487
*5425 TAP_488
*5426 TAP_489
*5427 TAP_490
*5428 TAP_491
*5429 TAP_492
*5430 TAP_493
*5431 TAP_494
*5432 TAP_495
*5433 TAP_496
*5434 TAP_497
*5435 TAP_498
*5436 TAP_499
*5437 TAP_500
*5438 TAP_501
*5439 TAP_502
*5440 TAP_503
*5441 TAP_504
*5442 TAP_505
*5443 TAP_506
*5444 TAP_507
*5445 TAP_508
*5446 TAP_509
*5447 TAP_510
*5448 TAP_511
*5449 TAP_512
*5450 TAP_513
*5451 TAP_514
*5452 TAP_515
*5453 TAP_516
*5454 TAP_517
*5455 TAP_518
*5456 TAP_519
*5457 TAP_520
*5458 TAP_521
*5459 TAP_522
*5460 TAP_523
*5461 TAP_524
*5462 TAP_525
*5463 TAP_526
*5464 TAP_527
*5465 TAP_528
*5466 TAP_529
*5467 TAP_530
*5468 TAP_531
*5469 TAP_532
*5470 TAP_533
*5471 TAP_534
*5472 TAP_535
*5473 TAP_536
*5474 TAP_537
*5475 TAP_538
*5476 TAP_539
*5477 TAP_540
*5478 TAP_541
*5479 TAP_542
*5480 TAP_543
*5481 TAP_544
*5482 TAP_545
*5483 TAP_546
*5484 TAP_547
*5485 TAP_548
*5486 TAP_549
*5487 TAP_550
*5488 TAP_551
*5489 TAP_552
*5490 TAP_553
*5491 TAP_554
*5492 TAP_555
*5493 TAP_556
*5494 TAP_557
*5495 TAP_558
*5496 TAP_559
*5497 TAP_560
*5498 TAP_561
*5499 TAP_562
*5500 TAP_563
*5501 TAP_564
*5502 TAP_565
*5503 TAP_566
*5504 TAP_567
*5505 TAP_568
*5506 TAP_569
*5507 TAP_570
*5508 TAP_571
*5509 TAP_572
*5510 TAP_573
*5511 TAP_574
*5512 TAP_575
*5513 TAP_576
*5514 TAP_577
*5515 TAP_578
*5516 TAP_579
*5517 TAP_580
*5518 TAP_581
*5519 TAP_582
*5520 TAP_583
*5521 TAP_584
*5522 TAP_585
*5523 TAP_586
*5524 TAP_587
*5525 TAP_588
*5526 TAP_589
*5527 TAP_590
*5528 TAP_591
*5529 TAP_592
*5530 TAP_593
*5531 TAP_594
*5532 TAP_595
*5533 TAP_596
*5534 TAP_597
*5535 TAP_598
*5536 TAP_599
*5537 TAP_600
*5538 TAP_601
*5539 TAP_602
*5540 TAP_603
*5541 TAP_604
*5542 TAP_605
*5543 TAP_606
*5544 TAP_607
*5545 TAP_608
*5546 TAP_609
*5547 TAP_610
*5548 TAP_611
*5549 TAP_612
*5550 TAP_613
*5551 TAP_614
*5552 TAP_615
*5553 TAP_616
*5554 TAP_617
*5555 TAP_618
*5556 TAP_619
*5557 TAP_620
*5558 TAP_621
*5559 TAP_622
*5560 TAP_623
*5561 TAP_624
*5562 TAP_625
*5563 TAP_626
*5564 TAP_627
*5565 TAP_628
*5566 TAP_629
*5567 TAP_630
*5568 TAP_631
*5569 TAP_632
*5570 TAP_633
*5571 TAP_634
*5572 TAP_635
*5573 TAP_636
*5574 TAP_637
*5575 TAP_638
*5576 TAP_639
*5577 TAP_640
*5578 TAP_641
*5579 TAP_642
*5580 TAP_643
*5581 TAP_644
*5582 TAP_645
*5583 TAP_646
*5584 TAP_647
*5585 TAP_648
*5586 TAP_649
*5587 TAP_650
*5588 TAP_651
*5589 TAP_652
*5590 TAP_653
*5591 TAP_654
*5592 TAP_655
*5593 TAP_656
*5594 TAP_657
*5595 TAP_658
*5596 TAP_659
*5597 TAP_660
*5598 TAP_661
*5599 TAP_662
*5600 TAP_663
*5601 TAP_664
*5602 TAP_665
*5603 TAP_666
*5604 TAP_667
*5605 TAP_668
*5606 TAP_669
*5607 TAP_670
*5608 TAP_671
*5609 TAP_672
*5610 TAP_673
*5611 TAP_674
*5612 TAP_675
*5613 TAP_676
*5614 TAP_677
*5615 TAP_678
*5616 TAP_679
*5617 TAP_680
*5618 TAP_681
*5619 TAP_682
*5620 TAP_683
*5621 TAP_684
*5622 TAP_685
*5623 TAP_686
*5624 TAP_687
*5625 TAP_688
*5626 TAP_689
*5627 TAP_690
*5628 TAP_691
*5629 TAP_692
*5630 TAP_693
*5631 TAP_694
*5632 TAP_695
*5633 TAP_696
*5634 TAP_697
*5635 TAP_698
*5636 TAP_699
*5637 TAP_700
*5638 TAP_701
*5639 TAP_702
*5640 TAP_703
*5641 TAP_704
*5642 TAP_705
*5643 TAP_706
*5644 TAP_707
*5645 TAP_708
*5646 TAP_709
*5647 TAP_710
*5648 TAP_711
*5649 TAP_712
*5650 TAP_713
*5651 TAP_714
*5652 TAP_715
*5653 TAP_716
*5654 TAP_717
*5655 TAP_718
*5656 TAP_719
*5657 TAP_720
*5658 TAP_721
*5659 TAP_722
*5660 TAP_723
*5661 TAP_724
*5662 TAP_725
*5663 TAP_726
*5664 TAP_727
*5665 TAP_728
*5666 TAP_729
*5667 TAP_730
*5668 TAP_731
*5669 TAP_732
*5670 TAP_733
*5671 TAP_734
*5672 TAP_735
*5673 TAP_736
*5674 TAP_737
*5675 TAP_738
*5676 TAP_739
*5677 TAP_740
*5678 TAP_741
*5679 TAP_742
*5680 TAP_743
*5681 TAP_744
*5682 TAP_745
*5683 TAP_746
*5684 TAP_747
*5685 TAP_748
*5686 TAP_749
*5687 TAP_750
*5688 TAP_751
*5689 TAP_752
*5690 TAP_753
*5691 TAP_754
*5692 TAP_755
*5693 TAP_756
*5694 TAP_757
*5695 TAP_758
*5696 TAP_759
*5697 TAP_760
*5698 TAP_761
*5699 TAP_762
*5700 TAP_763
*5701 TAP_764
*5702 TAP_765
*5703 TAP_766
*5704 TAP_767
*5705 TAP_768
*5706 TAP_769
*5707 TAP_770
*5708 TAP_771
*5709 TAP_772
*5710 TAP_773
*5711 TAP_774
*5712 TAP_775
*5713 TAP_776
*5714 TAP_777
*5715 TAP_778
*5716 TAP_779
*5717 TAP_780
*5718 TAP_781
*5719 TAP_782
*5720 TAP_783
*5721 TAP_784
*5722 TAP_785
*5723 TAP_786
*5724 TAP_787
*5725 TAP_788
*5726 TAP_789
*5727 TAP_790
*5728 TAP_791
*5729 TAP_792
*5730 TAP_793
*5731 TAP_794
*5732 TAP_795
*5733 TAP_796
*5734 TAP_797
*5735 TAP_798
*5736 TAP_799
*5737 TAP_800
*5738 TAP_801
*5739 TAP_802
*5740 TAP_803
*5741 TAP_804
*5742 TAP_805
*5743 TAP_806
*5744 TAP_807
*5745 TAP_808
*5746 TAP_809
*5747 TAP_810
*5748 TAP_811
*5749 TAP_812
*5750 TAP_813
*5751 TAP_814
*5752 TAP_815
*5753 TAP_816
*5754 TAP_817
*5755 TAP_818
*5756 TAP_819
*5757 TAP_820
*5758 TAP_821
*5759 TAP_822
*5760 TAP_823
*5761 TAP_824
*5762 TAP_825
*5763 TAP_826
*5764 TAP_827
*5765 TAP_828
*5766 TAP_829
*5767 TAP_830
*5768 TAP_831
*5769 TAP_832
*5770 TAP_833
*5771 TAP_834
*5772 TAP_835
*5773 TAP_836
*5774 TAP_837
*5775 TAP_838
*5776 TAP_839
*5777 TAP_840
*5778 TAP_841
*5779 TAP_842
*5780 TAP_843
*5781 TAP_844
*5782 TAP_845
*5783 TAP_846
*5784 TAP_847
*5785 TAP_848
*5786 TAP_849
*5787 TAP_850
*5788 TAP_851
*5789 TAP_852
*5790 TAP_853
*5791 TAP_854
*5792 TAP_855
*5793 TAP_856
*5794 TAP_857
*5795 TAP_858
*5796 TAP_859
*5797 TAP_860
*5798 TAP_861
*5799 TAP_862
*5800 TAP_863
*5801 TAP_864
*5802 TAP_865
*5803 TAP_866
*5804 TAP_867
*5805 TAP_868
*5806 TAP_869
*5807 TAP_870
*5808 TAP_871
*5809 TAP_872
*5810 TAP_873
*5811 TAP_874
*5812 TAP_875
*5813 TAP_876
*5814 TAP_877
*5815 TAP_878
*5816 TAP_879
*5817 TAP_880
*5818 TAP_881
*5819 TAP_882
*5820 TAP_883
*5821 TAP_884
*5822 TAP_885
*5823 TAP_886
*5824 TAP_887
*5825 TAP_888
*5826 TAP_889
*5827 TAP_890
*5828 TAP_891
*5829 TAP_892
*5830 TAP_893
*5831 TAP_894
*5832 TAP_895
*5833 TAP_896
*5834 TAP_897
*5835 TAP_898
*5836 TAP_899
*5837 TAP_900
*5838 TAP_901
*5839 TAP_902
*5840 TAP_903
*5841 TAP_904
*5842 TAP_905
*5843 TAP_906
*5844 TAP_907
*5845 TAP_908
*5846 TAP_909
*5847 TAP_910
*5848 TAP_911
*5849 TAP_912
*5850 TAP_913
*5851 TAP_914
*5852 TAP_915
*5853 TAP_916
*5854 TAP_917
*5855 TAP_918
*5856 TAP_919
*5857 TAP_920
*5858 TAP_921
*5859 TAP_922
*5860 TAP_923
*5861 TAP_924
*5862 TAP_925
*5863 TAP_926
*5864 TAP_927
*5865 TAP_928
*5866 TAP_929
*5867 TAP_930
*5868 _0452_
*5869 _0453_
*5870 _0454_
*5871 _0455_
*5872 _0456_
*5873 _0457_
*5874 _0458_
*5875 _0459_
*5876 _0460_
*5877 _0461_
*5878 _0462_
*5879 _0463_
*5880 _0464_
*5881 _0465_
*5882 _0466_
*5883 _0467_
*5884 _0468_
*5885 _0469_
*5886 _0470_
*5887 _0471_
*5888 _0472_
*5889 _0473_
*5890 _0474_
*5891 _0475_
*5892 _0476_
*5893 _0477_
*5894 _0478_
*5895 _0479_
*5896 _0480_
*5897 _0481_
*5898 _0482_
*5899 _0483_
*5900 _0484_
*5901 _0485_
*5902 _0486_
*5903 _0487_
*5904 _0488_
*5905 _0489_
*5906 _0490_
*5907 _0491_
*5908 _0492_
*5909 _0493_
*5910 _0494_
*5911 _0495_
*5912 _0496_
*5913 _0497_
*5914 _0498_
*5915 _0499_
*5916 _0500_
*5917 _0501_
*5918 _0502_
*5919 _0503_
*5920 _0504_
*5921 _0505_
*5922 _0506_
*5923 _0507_
*5924 _0508_
*5925 _0509_
*5926 _0510_
*5927 _0511_
*5928 _0512_
*5929 _0513_
*5930 _0514_
*5931 _0515_
*5932 _0516_
*5933 _0517_
*5934 _0518_
*5935 _0519_
*5936 _0520_
*5937 _0521_
*5938 _0522_
*5939 _0523_
*5940 _0524_
*5941 _0525_
*5942 _0526_
*5943 _0527_
*5944 _0528_
*5945 _0529_
*5946 _0530_
*5947 _0531_
*5948 _0532_
*5949 _0533_
*5950 _0534_
*5951 _0535_
*5952 _0536_
*5953 _0537_
*5954 _0538_
*5955 _0539_
*5956 _0540_
*5957 _0541_
*5958 _0542_
*5959 _0543_
*5960 _0544_
*5961 _0545_
*5962 _0546_
*5963 _0547_
*5964 _0548_
*5965 _0549_
*5966 _0550_
*5967 _0551_
*5968 _0552_
*5969 _0553_
*5970 _0554_
*5971 _0555_
*5972 _0556_
*5973 _0557_
*5974 _0558_
*5975 _0559_
*5976 _0560_
*5977 _0561_
*5978 _0562_
*5979 _0563_
*5980 _0564_
*5981 _0565_
*5982 _0566_
*5983 _0567_
*5984 _0568_
*5985 _0569_
*5986 _0570_
*5987 _0571_
*5988 _0572_
*5989 _0573_
*5990 _0574_
*5991 _0575_
*5992 _0576_
*5993 _0577_
*5994 _0578_
*5995 _0579_
*5996 _0580_
*5997 _0581_
*5998 _0582_
*5999 _0583_
*6000 _0584_
*6001 _0585_
*6002 _0586_
*6003 _0587_
*6004 _0588_
*6005 _0589_
*6006 _0590_
*6007 _0591_
*6008 _0592_
*6009 _0593_
*6010 _0594_
*6011 _0595_
*6012 _0596_
*6013 _0597_
*6014 _0598_
*6015 _0599_
*6016 _0600_
*6017 _0601_
*6018 _0602_
*6019 _0603_
*6020 _0604_
*6021 _0605_
*6022 _0606_
*6023 _0607_
*6024 _0608_
*6025 _0609_
*6026 _0610_
*6027 _0611_
*6028 _0612_
*6029 _0613_
*6030 _0614_
*6031 _0615_
*6032 _0616_
*6033 _0617_
*6034 _0618_
*6035 _0619_
*6036 _0620_
*6037 _0621_
*6038 _0622_
*6039 _0623_
*6040 _0624_
*6041 _0625_
*6042 _0626_
*6043 _0627_
*6044 _0628_
*6045 _0629_
*6046 _0630_
*6047 _0631_
*6048 _0632_
*6049 _0633_
*6050 _0634_
*6051 _0635_
*6052 _0636_
*6053 _0637_
*6054 _0638_
*6055 _0639_
*6056 _0640_
*6057 _0641_
*6058 _0642_
*6059 _0643_
*6060 _0644_
*6061 _0645_
*6062 _0646_
*6063 _0647_
*6064 _0648_
*6065 _0649_
*6066 _0650_
*6067 _0651_
*6068 _0652_
*6069 _0653_
*6070 _0654_
*6071 _0655_
*6072 _0656_
*6073 _0657_
*6074 _0658_
*6075 _0659_
*6076 _0660_
*6077 _0661_
*6078 _0662_
*6079 _0663_
*6080 _0664_
*6081 _0665_
*6082 _0666_
*6083 _0667_
*6084 _0668_
*6085 _0669_
*6086 _0670_
*6087 _0671_
*6088 _0672_
*6089 _0673_
*6090 _0674_
*6091 _0675_
*6092 _0676_
*6093 _0677_
*6094 _0678_
*6095 _0679_
*6096 _0680_
*6097 _0681_
*6098 _0682_
*6099 _0683_
*6100 _0684_
*6101 _0685_
*6102 _0686_
*6103 _0687_
*6104 _0688_
*6105 _0689_
*6106 _0690_
*6107 _0691_
*6108 _0692_
*6109 _0693_
*6110 _0694_
*6111 _0695_
*6112 _0696_
*6113 _0697_
*6114 _0698_
*6115 _0699_
*6116 _0700_
*6117 _0701_
*6118 _0702_
*6119 _0703_
*6120 _0704_
*6121 _0705_
*6122 _0706_
*6123 _0707_
*6124 _0708_
*6125 _0709_
*6126 _0710_
*6127 _0711_
*6128 _0712_
*6129 _0713_
*6130 _0714_
*6131 _0715_
*6132 _0716_
*6133 _0717_
*6134 _0718_
*6135 _0719_
*6136 _0720_
*6137 _0721_
*6138 _0722_
*6139 _0723_
*6140 _0724_
*6141 _0725_
*6142 _0726_
*6143 _0727_
*6144 _0728_
*6145 _0729_
*6146 _0730_
*6147 _0731_
*6148 _0732_
*6149 _0733_
*6150 _0734_
*6151 _0735_
*6152 _0736_
*6153 _0737_
*6154 _0738_
*6155 _0739_
*6156 _0740_
*6157 _0741_
*6158 _0742_
*6159 _0743_
*6160 _0744_
*6161 _0745_
*6162 _0746_
*6163 _0747_
*6164 _0748_
*6165 _0749_
*6166 _0750_
*6167 _0751_
*6168 _0752_
*6169 _0753_
*6170 _0754_
*6171 _0755_
*6172 _0756_
*6173 _0757_
*6174 _0758_
*6175 _0759_
*6176 _0760_
*6177 _0761_
*6178 _0762_
*6179 _0763_
*6180 _0764_
*6181 _0765_
*6182 _0766_
*6183 _0767_
*6184 _0768_
*6185 _0769_
*6186 _0770_
*6187 _0771_
*6188 _0772_
*6189 _0773_
*6190 _0774_
*6191 _0775_
*6192 _0776_
*6193 _0777_
*6194 _0778_
*6195 _0779_
*6196 _0780_
*6197 _0781_
*6198 _0782_
*6199 _0783_
*6200 _0784_
*6201 _0785_
*6202 _0786_
*6203 _0787_
*6204 _0788_
*6205 _0789_
*6206 _0790_
*6207 _0791_
*6208 _0792_
*6209 _0793_
*6210 _0794_
*6211 _0795_
*6212 _0796_
*6213 _0797_
*6214 _0798_
*6215 _0799_
*6216 _0800_
*6217 _0801_
*6218 _0802_
*6219 _0803_
*6220 _0804_
*6221 _0805_
*6222 _0806_
*6223 _0807_
*6224 _0808_
*6225 _0809_
*6226 _0810_
*6227 _0811_
*6228 _0812_
*6229 _0813_
*6230 _0814_
*6231 _0815_
*6232 _0816_
*6233 _0817_
*6234 _0818_
*6235 _0819_
*6236 _0820_
*6237 _0821_
*6238 _0822_
*6239 _0823_
*6240 _0824_
*6241 _0825_
*6242 _0826_
*6243 _0827_
*6244 _0828_
*6245 _0829_
*6246 _0830_
*6247 _0831_
*6248 _0832_
*6249 _0833_
*6250 _0834_
*6251 _0835_
*6252 _0836_
*6253 _0837_
*6254 _0838_
*6255 _0839_
*6256 _0840_
*6257 _0841_
*6258 _0842_
*6259 _0843_
*6260 _0844_
*6261 _0845_
*6262 _0846_
*6263 _0847_
*6264 _0848_
*6265 _0849_
*6266 _0850_
*6267 _0851_
*6268 _0852_
*6269 _0853_
*6270 _0854_
*6271 _0855_
*6272 _0856_
*6273 _0857_
*6274 _0858_
*6275 _0859_
*6276 _0860_
*6277 _0861_
*6278 _0862_
*6279 _0863_
*6280 _0864_
*6281 _0865_
*6282 _0866_
*6283 _0867_
*6284 _0868_
*6285 _0869_
*6286 _0870_
*6287 _0871_
*6288 _0872_
*6289 _0873_
*6290 _0874_
*6291 _0875_
*6292 _0876_
*6293 _0877_
*6294 _0878_
*6295 _0879_
*6296 _0880_
*6297 _0881_
*6298 _0882_
*6299 _0883_
*6300 _0884_
*6301 _0885_
*6302 _0886_
*6303 _0887_
*6304 _0888_
*6305 _0889_
*6306 _0890_
*6307 _0891_
*6308 _0892_
*6309 _0893_
*6310 _0894_
*6311 _0895_
*6312 _0896_
*6313 _0897_
*6314 _0898_
*6315 _0899_
*6316 _0900_
*6317 _0901_
*6318 _0902_
*6319 _0903_
*6320 _0904_
*6321 _0905_
*6322 _0906_
*6323 _0907_
*6324 _0908_
*6325 _0909_
*6326 _0910_
*6327 _0911_
*6328 _0912_
*6329 _0913_
*6330 _0914_
*6331 _0915_
*6332 _0916_
*6333 _0917_
*6334 _0918_
*6335 _0919_
*6336 _0920_
*6337 _0921_
*6338 _0922_
*6339 _0923_
*6340 _0924_
*6341 _0925_
*6342 _0926_
*6343 _0927_
*6344 _0928_
*6345 _0929_
*6346 _0930_
*6347 _0931_
*6348 _0932_
*6349 _0933_
*6350 _0934_
*6351 _0935_
*6352 _0936_
*6353 _0937_
*6354 _0938_
*6355 _0939_
*6356 _0940_
*6357 _0941_
*6358 _0942_
*6359 _0943_
*6360 _0944_
*6361 _0945_
*6362 _0946_
*6363 _0947_
*6364 _0948_
*6365 _0949_
*6366 _0950_
*6367 _0951_
*6368 _0952_
*6369 _0953_
*6370 _0954_
*6371 _0955_
*6372 _0956_
*6373 _0957_
*6374 _0958_
*6375 _0959_
*6376 _0960_
*6377 _0961_
*6378 _0962_
*6379 _0963_
*6380 _0964_
*6381 _0965_
*6382 _0966_
*6383 _0967_
*6384 _0968_
*6385 _0969_
*6386 _0970_
*6387 _0971_
*6388 _0972_
*6389 _0973_
*6390 _0974_
*6391 _0975_
*6392 _0976_
*6393 _0977_
*6394 _0978_
*6395 _0979_
*6396 _0980_
*6397 _0981_
*6398 _0982_
*6399 _0983_
*6400 _0984_
*6401 _0985_
*6402 _0986_
*6403 _0987_
*6404 _0988_
*6405 _0989_
*6406 _0990_
*6407 _0991_
*6408 _0992_
*6409 _0993_
*6410 _0994_
*6411 _0995_
*6412 _0996_
*6413 _0997_
*6414 _0998_
*6415 _0999_
*6416 _1000_
*6417 _1001_
*6418 _1002_
*6419 _1003_
*6420 _1004_
*6421 _1005_
*6422 _1006_
*6423 _1007_
*6424 _1008_
*6425 _1009_
*6426 _1010_
*6427 _1011_
*6428 _1012_
*6429 _1013_
*6430 _1014_
*6431 _1015_
*6432 _1016_
*6433 _1017_
*6434 _1018_
*6435 _1019_
*6436 _1020_
*6437 _1021_
*6438 _1022_
*6439 _1023_
*6440 _1024_
*6441 _1025_
*6442 _1026_
*6443 _1027_
*6444 _1028_
*6445 _1029_
*6446 _1030_
*6447 _1031_
*6448 _1032_
*6449 _1033_
*6450 _1034_
*6451 _1035_
*6452 _1036_
*6453 _1037_
*6454 _1038_
*6455 _1039_
*6456 _1040_
*6457 _1041_
*6458 _1042_
*6459 _1043_
*6460 _1044_
*6461 _1045_
*6462 _1046_
*6463 _1047_
*6464 _1048_
*6465 _1049_
*6466 _1050_
*6467 _1051_
*6468 _1052_
*6469 _1053_
*6470 _1054_
*6471 _1055_
*6472 _1056_
*6473 _1057_
*6474 _1058_
*6475 _1059_
*6476 _1060_
*6477 _1061_
*6478 _1062_
*6479 _1063_
*6480 _1064_
*6481 _1065_
*6482 _1066_
*6483 _1067_
*6484 _1068_
*6485 _1069_
*6486 _1070_
*6487 _1071_
*6488 _1072_
*6489 _1073_
*6490 _1074_
*6491 _1075_
*6492 _1076_
*6493 _1077_
*6494 _1078_
*6495 _1079_
*6496 clkbuf_0_w_clk
*6497 clkbuf_4_0_0_w_clk
*6498 clkbuf_4_10_0_w_clk
*6499 clkbuf_4_11_0_w_clk
*6500 clkbuf_4_12_0_w_clk
*6501 clkbuf_4_13_0_w_clk
*6502 clkbuf_4_14_0_w_clk
*6503 clkbuf_4_15_0_w_clk
*6504 clkbuf_4_1_0_w_clk
*6505 clkbuf_4_2_0_w_clk
*6506 clkbuf_4_3_0_w_clk
*6507 clkbuf_4_4_0_w_clk
*6508 clkbuf_4_5_0_w_clk
*6509 clkbuf_4_6_0_w_clk
*6510 clkbuf_4_7_0_w_clk
*6511 clkbuf_4_8_0_w_clk
*6512 clkbuf_4_9_0_w_clk
*6513 fanout26
*6514 fanout27
*6515 fanout28
*6516 fanout29
*6517 hold1
*6518 hold10
*6519 hold100
*6520 hold101
*6521 hold102
*6522 hold103
*6523 hold104
*6524 hold105
*6525 hold106
*6526 hold107
*6527 hold108
*6528 hold109
*6529 hold11
*6530 hold110
*6531 hold111
*6532 hold112
*6533 hold113
*6534 hold114
*6535 hold115
*6536 hold116
*6537 hold117
*6538 hold118
*6539 hold119
*6540 hold12
*6541 hold120
*6542 hold121
*6543 hold122
*6544 hold123
*6545 hold124
*6546 hold125
*6547 hold126
*6548 hold127
*6549 hold128
*6550 hold129
*6551 hold13
*6552 hold130
*6553 hold131
*6554 hold132
*6555 hold133
*6556 hold134
*6557 hold135
*6558 hold136
*6559 hold137
*6560 hold14
*6561 hold15
*6562 hold16
*6563 hold17
*6564 hold18
*6565 hold19
*6566 hold2
*6567 hold20
*6568 hold21
*6569 hold22
*6570 hold23
*6571 hold24
*6572 hold25
*6573 hold26
*6574 hold27
*6575 hold28
*6576 hold29
*6577 hold3
*6578 hold30
*6579 hold31
*6580 hold32
*6581 hold33
*6582 hold34
*6583 hold35
*6584 hold36
*6585 hold37
*6586 hold38
*6587 hold39
*6588 hold4
*6589 hold40
*6590 hold41
*6591 hold42
*6592 hold43
*6593 hold44
*6594 hold45
*6595 hold46
*6596 hold47
*6597 hold48
*6598 hold49
*6599 hold5
*6600 hold50
*6601 hold51
*6602 hold52
*6603 hold53
*6604 hold54
*6605 hold55
*6606 hold56
*6607 hold57
*6608 hold58
*6609 hold59
*6610 hold6
*6611 hold60
*6612 hold61
*6613 hold62
*6614 hold63
*6615 hold64
*6616 hold65
*6617 hold66
*6618 hold67
*6619 hold68
*6620 hold69
*6621 hold7
*6622 hold70
*6623 hold71
*6624 hold72
*6625 hold73
*6626 hold74
*6627 hold75
*6628 hold76
*6629 hold77
*6630 hold78
*6631 hold79
*6632 hold8
*6633 hold80
*6634 hold81
*6635 hold82
*6636 hold83
*6637 hold84
*6638 hold85
*6639 hold86
*6640 hold87
*6641 hold88
*6642 hold89
*6643 hold9
*6644 hold90
*6645 hold91
*6646 hold92
*6647 hold93
*6648 hold94
*6649 hold95
*6650 hold96
*6651 hold97
*6652 hold98
*6653 hold99
*6654 input1
*6655 input10
*6656 input11
*6657 input12
*6658 input13
*6659 input2
*6660 input3
*6661 input4
*6662 input5
*6663 input6
*6664 input7
*6665 input8
*6666 input9
*6667 max_cap24
*6668 max_cap25
*6669 output14
*6670 output15
*6671 output16
*6672 output17
*6673 output18
*6674 output19
*6675 output20
*6676 output21
*6677 output22
*6678 output23

*PORTS
empty O
full O
r_clk I
r_data[0] O
r_data[1] O
r_data[2] O
r_data[3] O
r_data[4] O
r_data[5] O
r_data[6] O
r_data[7] O
r_rst_n I
rd I
w_clk I
w_data[0] I
w_data[1] I
w_data[2] I
w_data[3] I
w_data[4] I
w_data[5] I
w_data[6] I
w_data[7] I
w_rst_n I
wr I

*D_NET *1 0.00173137
*CONN
*P empty O
*I *6669:X O *D sky130_fd_sc_hd__clkbuf_4
*CAP
1 empty 0.000838071
2 *6669:X 0.000838071
3 empty *828:DIODE 5.52302e-05
4 empty *669:16 0
*RES
1 *6669:X empty 28.05 
*END

*D_NET *2 0.000754132
*CONN
*P full O
*I *6670:X O *D sky130_fd_sc_hd__clkbuf_4
*CAP
1 full 0.000370045
2 *6670:X 0.000370045
3 full *6670:A 1.40415e-05
4 full *705:12 0
*RES
1 *6670:X full 21.0661 
*END

*D_NET *3 0.00144955
*CONN
*P r_clk I
*I *6654:A I *D sky130_fd_sc_hd__dlymetal6s2s_1
*CAP
1 r_clk 0.000624775
2 *6654:A 0.000624775
3 *6654:A *624:8 9.90367e-05
4 *6654:A *746:6 0.00010096
*RES
1 r_clk *6654:A 26.7464 
*END

*D_NET *4 0.00075502
*CONN
*P r_data[0] O
*I *6671:X O *D sky130_fd_sc_hd__buf_2
*CAP
1 r_data[0] 0.00037751
2 *6671:X 0.00037751
3 r_data[0] *691:29 0
4 r_data[0] *701:23 0
*RES
1 *6671:X r_data[0] 21.1209 
*END

*D_NET *5 0.000537942
*CONN
*P r_data[1] O
*I *6672:X O *D sky130_fd_sc_hd__buf_2
*CAP
1 r_data[1] 0.000262873
2 *6672:X 0.000262873
3 r_data[1] *6672:A 1.21955e-05
*RES
1 *6672:X r_data[1] 18.267 
*END

*D_NET *6 0.000771166
*CONN
*P r_data[2] O
*I *6673:X O *D sky130_fd_sc_hd__clkbuf_4
*CAP
1 r_data[2] 0.00034945
2 *6673:X 0.00034945
3 r_data[2] *724:12 2.19651e-05
4 r_data[2] *724:16 5.0302e-05
*RES
1 *6673:X r_data[2] 19.6254 
*END

*D_NET *7 0.00163126
*CONN
*P r_data[3] O
*I *6674:X O *D sky130_fd_sc_hd__clkbuf_4
*CAP
1 r_data[3] 0.000815631
2 *6674:X 0.000815631
*RES
1 *6674:X r_data[3] 28.5857 
*END

*D_NET *8 0.000950737
*CONN
*P r_data[4] O
*I *6675:X O *D sky130_fd_sc_hd__clkbuf_4
*CAP
1 r_data[4] 0.000475368
2 *6675:X 0.000475368
*RES
1 *6675:X r_data[4] 22.05 
*END

*D_NET *9 0.000765653
*CONN
*P r_data[5] O
*I *6676:X O *D sky130_fd_sc_hd__clkbuf_4
*CAP
1 r_data[5] 0.000366893
2 *6676:X 0.000366893
3 r_data[5] *6676:A 3.18676e-05
4 r_data[5] *711:38 0
*RES
1 *6676:X r_data[5] 21.0661 
*END

*D_NET *10 0.000628139
*CONN
*P r_data[6] O
*I *6677:X O *D sky130_fd_sc_hd__clkbuf_4
*CAP
1 r_data[6] 0.00031407
2 *6677:X 0.00031407
*RES
1 *6677:X r_data[6] 18.6426 
*END

*D_NET *11 0.000950737
*CONN
*P r_data[7] O
*I *6678:X O *D sky130_fd_sc_hd__clkbuf_4
*CAP
1 r_data[7] 0.000475368
2 *6678:X 0.000475368
*RES
1 *6678:X r_data[7] 22.05 
*END

*D_NET *12 0.00147355
*CONN
*P r_rst_n I
*I *6659:A I *D sky130_fd_sc_hd__clkbuf_2
*CAP
1 r_rst_n 0.000736775
2 *6659:A 0.000736775
*RES
1 r_rst_n *6659:A 27.6929 
*END

*D_NET *13 0.000813598
*CONN
*P rd I
*I *6660:A I *D sky130_fd_sc_hd__buf_2
*CAP
1 rd 0.000406799
2 *6660:A 0.000406799
*RES
1 rd *6660:A 21.9607 
*END

*D_NET *16 0.0187126
*CONN
*P w_clk I
*I *6496:A I *D sky130_fd_sc_hd__clkbuf_16
*CAP
1 w_clk 0.00507742
2 *6496:A 0.00249
3 *16:5 0.00756742
4 *6496:A *6241:S 1.37292e-05
5 *6496:A *6246:A 4.43046e-05
6 *6496:A *6444:CLK 5.7616e-05
7 *6496:A *6615:A 0.000226815
8 *6496:A *768:42 0
9 *16:5 *5951:A0 6.76272e-05
10 *16:5 *5951:A3 0
11 *16:5 *5953:A0 0.000203841
12 *16:5 *5953:A1 7.83659e-05
13 *16:5 *5959:A0 0.000612887
14 *16:5 *6046:A 2.63844e-05
15 *16:5 *6063:S 0
16 *16:5 *6338:D 7.8327e-05
17 *16:5 *6389:CLK 0.000382033
18 *16:5 *6591:A 0.000134758
19 *16:5 *230:111 0.000369674
20 *16:5 *233:139 0
21 *16:5 *254:10 0.000421294
22 *16:5 *319:84 0
23 *16:5 *382:53 0.00012501
24 *16:5 *382:68 3.73407e-05
25 *16:5 *470:128 0.000146474
26 *16:5 *485:28 0.000168698
27 *16:5 *485:30 0.000382635
28 *16:5 *486:57 0
29 *16:5 *486:72 0
*RES
1 w_clk *16:5 109.348 
2 *16:5 *6496:A 28.2882 
*END

*D_NET *17 0.00159272
*CONN
*P w_data[0] I
*I *6661:A I *D sky130_fd_sc_hd__clkbuf_8
*CAP
1 w_data[0] 0.000768211
2 *6661:A 0.000768211
3 *6661:A *724:12 5.62995e-05
*RES
1 w_data[0] *6661:A 29.55 
*END

*D_NET *18 0.00109564
*CONN
*P w_data[1] I
*I *6662:A I *D sky130_fd_sc_hd__buf_4
*CAP
1 w_data[1] 0.000547819
2 *6662:A 0.000547819
*RES
1 w_data[1] *6662:A 25.6036 
*END

*D_NET *19 0.00114959
*CONN
*P w_data[2] I
*I *6663:A I *D sky130_fd_sc_hd__buf_4
*CAP
1 w_data[2] 0.000547179
2 *6663:A 0.000547179
3 *6663:A *624:8 5.52302e-05
*RES
1 w_data[2] *6663:A 24.5679 
*END

*D_NET *20 0.000873241
*CONN
*P w_data[3] I
*I *6664:A I *D sky130_fd_sc_hd__buf_4
*CAP
1 w_data[3] 0.000436621
2 *6664:A 0.000436621
3 *6664:A *691:29 0
4 *6664:A *757:14 0
*RES
1 w_data[3] *6664:A 21.6579 
*END

*D_NET *21 0.000638964
*CONN
*P w_data[4] I
*I *6665:A I *D sky130_fd_sc_hd__buf_4
*CAP
1 w_data[4] 0.000319482
2 *6665:A 0.000319482
3 *6665:A *647:8 0
*RES
1 w_data[4] *6665:A 21.4589 
*END

*D_NET *22 0.0011056
*CONN
*P w_data[5] I
*I *6666:A I *D sky130_fd_sc_hd__buf_4
*CAP
1 w_data[5] 0.000552799
2 *6666:A 0.000552799
*RES
1 w_data[5] *6666:A 24.5679 
*END

*D_NET *23 0.000832559
*CONN
*P w_data[6] I
*I *6655:A I *D sky130_fd_sc_hd__buf_4
*CAP
1 w_data[6] 0.00041628
2 *6655:A 0.00041628
*RES
1 w_data[6] *6655:A 21.8357 
*END

*D_NET *24 0.000689009
*CONN
*P w_data[7] I
*I *6656:A I *D sky130_fd_sc_hd__buf_4
*CAP
1 w_data[7] 0.000336809
2 *6656:A 0.000336809
3 *6656:A *647:8 1.53908e-05
*RES
1 w_data[7] *6656:A 18.84 
*END

*D_NET *25 0.00145004
*CONN
*P w_rst_n I
*I *6657:A I *D sky130_fd_sc_hd__clkbuf_2
*CAP
1 w_rst_n 0.00072502
2 *6657:A 0.00072502
*RES
1 w_rst_n *6657:A 27.8536 
*END

*D_NET *26 0.000772154
*CONN
*P wr I
*I *6658:A I *D sky130_fd_sc_hd__clkbuf_2
*CAP
1 wr 0.000370143
2 *6658:A 0.000370143
3 *6658:A *658:8 3.18676e-05
4 *6658:A *700:27 0
*RES
1 wr *6658:A 22.0138 
*END

*D_NET *27 0.00105944
*CONN
*I *6322:D I *D sky130_fd_sc_hd__dfxtp_1
*I *5907:X O *D sky130_fd_sc_hd__clkbuf_1
*CAP
1 *6322:D 0.000441297
2 *5907:X 0.000441297
3 *6322:D *6637:A 0
4 *6322:D *225:121 0
5 *6322:D *225:136 0
6 *6322:D *481:52 0.000127067
7 *6322:D *658:20 4.9773e-05
*RES
1 *5907:X *6322:D 34.2295 
*END

*D_NET *28 0.000495667
*CONN
*I *6323:D I *D sky130_fd_sc_hd__dfxtp_1
*I *5909:X O *D sky130_fd_sc_hd__clkbuf_1
*CAP
1 *6323:D 0.000146338
2 *5909:X 0.000146338
3 *6323:D *5909:A 0
4 *6323:D *5939:A2 5.5855e-05
5 *6323:D *6323:CLK 0.000147136
6 *6323:D *6550:A 0
*RES
1 *5909:X *6323:D 30.9438 
*END

*D_NET *29 0.000929488
*CONN
*I *6324:D I *D sky130_fd_sc_hd__dfxtp_1
*I *5911:X O *D sky130_fd_sc_hd__clkbuf_1
*CAP
1 *6324:D 0.000289833
2 *5911:X 0.000289833
3 *6324:D *5948:A3 3.29354e-05
4 *6324:D *5948:S0 0
5 *6324:D *6324:CLK 0.000316887
6 *6324:D *411:20 0
7 *6324:D *680:10 0
*RES
1 *5911:X *6324:D 32.8321 
*END

*D_NET *30 0.000795544
*CONN
*I *6325:D I *D sky130_fd_sc_hd__dfxtp_1
*I *5913:X O *D sky130_fd_sc_hd__clkbuf_1
*CAP
1 *6325:D 0.000209196
2 *5913:X 0.000209196
3 *6325:D *5957:A2 4.87669e-06
4 *6325:D *5975:S1 9.82585e-06
5 *6325:D *6029:S 0.00033678
6 *6325:D *6175:A0 2.56694e-05
7 *6325:D *6211:A0 0
8 *6325:D *6611:A 0
9 *6325:D *391:151 0
10 *6325:D *401:87 0
*RES
1 *5913:X *6325:D 32.1402 
*END

*D_NET *31 0.000625985
*CONN
*I *6326:D I *D sky130_fd_sc_hd__dfxtp_1
*I *5915:X O *D sky130_fd_sc_hd__clkbuf_1
*CAP
1 *6326:D 0.000195612
2 *5915:X 0.000195612
3 *6326:D *5915:A 0
4 *6326:D *6638:A 0
5 *6326:D *488:78 0.000234761
*RES
1 *5915:X *6326:D 31.7652 
*END

*D_NET *32 0.000709116
*CONN
*I *6327:D I *D sky130_fd_sc_hd__dfxtp_1
*I *5917:X O *D sky130_fd_sc_hd__clkbuf_1
*CAP
1 *6327:D 0.000206823
2 *5917:X 0.000206823
3 *6327:D *225:164 9.2244e-05
4 *6327:D *232:58 0.000150618
5 *6327:D *233:41 5.26091e-05
*RES
1 *5917:X *6327:D 32.1759 
*END

*D_NET *33 0.000665459
*CONN
*I *6328:D I *D sky130_fd_sc_hd__dfxtp_1
*I *5919:X O *D sky130_fd_sc_hd__clkbuf_1
*CAP
1 *6328:D 0.000109453
2 *5919:X 0.000109453
3 *6328:D *6217:A0 0.00017309
4 *6328:D *6328:CLK 0.000100374
5 *6328:D *625:32 0.00017309
*RES
1 *5919:X *6328:D 30.8366 
*END

*D_NET *34 0.000826613
*CONN
*I *6329:D I *D sky130_fd_sc_hd__dfxtp_1
*I *5921:X O *D sky130_fd_sc_hd__clkbuf_1
*CAP
1 *6329:D 0.000153476
2 *5921:X 0.000153476
3 *6329:D *5921:A 5.01117e-05
4 *6329:D *5993:A1 2.51343e-06
5 *6329:D *6213:S 0.000320181
6 *6329:D *6329:CLK 0.000146853
*RES
1 *5921:X *6329:D 31.9795 
*END

*D_NET *35 0.000404538
*CONN
*I *6330:D I *D sky130_fd_sc_hd__dfxtp_1
*I *5938:X O *D sky130_fd_sc_hd__clkbuf_1
*CAP
1 *6330:D 0.000202269
2 *5938:X 0.000202269
*RES
1 *5938:X *6330:D 21.4795 
*END

*D_NET *36 0.000579205
*CONN
*I *6331:D I *D sky130_fd_sc_hd__dfxtp_1
*I *5947:X O *D sky130_fd_sc_hd__clkbuf_1
*CAP
1 *6331:D 0.000218999
2 *5947:X 0.000218999
3 *6331:D *5943:S1 3.79467e-05
4 *6331:D *382:80 0.00010326
*RES
1 *5947:X *6331:D 31.3902 
*END

*D_NET *37 0.00121877
*CONN
*I *6332:D I *D sky130_fd_sc_hd__dfxtp_1
*I *5956:X O *D sky130_fd_sc_hd__clkbuf_1
*CAP
1 *6332:D 0.000386042
2 *5956:X 0.000386042
3 *6332:D *5955:A1 0.000217636
4 *6332:D *712:72 9.90431e-05
5 *6332:D *712:83 0.00013001
*RES
1 *5956:X *6332:D 34.5152 
*END

*D_NET *38 0.000405712
*CONN
*I *6333:D I *D sky130_fd_sc_hd__dfxtp_1
*I *5965:X O *D sky130_fd_sc_hd__clkbuf_1
*CAP
1 *6333:D 0.000188405
2 *5965:X 0.000188405
3 *6333:D *5965:A 2.89016e-05
*RES
1 *5965:X *6333:D 21.4795 
*END

*D_NET *39 0.000396831
*CONN
*I *6334:D I *D sky130_fd_sc_hd__dfxtp_1
*I *5974:X O *D sky130_fd_sc_hd__clkbuf_1
*CAP
1 *6334:D 0.0001404
2 *5974:X 0.0001404
3 *6334:D *712:53 8.07313e-05
4 *6334:D *712:64 3.52992e-05
*RES
1 *5974:X *6334:D 21.4795 
*END

*D_NET *40 0.000494081
*CONN
*I *6335:D I *D sky130_fd_sc_hd__dfxtp_1
*I *5983:X O *D sky130_fd_sc_hd__clkbuf_1
*CAP
1 *6335:D 0.000207
2 *5983:X 0.000207
3 *6335:D *6676:A 8.00806e-05
4 *6335:D *709:90 0
5 *6335:D *711:34 0
6 *6335:D *711:38 0
*RES
1 *5983:X *6335:D 31.3545 
*END

*D_NET *41 0.000577225
*CONN
*I *6336:D I *D sky130_fd_sc_hd__dfxtp_1
*I *5992:X O *D sky130_fd_sc_hd__clkbuf_1
*CAP
1 *6336:D 9.40143e-05
2 *5992:X 9.40143e-05
3 *6336:D *5992:A 0.000100823
4 *6336:D *680:24 0.000144186
5 *6336:D *705:12 0.000144186
*RES
1 *5992:X *6336:D 30.3366 
*END

*D_NET *42 0.000386427
*CONN
*I *6337:D I *D sky130_fd_sc_hd__dfxtp_1
*I *6001:X O *D sky130_fd_sc_hd__clkbuf_1
*CAP
1 *6337:D 0.000109781
2 *6001:X 0.000109781
3 *6337:D *6001:A 8.7589e-05
4 *6337:D *703:25 1.2747e-05
5 *6337:D *712:72 6.65302e-05
*RES
1 *6001:X *6337:D 30.4214 
*END

*D_NET *43 0.000641342
*CONN
*I *6338:D I *D sky130_fd_sc_hd__dfxtp_1
*I *6005:X O *D sky130_fd_sc_hd__clkbuf_1
*CAP
1 *6338:D 0.000205374
2 *6005:X 0.000205374
3 *6338:D *6005:A 9.33978e-07
4 *6338:D *230:111 0.000151333
5 *16:5 *6338:D 7.8327e-05
*RES
1 *6005:X *6338:D 31.35 
*END

*D_NET *44 0.000451309
*CONN
*I *6339:D I *D sky130_fd_sc_hd__dfxtp_1
*I *6007:X O *D sky130_fd_sc_hd__clkbuf_1
*CAP
1 *6339:D 0.000225654
2 *6007:X 0.000225654
3 *6339:D *724:124 0
*RES
1 *6007:X *6339:D 31.3545 
*END

*D_NET *45 0.000419165
*CONN
*I *6340:D I *D sky130_fd_sc_hd__dfxtp_1
*I *6009:X O *D sky130_fd_sc_hd__clkbuf_1
*CAP
1 *6340:D 0.000103085
2 *6009:X 0.000103085
3 *6340:D *6009:A 0.00012401
4 *6340:D *233:139 5.39166e-06
5 *6340:D *298:52 9.09664e-06
6 *6340:D *484:34 1.02504e-05
7 *6340:D *484:96 2.13202e-05
8 *6340:D *484:118 4.29272e-05
*RES
1 *6009:X *6340:D 29.9929 
*END

*D_NET *46 0.000202373
*CONN
*I *6341:D I *D sky130_fd_sc_hd__dfxtp_1
*I *6011:X O *D sky130_fd_sc_hd__clkbuf_1
*CAP
1 *6341:D 7.3996e-05
2 *6011:X 7.3996e-05
3 *6341:D *298:67 3.79467e-05
4 *6341:D *470:151 1.64343e-05
*RES
1 *6011:X *6341:D 29.1045 
*END

*D_NET *47 0.000545788
*CONN
*I *6342:D I *D sky130_fd_sc_hd__dfxtp_1
*I *6013:X O *D sky130_fd_sc_hd__clkbuf_1
*CAP
1 *6342:D 0.000188363
2 *6013:X 0.000188363
3 *6342:D *6013:A 7.83366e-05
4 *6342:D *6616:A 0
5 *6342:D *233:98 9.07255e-05
6 *6342:D *525:10 0
*RES
1 *6013:X *6342:D 31.7652 
*END

*D_NET *48 0.000489829
*CONN
*I *6343:D I *D sky130_fd_sc_hd__dfxtp_1
*I *6015:X O *D sky130_fd_sc_hd__clkbuf_1
*CAP
1 *6343:D 0.000115602
2 *6015:X 0.000115602
3 *6343:D *6055:A0 6.48957e-05
4 *6343:D *329:29 9.04068e-05
5 *6343:D *493:14 0.000103323
*RES
1 *6015:X *6343:D 30.8366 
*END

*D_NET *49 0.000215395
*CONN
*I *6344:D I *D sky130_fd_sc_hd__dfxtp_1
*I *6017:X O *D sky130_fd_sc_hd__clkbuf_1
*CAP
1 *6344:D 5.31517e-05
2 *6017:X 5.31517e-05
3 *6344:D *6017:A 5.33978e-05
4 *6344:D *485:28 5.56943e-05
*RES
1 *6017:X *6344:D 29.1045 
*END

*D_NET *50 0.000534315
*CONN
*I *6345:D I *D sky130_fd_sc_hd__dfxtp_1
*I *6019:X O *D sky130_fd_sc_hd__clkbuf_1
*CAP
1 *6345:D 0.000172856
2 *6019:X 0.000172856
3 *6345:D *6019:A 5.71472e-05
4 *6345:D *6303:A 5.71472e-05
5 *6345:D *6345:CLK 7.43085e-05
*RES
1 *6019:X *6345:D 22.4929 
*END

*D_NET *51 0.00111264
*CONN
*I *6346:D I *D sky130_fd_sc_hd__dfxtp_1
*I *6024:X O *D sky130_fd_sc_hd__clkbuf_1
*CAP
1 *6346:D 0.000231177
2 *6024:X 0.000231177
3 *6346:D *6187:A0 0.00010326
4 *6346:D *6346:CLK 0.00012908
5 *6346:D *552:10 0.000417949
*RES
1 *6024:X *6346:D 33.8545 
*END

*D_NET *52 0.00116453
*CONN
*I *6347:D I *D sky130_fd_sc_hd__dfxtp_1
*I *6026:X O *D sky130_fd_sc_hd__clkbuf_1
*CAP
1 *6347:D 0.000277393
2 *6026:X 0.000277393
3 *6347:D *5940:A1 0.000385276
4 *6347:D *5940:A2 9.93178e-05
5 *6347:D *481:35 0.00012515
6 *6347:D *724:64 0
*RES
1 *6026:X *6347:D 34.4795 
*END

*D_NET *53 0.00233286
*CONN
*I *6348:D I *D sky130_fd_sc_hd__dfxtp_1
*I *6028:X O *D sky130_fd_sc_hd__clkbuf_1
*CAP
1 *6348:D 0.000612213
2 *6028:X 0.000612213
3 *6348:D *5949:A0 0.000268403
4 *6348:D *5949:A2 0.000122814
5 *6348:D *6029:S 0.000184436
6 *6348:D *6565:A 7.83366e-05
7 *6348:D *309:65 0.000362975
8 *6348:D *309:69 9.14718e-05
9 *6348:D *411:111 0
*RES
1 *6028:X *6348:D 41.1759 
*END

*D_NET *54 0.00072907
*CONN
*I *6349:D I *D sky130_fd_sc_hd__dfxtp_1
*I *6030:X O *D sky130_fd_sc_hd__clkbuf_1
*CAP
1 *6349:D 0.000217323
2 *6030:X 0.000217323
3 *6349:D *5958:A3 0.00012401
4 *6349:D *6029:S 0.00012711
5 *6349:D *6632:A 9.25014e-06
6 *6349:D *483:63 1.64343e-05
7 *6349:D *563:10 1.76204e-05
8 *6349:D *757:79 0
*RES
1 *6030:X *6349:D 32.4437 
*END

*D_NET *55 0.000675581
*CONN
*I *6350:D I *D sky130_fd_sc_hd__dfxtp_1
*I *6032:X O *D sky130_fd_sc_hd__clkbuf_1
*CAP
1 *6350:D 0.0001989
2 *6032:X 0.0001989
3 *6350:D *239:168 0.000277781
*RES
1 *6032:X *6350:D 21.783 
*END

*D_NET *56 0.000436294
*CONN
*I *6351:D I *D sky130_fd_sc_hd__dfxtp_1
*I *6034:X O *D sky130_fd_sc_hd__clkbuf_1
*CAP
1 *6351:D 0.00014605
2 *6034:X 0.00014605
3 *6351:D *5976:A1 0.000136395
4 *6351:D *6197:A0 7.79781e-06
5 *6351:D *232:69 0
*RES
1 *6034:X *6351:D 30.3366 
*END

*D_NET *57 0.00101531
*CONN
*I *6352:D I *D sky130_fd_sc_hd__dfxtp_1
*I *6036:X O *D sky130_fd_sc_hd__clkbuf_1
*CAP
1 *6352:D 0.000349718
2 *6036:X 0.000349718
3 *6352:D *5985:A1 9.31209e-05
4 *6352:D *5988:S0 4.88631e-05
5 *6352:D *6036:A 3.92854e-05
6 *6352:D *6199:A1 0
7 *6352:D *6630:A 1.00733e-05
8 *6352:D *230:66 0.000124534
*RES
1 *6036:X *6352:D 34.3545 
*END

*D_NET *58 0.00136361
*CONN
*I *6353:D I *D sky130_fd_sc_hd__dfxtp_1
*I *6038:X O *D sky130_fd_sc_hd__clkbuf_1
*CAP
1 *6353:D 0.000364799
2 *6038:X 0.000364799
3 *6353:D *5994:A1 0.000190948
4 *6353:D *6038:A 0.00013021
5 *6353:D *6353:CLK 0.000190948
6 *6353:D *309:14 6.94775e-05
7 *6353:D *372:74 0
8 *6353:D *488:8 5.24274e-05
9 *6353:D *658:30 0
*RES
1 *6038:X *6353:D 35.6045 
*END

*D_NET *59 0.000880216
*CONN
*I *6354:D I *D sky130_fd_sc_hd__dfxtp_1
*I *6042:X O *D sky130_fd_sc_hd__clkbuf_1
*CAP
1 *6354:D 0.000263204
2 *6042:X 0.000263204
3 *6354:D *5931:A1 8.07313e-05
4 *6354:D *319:105 0
5 *6354:D *351:101 5.05572e-05
6 *6354:D *460:78 7.8327e-05
7 *6354:D *486:38 0.000144193
*RES
1 *6042:X *6354:D 32.7116 
*END

*D_NET *60 0.000813014
*CONN
*I *6355:D I *D sky130_fd_sc_hd__dfxtp_1
*I *6044:X O *D sky130_fd_sc_hd__clkbuf_1
*CAP
1 *6355:D 0.000255829
2 *6044:X 0.000255829
3 *6355:D *5942:A0 9.41642e-05
4 *6355:D *6044:A 7.6644e-05
5 *6355:D *6355:CLK 8.01787e-05
6 *6355:D *237:169 5.03694e-05
*RES
1 *6044:X *6355:D 32.1714 
*END

*D_NET *61 0.000577322
*CONN
*I *6356:D I *D sky130_fd_sc_hd__dfxtp_1
*I *6046:X O *D sky130_fd_sc_hd__clkbuf_1
*CAP
1 *6356:D 0.000157493
2 *6046:X 0.000157493
3 *6356:D *5951:A1 7.26807e-05
4 *6356:D *6045:A1 0.000189655
5 *6356:D *319:84 0
*RES
1 *6046:X *6356:D 31.3545 
*END

*D_NET *62 0.000537993
*CONN
*I *6357:D I *D sky130_fd_sc_hd__dfxtp_1
*I *6048:X O *D sky130_fd_sc_hd__clkbuf_1
*CAP
1 *6357:D 0.000143487
2 *6048:X 0.000143487
3 *6357:D *5960:A0 8.42801e-05
4 *6357:D *6048:A 9.60939e-05
5 *6357:D *486:83 7.06444e-05
*RES
1 *6048:X *6357:D 21.4795 
*END

*D_NET *63 0.00160151
*CONN
*I *6358:D I *D sky130_fd_sc_hd__dfxtp_1
*I *6050:X O *D sky130_fd_sc_hd__clkbuf_1
*CAP
1 *6358:D 0.000222164
2 *6050:X 0.000222164
3 *6358:D *5969:A1 0.000314608
4 *6358:D *5969:A3 0.000265438
5 *6358:D *6049:A0 0.000101777
6 *6358:D *6050:A 5.09999e-05
7 *6358:D *460:66 6.53742e-05
8 *6358:D *532:6 0.000214742
9 *6358:D *548:8 0.000144241
*RES
1 *6050:X *6358:D 35.2652 
*END

*D_NET *64 0.00125192
*CONN
*I *6359:D I *D sky130_fd_sc_hd__dfxtp_1
*I *6052:X O *D sky130_fd_sc_hd__clkbuf_1
*CAP
1 *6359:D 0.000344639
2 *6052:X 0.000344639
3 *6359:D *5978:A3 0.000174954
4 *6359:D *6051:S 0
5 *6359:D *6052:A 3.75959e-05
6 *6359:D *6298:A0 7.74135e-05
7 *6359:D *319:51 0
8 *6359:D *493:69 0.000272682
*RES
1 *6052:X *6359:D 34.908 
*END

*D_NET *65 0.00120524
*CONN
*I *6360:D I *D sky130_fd_sc_hd__dfxtp_1
*I *6054:X O *D sky130_fd_sc_hd__clkbuf_1
*CAP
1 *6360:D 0.000398884
2 *6054:X 0.000398884
3 *6360:D *485:16 0.00025007
4 *6360:D *485:86 0.000157399
*RES
1 *6054:X *6360:D 24.658 
*END

*D_NET *66 0.000525982
*CONN
*I *6361:D I *D sky130_fd_sc_hd__dfxtp_1
*I *6056:X O *D sky130_fd_sc_hd__clkbuf_1
*CAP
1 *6361:D 0.000167517
2 *6056:X 0.000167517
3 *6361:D *6361:CLK 0.000190948
4 *6361:D *319:51 0
*RES
1 *6056:X *6361:D 30.7473 
*END

*D_NET *67 0.000861064
*CONN
*I *6362:D I *D sky130_fd_sc_hd__dfxtp_1
*I *6060:X O *D sky130_fd_sc_hd__clkbuf_1
*CAP
1 *6362:D 0.000287073
2 *6060:X 0.000287073
3 *6362:D *6370:CLK 2.72967e-05
4 *6362:D *233:181 0.000153047
5 *6362:D *259:18 7.92879e-05
6 *6362:D *486:10 2.72859e-05
*RES
1 *6060:X *6362:D 32.7116 
*END

*D_NET *68 0.000433066
*CONN
*I *6363:D I *D sky130_fd_sc_hd__dfxtp_1
*I *6062:X O *D sky130_fd_sc_hd__clkbuf_1
*CAP
1 *6363:D 0.00016328
2 *6062:X 0.00016328
3 *6363:D *5942:A0 3.03133e-05
4 *6363:D *6363:CLK 7.61932e-05
*RES
1 *6062:X *6363:D 21.4795 
*END

*D_NET *69 0.000524253
*CONN
*I *6364:D I *D sky130_fd_sc_hd__dfxtp_1
*I *6064:X O *D sky130_fd_sc_hd__clkbuf_1
*CAP
1 *6364:D 0.000189375
2 *6064:X 0.000189375
3 *6364:D *6064:A 5.52302e-05
4 *6364:D *6364:CLK 6.87476e-05
5 *6364:D *233:139 2.15245e-05
*RES
1 *6064:X *6364:D 21.8902 
*END

*D_NET *70 0.000933534
*CONN
*I *6365:D I *D sky130_fd_sc_hd__dfxtp_1
*I *6066:X O *D sky130_fd_sc_hd__clkbuf_1
*CAP
1 *6365:D 0.00028696
2 *6066:X 0.00028696
3 *6365:D *5960:A0 0.000227532
4 *6365:D *6065:A0 0
5 *6365:D *6066:A 4.25622e-05
6 *6365:D *486:106 8.95186e-05
*RES
1 *6066:X *6365:D 32.2786 
*END

*D_NET *71 0.000889543
*CONN
*I *6366:D I *D sky130_fd_sc_hd__dfxtp_1
*I *6068:X O *D sky130_fd_sc_hd__clkbuf_1
*CAP
1 *6366:D 0.000198054
2 *6068:X 0.000198054
3 *6366:D *5969:A3 0.000148189
4 *6366:D *5969:S0 0
5 *6366:D *6068:A 0.000311028
6 *6366:D *298:52 7.01199e-06
7 *6366:D *484:44 1.64343e-05
8 *6366:D *779:20 1.07719e-05
*RES
1 *6068:X *6366:D 32.3723 
*END

*D_NET *72 0.000557142
*CONN
*I *6367:D I *D sky130_fd_sc_hd__dfxtp_1
*I *6070:X O *D sky130_fd_sc_hd__clkbuf_1
*CAP
1 *6367:D 0.000117999
2 *6070:X 0.000117999
3 *6367:D *6070:A 3.48705e-05
4 *6367:D *6367:CLK 0.000125008
5 *6367:D *298:37 0.000153829
6 *6367:D *460:31 7.43578e-06
*RES
1 *6070:X *6367:D 22.4929 
*END

*D_NET *73 0.00126185
*CONN
*I *6368:D I *D sky130_fd_sc_hd__dfxtp_1
*I *6072:X O *D sky130_fd_sc_hd__clkbuf_1
*CAP
1 *6368:D 0.000296382
2 *6072:X 0.000296382
3 *6368:D *5987:A0 4.87669e-06
4 *6368:D *6043:S 1.64343e-05
5 *6368:D *230:128 0.000179278
6 *6368:D *233:181 0.000468494
7 *6368:D *233:191 0
*RES
1 *6072:X *6368:D 35.1045 
*END

*D_NET *74 0.000990928
*CONN
*I *6369:D I *D sky130_fd_sc_hd__dfxtp_1
*I *6074:X O *D sky130_fd_sc_hd__clkbuf_1
*CAP
1 *6369:D 0.000248674
2 *6074:X 0.000248674
3 *6369:D *5996:A0 3.32132e-06
4 *6369:D *5996:S0 0.00014183
5 *6369:D *6074:A 0.000292708
6 *6369:D *292:12 3.92854e-05
7 *6369:D *298:33 1.64343e-05
8 *6369:D *636:53 0
*RES
1 *6074:X *6369:D 32.8902 
*END

*D_NET *75 0.000544159
*CONN
*I *6370:D I *D sky130_fd_sc_hd__dfxtp_1
*I *6078:X O *D sky130_fd_sc_hd__clkbuf_1
*CAP
1 *6370:D 9.07706e-05
2 *6078:X 9.07706e-05
3 *6370:D *5937:A0 1.15797e-05
4 *6370:D *6059:A0 0.000175519
5 *6370:D *339:71 0.000175519
*RES
1 *6078:X *6370:D 30.4259 
*END

*D_NET *76 0.000304544
*CONN
*I *6371:D I *D sky130_fd_sc_hd__dfxtp_1
*I *6080:X O *D sky130_fd_sc_hd__clkbuf_1
*CAP
1 *6371:D 0.000122517
2 *6080:X 0.000122517
3 *6371:D *6371:CLK 0
4 *6371:D *513:10 0
5 *6371:D *735:162 5.95099e-05
*RES
1 *6080:X *6371:D 29.5152 
*END

*D_NET *77 0.000411416
*CONN
*I *6372:D I *D sky130_fd_sc_hd__dfxtp_1
*I *6082:X O *D sky130_fd_sc_hd__clkbuf_1
*CAP
1 *6372:D 0.000205708
2 *6082:X 0.000205708
*RES
1 *6082:X *6372:D 21.4795 
*END

*D_NET *78 0.000380099
*CONN
*I *6373:D I *D sky130_fd_sc_hd__dfxtp_1
*I *6084:X O *D sky130_fd_sc_hd__clkbuf_1
*CAP
1 *6373:D 9.83808e-05
2 *6084:X 9.83808e-05
3 *6373:D *5962:S 8.18231e-05
4 *6373:D *233:247 1.64343e-05
5 *6373:D *351:111 8.50804e-05
*RES
1 *6084:X *6373:D 30.0152 
*END

*D_NET *79 0.000580945
*CONN
*I *6374:D I *D sky130_fd_sc_hd__dfxtp_1
*I *6086:X O *D sky130_fd_sc_hd__clkbuf_1
*CAP
1 *6374:D 0.000225468
2 *6086:X 0.000225468
3 *6374:D *6374:CLK 0.00013001
*RES
1 *6086:X *6374:D 22.3009 
*END

*D_NET *80 0.000664846
*CONN
*I *6375:D I *D sky130_fd_sc_hd__dfxtp_1
*I *6088:X O *D sky130_fd_sc_hd__clkbuf_1
*CAP
1 *6375:D 0.0001593
2 *6088:X 0.0001593
3 *6375:D *6088:A 0.000221103
4 *6375:D *492:16 0.000125144
*RES
1 *6088:X *6375:D 22.7473 
*END

*D_NET *81 0.000219416
*CONN
*I *6376:D I *D sky130_fd_sc_hd__dfxtp_1
*I *6090:X O *D sky130_fd_sc_hd__clkbuf_1
*CAP
1 *6376:D 8.06949e-05
2 *6090:X 8.06949e-05
3 *6376:D *6090:A 4.15914e-05
4 *6376:D *6376:CLK 1.64343e-05
5 *6376:D *482:42 0
*RES
1 *6090:X *6376:D 29.1045 
*END

*D_NET *82 0.000590495
*CONN
*I *6377:D I *D sky130_fd_sc_hd__dfxtp_1
*I *6092:X O *D sky130_fd_sc_hd__clkbuf_1
*CAP
1 *6377:D 0.000186192
2 *6092:X 0.000186192
3 *6377:D *6112:A 5.52238e-05
4 *6377:D *411:77 0.000162888
*RES
1 *6092:X *6377:D 21.8902 
*END

*D_NET *83 0.00059739
*CONN
*I *6378:D I *D sky130_fd_sc_hd__dfxtp_1
*I *6098:X O *D sky130_fd_sc_hd__clkbuf_1
*CAP
1 *6378:D 0.00010087
2 *6098:X 0.00010087
3 *6378:D *6071:A0 0.000125731
4 *6378:D *6488:CLK 0.000144186
5 *6378:D *724:179 0.000125731
*RES
1 *6098:X *6378:D 30.6402 
*END

*D_NET *84 0.000254837
*CONN
*I *6379:D I *D sky130_fd_sc_hd__dfxtp_1
*I *6100:X O *D sky130_fd_sc_hd__clkbuf_1
*CAP
1 *6379:D 6.4744e-05
2 *6100:X 6.4744e-05
3 *6379:D *5945:A0 0
4 *6379:D *231:22 0.000103267
5 *6379:D *482:104 1.76204e-05
6 *6379:D *622:12 4.46186e-06
*RES
1 *6100:X *6379:D 29.1045 
*END

*D_NET *85 0.000671351
*CONN
*I *6380:D I *D sky130_fd_sc_hd__dfxtp_1
*I *6102:X O *D sky130_fd_sc_hd__clkbuf_1
*CAP
1 *6380:D 0.00020316
2 *6102:X 0.00020316
3 *6380:D *6082:A 0.000170503
4 *6380:D *6406:CLK 1.64343e-05
5 *6380:D *230:91 0
6 *6380:D *484:34 7.80929e-05
*RES
1 *6102:X *6380:D 31.8366 
*END

*D_NET *86 0.000400249
*CONN
*I *6381:D I *D sky130_fd_sc_hd__dfxtp_1
*I *6104:X O *D sky130_fd_sc_hd__clkbuf_1
*CAP
1 *6381:D 0.000116251
2 *6104:X 0.000116251
3 *6381:D *5961:S0 3.18676e-05
4 *6381:D *6104:A 5.03694e-05
5 *6381:D *233:171 8.06331e-05
6 *6381:D *351:101 4.87669e-06
*RES
1 *6104:X *6381:D 30.2473 
*END

*D_NET *87 0.000415691
*CONN
*I *6382:D I *D sky130_fd_sc_hd__dfxtp_1
*I *6106:X O *D sky130_fd_sc_hd__clkbuf_1
*CAP
1 *6382:D 0.000167044
2 *6106:X 0.000167044
3 *6382:D *5980:A0 0
4 *6382:D *6106:A 8.16036e-05
5 *6382:D *6382:CLK 0
*RES
1 *6106:X *6382:D 30.9438 
*END

*D_NET *88 0.00074801
*CONN
*I *6383:D I *D sky130_fd_sc_hd__dfxtp_1
*I *6108:X O *D sky130_fd_sc_hd__clkbuf_1
*CAP
1 *6383:D 0.000276433
2 *6108:X 0.000276433
3 *6383:D *6383:CLK 0.000195144
4 *6383:D *292:12 0
5 *6383:D *319:12 0
*RES
1 *6108:X *6383:D 32.783 
*END

*D_NET *89 0.000284954
*CONN
*I *6384:D I *D sky130_fd_sc_hd__dfxtp_1
*I *6110:X O *D sky130_fd_sc_hd__clkbuf_1
*CAP
1 *6384:D 9.48686e-05
2 *6110:X 9.48686e-05
3 *6384:D *6384:CLK 5.95099e-05
4 *6384:D *237:124 0
5 *6384:D *482:29 3.5707e-05
*RES
1 *6110:X *6384:D 29.5152 
*END

*D_NET *90 0.000268615
*CONN
*I *6385:D I *D sky130_fd_sc_hd__dfxtp_1
*I *6112:X O *D sky130_fd_sc_hd__clkbuf_1
*CAP
1 *6385:D 0.000113512
2 *6112:X 0.000113512
3 *6385:D *216:14 0
4 *6385:D *428:52 4.15914e-05
*RES
1 *6112:X *6385:D 29.6402 
*END

*D_NET *91 0.000504218
*CONN
*I *6386:D I *D sky130_fd_sc_hd__dfxtp_1
*I *6117:X O *D sky130_fd_sc_hd__clkbuf_1
*CAP
1 *6386:D 0.000130692
2 *6117:X 0.000130692
3 *6386:D *5925:A0 8.05331e-05
4 *6386:D *5955:A0 6.24109e-05
5 *6386:D *6386:CLK 4.27438e-05
6 *6386:D *255:14 5.71472e-05
*RES
1 *6117:X *6386:D 22.0821 
*END

*D_NET *92 0.000428986
*CONN
*I *6387:D I *D sky130_fd_sc_hd__dfxtp_1
*I *6119:X O *D sky130_fd_sc_hd__clkbuf_1
*CAP
1 *6387:D 0.000176396
2 *6119:X 0.000176396
3 *6387:D *481:35 7.61932e-05
*RES
1 *6119:X *6387:D 21.4795 
*END

*D_NET *93 0.000695277
*CONN
*I *6388:D I *D sky130_fd_sc_hd__dfxtp_1
*I *6121:X O *D sky130_fd_sc_hd__clkbuf_1
*CAP
1 *6388:D 0.000130583
2 *6121:X 0.000130583
3 *6388:D *5950:A1 0.000100831
4 *6388:D *5954:A0 0.000181819
5 *6388:D *6027:A0 5.7298e-05
6 *6388:D *498:10 0
7 *6388:D *625:114 9.41642e-05
*RES
1 *6121:X *6388:D 30.7473 
*END

*D_NET *94 0.000525499
*CONN
*I *6389:D I *D sky130_fd_sc_hd__dfxtp_1
*I *6123:X O *D sky130_fd_sc_hd__clkbuf_1
*CAP
1 *6389:D 0.000175351
2 *6123:X 0.000175351
3 *6389:D *6389:CLK 0.00013001
4 *6389:D *6560:A 4.4787e-05
5 *6389:D *563:10 0
*RES
1 *6123:X *6389:D 21.8902 
*END

*D_NET *95 0.000307283
*CONN
*I *6390:D I *D sky130_fd_sc_hd__dfxtp_1
*I *6125:X O *D sky130_fd_sc_hd__clkbuf_1
*CAP
1 *6390:D 0.000106449
2 *6125:X 0.000106449
3 *6390:D *6125:A 6.76832e-05
4 *6390:D *6392:CLK 2.18262e-05
5 *6390:D *265:12 0
6 *6390:D *494:86 4.87669e-06
*RES
1 *6125:X *6390:D 29.7116 
*END

*D_NET *96 0.0011824
*CONN
*I *6391:D I *D sky130_fd_sc_hd__dfxtp_1
*I *6127:X O *D sky130_fd_sc_hd__clkbuf_1
*CAP
1 *6391:D 0.00032976
2 *6127:X 0.00032976
3 *6391:D *5976:A0 0.000309266
4 *6391:D *6126:A0 0
5 *6391:D *6391:CLK 8.95186e-05
6 *6391:D *501:14 7.83587e-05
7 *6391:D *768:42 4.57352e-05
*RES
1 *6127:X *6391:D 33.1 
*END

*D_NET *97 0.00164769
*CONN
*I *6392:D I *D sky130_fd_sc_hd__dfxtp_1
*I *6129:X O *D sky130_fd_sc_hd__clkbuf_1
*CAP
1 *6392:D 0.000282748
2 *6129:X 0.000282748
3 *6392:D *5985:S1 8.35809e-05
4 *6392:D *5986:A1 0.000135304
5 *6392:D *5986:S 4.72917e-05
6 *6392:D *6128:A0 8.00806e-05
7 *6392:D *6512:A 1.30327e-05
8 *6392:D *372:30 0.000137211
9 *6392:D *372:64 0.000404121
10 *6392:D *479:116 5.34206e-05
11 *6392:D *502:12 0.000128154
*RES
1 *6129:X *6392:D 36.658 
*END

*D_NET *98 0.00220979
*CONN
*I *6393:D I *D sky130_fd_sc_hd__dfxtp_1
*I *6131:X O *D sky130_fd_sc_hd__clkbuf_1
*CAP
1 *6393:D 0.000624361
2 *6131:X 0.000624361
3 *6393:D *6131:A 3.30352e-05
4 *6393:D *6393:CLK 0.000745933
5 *6393:D *636:107 0.000182101
*RES
1 *6131:X *6393:D 29.1759 
*END

*D_NET *99 0.000977259
*CONN
*I *6394:D I *D sky130_fd_sc_hd__dfxtp_1
*I *6135:X O *D sky130_fd_sc_hd__clkbuf_1
*CAP
1 *6394:D 0.000456501
2 *6135:X 0.000456501
3 *6394:D *5972:A1 2.79092e-05
4 *6394:D *6128:A0 7.43578e-06
5 *6394:D *6188:A 0
6 *6394:D *6394:CLK 2.89114e-05
*RES
1 *6135:X *6394:D 33.6937 
*END

*D_NET *100 0.000572204
*CONN
*I *6395:D I *D sky130_fd_sc_hd__dfxtp_1
*I *6137:X O *D sky130_fd_sc_hd__clkbuf_1
*CAP
1 *6395:D 0.000213443
2 *6137:X 0.000213443
3 *6395:D *5986:A0 0
4 *6395:D *6137:A 6.76832e-05
5 *6395:D *494:84 4.43718e-05
6 *6395:D *494:86 3.32631e-05
*RES
1 *6137:X *6395:D 31.6357 
*END

*D_NET *101 0.00066356
*CONN
*I *6396:D I *D sky130_fd_sc_hd__dfxtp_1
*I *6139:X O *D sky130_fd_sc_hd__clkbuf_1
*CAP
1 *6396:D 0.000136842
2 *6139:X 0.000136842
3 *6396:D *362:45 0.000105569
4 *6396:D *362:95 6.91157e-05
5 *6396:D *768:42 3.8341e-05
6 *6396:D *768:44 0.000176851
*RES
1 *6139:X *6396:D 31.533 
*END

*D_NET *102 0.000365969
*CONN
*I *6397:D I *D sky130_fd_sc_hd__dfxtp_1
*I *6141:X O *D sky130_fd_sc_hd__clkbuf_1
*CAP
1 *6397:D 0.000131323
2 *6141:X 0.000131323
3 *6397:D *401:87 0
4 *6397:D *483:65 0.000103323
5 *6397:D *483:69 0
*RES
1 *6141:X *6397:D 29.9259 
*END

*D_NET *103 0.000715099
*CONN
*I *6398:D I *D sky130_fd_sc_hd__dfxtp_1
*I *6143:X O *D sky130_fd_sc_hd__clkbuf_1
*CAP
1 *6398:D 0.00025024
2 *6143:X 0.00025024
3 *6398:D *5995:A0 0
4 *6398:D *6398:CLK 5.52302e-05
5 *6398:D *6648:A 1.51611e-06
6 *6398:D *216:44 6.83539e-05
7 *6398:D *658:24 8.95186e-05
8 *6398:D *658:30 0
*RES
1 *6143:X *6398:D 32.8321 
*END

*D_NET *104 0.000239214
*CONN
*I *6399:D I *D sky130_fd_sc_hd__dfxtp_1
*I *6145:X O *D sky130_fd_sc_hd__clkbuf_1
*CAP
1 *6399:D 6.88381e-05
2 *6145:X 6.88381e-05
3 *6399:D *279:18 3.17148e-05
4 *6399:D *309:14 0
5 *6399:D *372:16 1.64343e-05
6 *6399:D *470:100 5.33882e-05
*RES
1 *6145:X *6399:D 29.1045 
*END

*D_NET *105 0.000348976
*CONN
*I *6400:D I *D sky130_fd_sc_hd__dfxtp_1
*I *6147:X O *D sky130_fd_sc_hd__clkbuf_1
*CAP
1 *6400:D 0.000118844
2 *6147:X 0.000118844
3 *6400:D *6147:A 4.15914e-05
4 *6400:D *232:21 2.81046e-05
5 *6400:D *237:86 4.15914e-05
*RES
1 *6147:X *6400:D 30.0509 
*END

*D_NET *106 0.00145825
*CONN
*I *6401:D I *D sky130_fd_sc_hd__dfxtp_1
*I *6149:X O *D sky130_fd_sc_hd__clkbuf_1
*CAP
1 *6401:D 0.000389211
2 *6149:X 0.000389211
3 *6401:D *5948:S0 0.000128161
4 *6401:D *6202:A 7.71205e-05
5 *6401:D *216:29 0
6 *6401:D *237:66 0.000105246
7 *6401:D *239:160 0.000103323
8 *6401:D *480:8 0.000107515
9 *6401:D *480:14 7.73184e-05
10 *6401:D *790:14 1.69115e-05
11 *6401:D *791:35 6.42338e-05
*RES
1 *6149:X *6401:D 37.2116 
*END

*D_NET *107 0.000737261
*CONN
*I *6402:D I *D sky130_fd_sc_hd__dfxtp_1
*I *6153:X O *D sky130_fd_sc_hd__clkbuf_1
*CAP
1 *6402:D 0.000294595
2 *6153:X 0.000294595
3 *6402:D *6152:A1 5.96733e-05
4 *6402:D *6153:A 8.83982e-05
5 *6402:D *339:81 0
*RES
1 *6153:X *6402:D 31.792 
*END

*D_NET *108 0.000328427
*CONN
*I *6403:D I *D sky130_fd_sc_hd__dfxtp_1
*I *6155:X O *D sky130_fd_sc_hd__clkbuf_1
*CAP
1 *6403:D 8.19195e-05
2 *6155:X 8.19195e-05
3 *6403:D *6164:S 9.82585e-06
4 *6403:D *6403:CLK 0.000154762
*RES
1 *6155:X *6403:D 29.7116 
*END

*D_NET *109 0.00118501
*CONN
*I *6404:D I *D sky130_fd_sc_hd__dfxtp_1
*I *6157:X O *D sky130_fd_sc_hd__clkbuf_1
*CAP
1 *6404:D 0.000260783
2 *6157:X 0.000260783
3 *6404:D *6157:A 8.91726e-05
4 *6404:D *6404:CLK 0.000401178
5 *6404:D *230:111 0.00017309
*RES
1 *6157:X *6404:D 33.7116 
*END

*D_NET *110 0.000649053
*CONN
*I *6405:D I *D sky130_fd_sc_hd__dfxtp_1
*I *6159:X O *D sky130_fd_sc_hd__clkbuf_1
*CAP
1 *6405:D 0.000212608
2 *6159:X 0.000212608
3 *6405:D *5961:A0 2.96945e-05
4 *6405:D *6405:CLK 0.000194143
*RES
1 *6159:X *6405:D 22.0152 
*END

*D_NET *111 0.000448552
*CONN
*I *6406:D I *D sky130_fd_sc_hd__dfxtp_1
*I *6161:X O *D sky130_fd_sc_hd__clkbuf_1
*CAP
1 *6406:D 0.000152588
2 *6161:X 0.000152588
3 *6406:D *6161:A 1.74352e-05
4 *6406:D *6406:CLK 0.000125941
*RES
1 *6161:X *6406:D 22.0821 
*END

*D_NET *112 0.000244223
*CONN
*I *6407:D I *D sky130_fd_sc_hd__dfxtp_1
*I *6163:X O *D sky130_fd_sc_hd__clkbuf_1
*CAP
1 *6407:D 6.96245e-05
2 *6163:X 6.96245e-05
3 *6407:D *6087:S 0
4 *6407:D *492:64 0.000104974
*RES
1 *6163:X *6407:D 29.1045 
*END

*D_NET *113 0.000296779
*CONN
*I *6408:D I *D sky130_fd_sc_hd__dfxtp_1
*I *6165:X O *D sky130_fd_sc_hd__clkbuf_1
*CAP
1 *6408:D 0.000143178
2 *6165:X 0.000143178
3 *6408:D *6408:CLK 1.04232e-05
4 *6408:D *482:8 0
5 *6408:D *482:76 0
*RES
1 *6165:X *6408:D 29.8723 
*END

*D_NET *114 0.00156019
*CONN
*I *6409:D I *D sky130_fd_sc_hd__dfxtp_1
*I *6167:X O *D sky130_fd_sc_hd__clkbuf_1
*CAP
1 *6409:D 0.000303771
2 *6167:X 0.000303771
3 *6409:D *5997:A1 0.0001827
4 *6409:D *5997:A3 0
5 *6409:D *6167:A 4.70832e-05
6 *6409:D *6495:D 0.000116657
7 *6409:D *489:40 0.000144193
8 *6409:D *615:10 5.05572e-05
9 *6409:D *636:84 0
10 *6409:D *658:30 0.000411455
*RES
1 *6167:X *6409:D 36.4795 
*END

*D_NET *115 0.000898735
*CONN
*I *6410:D I *D sky130_fd_sc_hd__dfxtp_1
*I *6170:X O *D sky130_fd_sc_hd__clkbuf_1
*CAP
1 *6410:D 0.000358139
2 *6170:X 0.000358139
3 *6410:D *6426:CLK 1.58163e-05
4 *6410:D *6426:D 6.00311e-05
5 *6410:D *225:108 2.28589e-05
6 *6410:D *494:20 7.92879e-05
7 *6410:D *494:22 4.46186e-06
8 *6410:D *735:46 0
*RES
1 *6170:X *6410:D 32.7607 
*END

*D_NET *116 0.0012772
*CONN
*I *6411:D I *D sky130_fd_sc_hd__dfxtp_1
*I *6172:X O *D sky130_fd_sc_hd__clkbuf_1
*CAP
1 *6411:D 0.000359921
2 *6172:X 0.000359921
3 *6411:D *5939:A1 0
4 *6411:D *6169:S 5.16852e-05
5 *6411:D *6172:A 3.92854e-05
6 *6411:D *6208:A 7.01199e-06
7 *6411:D *601:10 3.79467e-05
8 *6411:D *735:27 0.000234761
9 *6411:D *735:35 0
10 *6411:D *735:81 0.000186669
*RES
1 *6172:X *6411:D 35.8366 
*END

*D_NET *117 0.000576146
*CONN
*I *6412:D I *D sky130_fd_sc_hd__dfxtp_1
*I *6174:X O *D sky130_fd_sc_hd__clkbuf_1
*CAP
1 *6412:D 0.000155181
2 *6174:X 0.000155181
3 *6412:D *6174:A 0.000151333
4 *6412:D *6412:CLK 1.64343e-05
5 *6412:D *709:185 9.80173e-05
6 *6412:D *709:211 0
*RES
1 *6174:X *6412:D 30.658 
*END

*D_NET *118 0.000848456
*CONN
*I *6413:D I *D sky130_fd_sc_hd__dfxtp_1
*I *6176:X O *D sky130_fd_sc_hd__clkbuf_1
*CAP
1 *6413:D 0.00028463
2 *6176:X 0.00028463
3 *6413:D *5912:S 0.000171906
4 *6413:D *6176:A 2.72967e-05
5 *6413:D *6413:CLK 2.89114e-05
6 *6413:D *270:12 5.10822e-05
*RES
1 *6176:X *6413:D 32.3366 
*END

*D_NET *119 0.000624661
*CONN
*I *6414:D I *D sky130_fd_sc_hd__dfxtp_1
*I *6178:X O *D sky130_fd_sc_hd__clkbuf_1
*CAP
1 *6414:D 0.000154126
2 *6178:X 0.000154126
3 *6414:D *6213:A0 9.10431e-06
4 *6414:D *6213:A1 8.6197e-05
5 *6414:D *225:39 5.52238e-05
6 *6414:D *488:39 8.16036e-05
7 *6414:D *488:52 8.42801e-05
*RES
1 *6178:X *6414:D 31.1938 
*END

*D_NET *120 0.000837272
*CONN
*I *6415:D I *D sky130_fd_sc_hd__dfxtp_1
*I *6180:X O *D sky130_fd_sc_hd__clkbuf_1
*CAP
1 *6415:D 0.000290555
2 *6180:X 0.000290555
3 *6415:D *6166:S 0
4 *6415:D *215:10 0.000175519
5 *6415:D *309:14 0
6 *6415:D *658:30 8.06427e-05
*RES
1 *6180:X *6415:D 33.408 
*END

*D_NET *121 0.000880157
*CONN
*I *6416:D I *D sky130_fd_sc_hd__dfxtp_1
*I *6182:X O *D sky130_fd_sc_hd__clkbuf_1
*CAP
1 *6416:D 0.000394716
2 *6182:X 0.000394716
3 *6416:D *5984:A2 0
4 *6416:D *6243:A1 0
5 *6416:D *265:12 0
6 *6416:D *391:59 9.07255e-05
*RES
1 *6182:X *6416:D 34.1937 
*END

*D_NET *122 0.00105418
*CONN
*I *6417:D I *D sky130_fd_sc_hd__dfxtp_1
*I *6184:X O *D sky130_fd_sc_hd__clkbuf_1
*CAP
1 *6417:D 0.000434169
2 *6184:X 0.000434169
3 *6417:D *6528:A 3.17148e-05
4 *6417:D *391:47 0.000100823
5 *6417:D *480:16 0
6 *6417:D *607:6 5.33005e-05
*RES
1 *6184:X *6417:D 34.4437 
*END

*D_NET *123 0.000650266
*CONN
*I *6418:D I *D sky130_fd_sc_hd__dfxtp_1
*I *6188:X O *D sky130_fd_sc_hd__clkbuf_1
*CAP
1 *6418:D 0.000293676
2 *6188:X 0.000293676
3 *6418:D *5972:A1 0
4 *6418:D *5986:S 5.7661e-06
5 *6418:D *6418:CLK 5.71472e-05
*RES
1 *6188:X *6418:D 32.4259 
*END

*D_NET *124 0.00078845
*CONN
*I *6419:D I *D sky130_fd_sc_hd__dfxtp_1
*I *6190:X O *D sky130_fd_sc_hd__clkbuf_1
*CAP
1 *6419:D 0.000232988
2 *6190:X 0.000232988
3 *6419:D *6190:A 0.00010096
4 *6419:D *239:180 0.000221515
*RES
1 *6190:X *6419:D 23.725 
*END

*D_NET *125 0.00114083
*CONN
*I *6420:D I *D sky130_fd_sc_hd__dfxtp_1
*I *6192:X O *D sky130_fd_sc_hd__clkbuf_1
*CAP
1 *6420:D 0.000289716
2 *6192:X 0.000289716
3 *6420:D *5972:A1 2.14703e-05
4 *6420:D *270:12 0.000310047
5 *6420:D *372:24 8.59056e-05
6 *6420:D *372:30 7.86904e-05
7 *6420:D *411:92 4.88515e-05
8 *6420:D *495:58 1.64343e-05
*RES
1 *6192:X *6420:D 33.8009 
*END

*D_NET *126 0.000246644
*CONN
*I *6421:D I *D sky130_fd_sc_hd__dfxtp_1
*I *6194:X O *D sky130_fd_sc_hd__clkbuf_1
*CAP
1 *6421:D 0.000123322
2 *6194:X 0.000123322
3 *6421:D *270:12 0
4 *6421:D *757:75 0
*RES
1 *6194:X *6421:D 29.5152 
*END

*D_NET *127 0.0013233
*CONN
*I *6422:D I *D sky130_fd_sc_hd__dfxtp_1
*I *6196:X O *D sky130_fd_sc_hd__clkbuf_1
*CAP
1 *6422:D 0.000418173
2 *6196:X 0.000418173
3 *6422:D *6143:A 5.30637e-06
4 *6422:D *6196:A 7.14121e-05
5 *6422:D *6422:CLK 0.000183726
6 *6422:D *768:85 0.000226513
*RES
1 *6196:X *6422:D 25.9571 
*END

*D_NET *128 0.000646575
*CONN
*I *6423:D I *D sky130_fd_sc_hd__dfxtp_1
*I *6198:X O *D sky130_fd_sc_hd__clkbuf_1
*CAP
1 *6423:D 0.000126886
2 *6198:X 0.000126886
3 *6423:D *6351:CLK 0.000187999
4 *6423:D *339:31 0.000101545
5 *6423:D *470:100 0.00010326
*RES
1 *6198:X *6423:D 30.7473 
*END

*D_NET *129 0.000282857
*CONN
*I *6424:D I *D sky130_fd_sc_hd__dfxtp_1
*I *6200:X O *D sky130_fd_sc_hd__clkbuf_1
*CAP
1 *6424:D 0.000111674
2 *6200:X 0.000111674
3 *6424:D *233:41 0
4 *6424:D *237:86 0
5 *6424:D *746:99 5.95099e-05
*RES
1 *6200:X *6424:D 29.5152 
*END

*D_NET *130 0.000470906
*CONN
*I *6425:D I *D sky130_fd_sc_hd__dfxtp_1
*I *6202:X O *D sky130_fd_sc_hd__clkbuf_1
*CAP
1 *6425:D 0.000135287
2 *6202:X 0.000135287
3 *6425:D *6202:A 0.000173823
4 *6425:D *791:14 2.65105e-05
*RES
1 *6202:X *6425:D 21.4795 
*END

*D_NET *131 0.00105198
*CONN
*I *6426:D I *D sky130_fd_sc_hd__dfxtp_1
*I *6206:X O *D sky130_fd_sc_hd__clkbuf_1
*CAP
1 *6426:D 0.000331185
2 *6206:X 0.000331185
3 *6426:D *5986:A0 0.000177234
4 *6426:D *6170:A 0
5 *6426:D *6247:A0 9.90431e-05
6 *6426:D *6426:CLK 5.33005e-05
7 *6410:D *6426:D 6.00311e-05
*RES
1 *6206:X *6426:D 33.9437 
*END

*D_NET *132 0.000834422
*CONN
*I *6427:D I *D sky130_fd_sc_hd__dfxtp_1
*I *6208:X O *D sky130_fd_sc_hd__clkbuf_1
*CAP
1 *6427:D 0.000247052
2 *6208:X 0.000247052
3 *6427:D *6208:A 7.6644e-05
4 *6427:D *6427:CLK 8.59056e-05
5 *6427:D *216:79 1.64343e-05
6 *6427:D *391:73 9.71197e-05
7 *6427:D *494:22 6.42145e-05
8 *6427:D *735:35 0
*RES
1 *6208:X *6427:D 32.4795 
*END

*D_NET *133 0.000334274
*CONN
*I *6428:D I *D sky130_fd_sc_hd__dfxtp_1
*I *6210:X O *D sky130_fd_sc_hd__clkbuf_1
*CAP
1 *6428:D 6.51509e-05
2 *6210:X 6.51509e-05
3 *6428:D *6173:A1 5.95099e-05
4 *6428:D *6428:CLK 5.95099e-05
5 *6428:D *487:25 3.25247e-05
6 *6428:D *602:10 5.24274e-05
*RES
1 *6210:X *6428:D 29.5152 
*END

*D_NET *134 0.000378138
*CONN
*I *6429:D I *D sky130_fd_sc_hd__dfxtp_1
*I *6212:X O *D sky130_fd_sc_hd__clkbuf_1
*CAP
1 *6429:D 0.000107146
2 *6212:X 0.000107146
3 *6429:D *5975:S1 1.64343e-05
4 *6429:D *6211:S 9.91086e-05
5 *6429:D *6212:A 3.18676e-05
6 *6429:D *495:90 1.64343e-05
*RES
1 *6212:X *6429:D 29.6402 
*END

*D_NET *135 0.000503925
*CONN
*I *6430:D I *D sky130_fd_sc_hd__dfxtp_1
*I *6214:X O *D sky130_fd_sc_hd__clkbuf_1
*CAP
1 *6430:D 0.000136339
2 *6214:X 0.000136339
3 *6430:D *6214:A 0.00010096
4 *6430:D *6430:CLK 0.000130287
*RES
1 *6214:X *6430:D 22.0821 
*END

*D_NET *136 0.000946677
*CONN
*I *6431:D I *D sky130_fd_sc_hd__dfxtp_1
*I *6216:X O *D sky130_fd_sc_hd__clkbuf_1
*CAP
1 *6431:D 0.000247214
2 *6216:X 0.000247214
3 *6431:D *6215:A0 0.000168033
4 *6431:D *6216:A 5.33334e-05
5 *6431:D *6431:CLK 5.52302e-05
6 *6431:D *225:160 4.78056e-05
7 *6431:D *411:92 2.87382e-05
8 *6431:D *489:95 9.91086e-05
*RES
1 *6216:X *6431:D 32.3366 
*END

*D_NET *137 0.000604948
*CONN
*I *6432:D I *D sky130_fd_sc_hd__dfxtp_1
*I *6218:X O *D sky130_fd_sc_hd__clkbuf_1
*CAP
1 *6432:D 0.000282715
2 *6218:X 0.000282715
3 *6432:D *6218:A 3.95175e-05
4 *6432:D *488:82 0
*RES
1 *6218:X *6432:D 32.8366 
*END

*D_NET *138 0.000479779
*CONN
*I *6433:D I *D sky130_fd_sc_hd__dfxtp_1
*I *6220:X O *D sky130_fd_sc_hd__clkbuf_1
*CAP
1 *6433:D 0.000170137
2 *6220:X 0.000170137
3 *6433:D *6433:CLK 5.52238e-05
4 *6433:D *480:37 8.42801e-05
*RES
1 *6220:X *6433:D 21.4795 
*END

*D_NET *139 0.000409658
*CONN
*I *6434:D I *D sky130_fd_sc_hd__dfrtp_1
*I *6223:X O *D sky130_fd_sc_hd__clkbuf_1
*CAP
1 *6434:D 0.000186976
2 *6223:X 0.000186976
3 *6434:D *6479:CLK 0
4 *6434:D *710:8 1.00375e-05
5 *6434:D *710:10 2.56694e-05
*RES
1 *6223:X *6434:D 30.2964 
*END

*D_NET *140 0.000570591
*CONN
*I *6435:D I *D sky130_fd_sc_hd__dfrtp_1
*I *6226:X O *D sky130_fd_sc_hd__clkbuf_1
*CAP
1 *6435:D 0.000188091
2 *6226:X 0.000188091
3 *6435:D *6435:CLK 7.19508e-05
4 *6435:D *208:14 9.97164e-05
5 *6435:D *226:51 2.27416e-05
6 *6435:D *710:10 0
7 *6435:D *710:12 0
*RES
1 *6226:X *6435:D 30.8321 
*END

*D_NET *141 0.000255084
*CONN
*I *6436:D I *D sky130_fd_sc_hd__dfrtp_1
*I *6228:X O *D sky130_fd_sc_hd__o21ba_1
*CAP
1 *6436:D 6.26081e-05
2 *6228:X 6.26081e-05
3 *6436:D *391:22 0.000129868
4 *6436:D *479:61 0
*RES
1 *6228:X *6436:D 29.2429 
*END

*D_NET *142 0.000675532
*CONN
*I *6437:D I *D sky130_fd_sc_hd__dfrtp_1
*I *6230:X O *D sky130_fd_sc_hd__clkbuf_1
*CAP
1 *6437:D 0.000249383
2 *6230:X 0.000249383
3 *6437:D *6437:CLK 0.000109264
4 *6437:D *226:51 6.75007e-05
*RES
1 *6230:X *6437:D 32.6536 
*END

*D_NET *143 0.000767773
*CONN
*I *6438:D I *D sky130_fd_sc_hd__dfrtp_1
*I *6232:X O *D sky130_fd_sc_hd__clkbuf_1
*CAP
1 *6438:D 0.000232185
2 *6232:X 0.000232185
3 *6438:D *5897:B 0.000104974
4 *6438:D *6451:D 9.51689e-05
5 *6438:D *445:14 0.00010326
*RES
1 *6232:X *6438:D 31.5286 
*END

*D_NET *144 0.00083693
*CONN
*I *6439:D I *D sky130_fd_sc_hd__dfxtp_1
*I *6236:X O *D sky130_fd_sc_hd__clkbuf_1
*CAP
1 *6439:D 0.000190278
2 *6236:X 0.000190278
3 *6439:D *5906:A0 0.000196817
4 *6439:D *5906:A1 0.000162735
5 *6439:D *6578:A 0
6 *6439:D *724:24 5.52302e-05
7 *6439:D *724:107 4.15914e-05
*RES
1 *6236:X *6439:D 33.1223 
*END

*D_NET *145 0.000829395
*CONN
*I *6440:D I *D sky130_fd_sc_hd__dfxtp_1
*I *6238:X O *D sky130_fd_sc_hd__clkbuf_1
*CAP
1 *6440:D 0.000195945
2 *6238:X 0.000195945
3 *6440:D *6238:A 4.15914e-05
4 *6440:D *481:56 0.000344925
5 *6440:D *735:92 5.09882e-05
*RES
1 *6238:X *6440:D 32.8321 
*END

*D_NET *146 0.00111447
*CONN
*I *6441:D I *D sky130_fd_sc_hd__dfxtp_1
*I *6240:X O *D sky130_fd_sc_hd__clkbuf_1
*CAP
1 *6441:D 0.000307383
2 *6240:X 0.000307383
3 *6441:D *411:20 1.53273e-05
4 *6441:D *428:75 0
5 *6441:D *578:10 9.01235e-05
6 *6441:D *746:109 0.000250068
7 *6441:D *746:117 0.000144186
*RES
1 *6240:X *6441:D 34.033 
*END

*D_NET *147 0.0010245
*CONN
*I *6442:D I *D sky130_fd_sc_hd__dfxtp_1
*I *6242:X O *D sky130_fd_sc_hd__clkbuf_1
*CAP
1 *6442:D 0.000295455
2 *6242:X 0.000295455
3 *6442:D *6241:A0 8.00806e-05
4 *6442:D *6442:CLK 0.000273426
5 *6442:D *579:14 8.00806e-05
*RES
1 *6242:X *6442:D 33.4259 
*END

*D_NET *148 0.00130796
*CONN
*I *6443:D I *D sky130_fd_sc_hd__dfxtp_1
*I *6244:X O *D sky130_fd_sc_hd__clkbuf_1
*CAP
1 *6443:D 0.000288988
2 *6244:X 0.000288988
3 *6443:D *5915:A 0.000157455
4 *6443:D *5966:A2 0.000125724
5 *6443:D *5966:S1 6.42145e-05
6 *6443:D *6541:A 5.90443e-06
7 *6443:D *391:59 0.000139907
8 *6443:D *488:78 0.000174202
9 *6443:D *588:10 6.25807e-05
*RES
1 *6244:X *6443:D 34.7071 
*END

*D_NET *149 0.000626386
*CONN
*I *6444:D I *D sky130_fd_sc_hd__dfxtp_1
*I *6246:X O *D sky130_fd_sc_hd__clkbuf_1
*CAP
1 *6444:D 0.000128037
2 *6246:X 0.000128037
3 *6444:D *6241:S 1.24368e-05
4 *6444:D *6246:A 0.000152333
5 *6444:D *225:164 4.87669e-06
6 *6444:D *411:92 5.17614e-05
7 *6444:D *768:42 0.000148903
*RES
1 *6246:X *6444:D 30.658 
*END

*D_NET *150 0.000641906
*CONN
*I *6445:D I *D sky130_fd_sc_hd__dfxtp_1
*I *6248:X O *D sky130_fd_sc_hd__clkbuf_1
*CAP
1 *6445:D 0.000151736
2 *6248:X 0.000151736
3 *6445:D *5984:A0 0.000171906
4 *6445:D *6248:A 3.65178e-05
5 *6445:D *6445:CLK 0.00013001
*RES
1 *6248:X *6445:D 22.3009 
*END

*D_NET *151 0.000926557
*CONN
*I *6446:D I *D sky130_fd_sc_hd__dfxtp_1
*I *6250:X O *D sky130_fd_sc_hd__clkbuf_1
*CAP
1 *6446:D 0.000323172
2 *6250:X 0.000323172
3 *6446:D *5993:A0 4.87669e-06
4 *6446:D *6250:A 6.97494e-05
5 *6446:D *226:95 3.24836e-05
6 *6446:D *428:75 0.00015667
7 *6446:D *488:24 1.64343e-05
*RES
1 *6250:X *6446:D 32.7116 
*END

*D_NET *152 0.000835328
*CONN
*I *6467:D I *D sky130_fd_sc_hd__dfrtp_4
*I *6251:Y O *D sky130_fd_sc_hd__xnor2_1
*CAP
1 *6467:D 0.000238001
2 *6251:Y 0.000238001
3 *6467:D *5934:A 5.62995e-05
4 *6467:D *237:12 2.27304e-05
5 *6467:D *391:30 0.000163989
6 *6467:D *712:39 1.02504e-05
7 *6467:D *712:53 0.000106056
*RES
1 *6251:Y *6467:D 33.0286 
*END

*D_NET *153 0.000620163
*CONN
*I *6468:D I *D sky130_fd_sc_hd__dfrtp_1
*I *6256:X O *D sky130_fd_sc_hd__clkbuf_1
*CAP
1 *6468:D 0.000199855
2 *6256:X 0.000199855
3 *6468:D *5936:A 0
4 *6468:D *6470:CLK 5.80706e-06
5 *6468:D *226:14 5.71472e-05
6 *6468:D *230:263 5.33334e-05
7 *6468:D *680:24 1.40415e-05
8 *6468:D *712:53 9.01238e-05
*RES
1 *6256:X *6468:D 31.3321 
*END

*D_NET *154 0.000318638
*CONN
*I *6469:D I *D sky130_fd_sc_hd__dfrtp_2
*I *6257:Y O *D sky130_fd_sc_hd__xnor2_1
*CAP
1 *6469:D 0.000104634
2 *6257:Y 0.000104634
3 *6469:D *6469:RESET_B 0.000109371
*RES
1 *6257:Y *6469:D 20.9214 
*END

*D_NET *155 0.00108456
*CONN
*I *6470:D I *D sky130_fd_sc_hd__dfrtp_1
*I *6259:Y O *D sky130_fd_sc_hd__xnor2_1
*CAP
1 *6470:D 0.000542278
2 *6259:Y 0.000542278
3 *6470:D *6258:A 0
4 *6470:D *6259:B 0
5 *6470:D *713:8 0
*RES
1 *6259:Y *6470:D 36.475 
*END

*D_NET *156 0.000538405
*CONN
*I *6471:D I *D sky130_fd_sc_hd__dfrtp_1
*I *6262:X O *D sky130_fd_sc_hd__clkbuf_1
*CAP
1 *6471:D 0.000152495
2 *6262:X 0.000152495
3 *6471:D *6447:D 0.00014285
4 *6471:D *6471:RESET_B 4.57445e-05
5 *6471:D *712:14 4.48206e-05
*RES
1 *6262:X *6471:D 30.6 
*END

*D_NET *157 0.000500696
*CONN
*I *6472:D I *D sky130_fd_sc_hd__dfrtp_1
*I *6266:X O *D sky130_fd_sc_hd__clkbuf_1
*CAP
1 *6472:D 0.000250348
2 *6266:X 0.000250348
3 *6472:D *709:90 0
*RES
1 *6266:X *6472:D 31.0107 
*END

*D_NET *158 0.00044856
*CONN
*I *6473:D I *D sky130_fd_sc_hd__dfrtp_1
*I *6270:X O *D sky130_fd_sc_hd__clkbuf_1
*CAP
1 *6473:D 0.000174329
2 *6270:X 0.000174329
3 *6473:D *702:22 0
4 *6473:D *711:109 9.99014e-05
*RES
1 *6270:X *6473:D 31.0107 
*END

*D_NET *159 0.000501267
*CONN
*I *6474:D I *D sky130_fd_sc_hd__dfrtp_1
*I *6274:X O *D sky130_fd_sc_hd__clkbuf_1
*CAP
1 *6474:D 0.000233915
2 *6274:X 0.000233915
3 *6474:D *711:54 3.34366e-05
*RES
1 *6274:X *6474:D 30.7071 
*END

*D_NET *160 0.00133773
*CONN
*I *6475:D I *D sky130_fd_sc_hd__dfrtp_2
*I *6277:Y O *D sky130_fd_sc_hd__xnor2_1
*CAP
1 *6475:D 0.000540361
2 *6277:Y 0.000540361
3 *6475:D *5991:S 8.37235e-05
4 *6475:D *6475:CLK 1.3701e-05
5 *6475:D *6475:RESET_B 1.60158e-05
6 *6475:D *709:38 9.09013e-05
7 *6475:D *794:16 5.26625e-05
*RES
1 *6277:Y *6475:D 34.9393 
*END

*D_NET *161 0.0006808
*CONN
*I *6476:D I *D sky130_fd_sc_hd__dfrtp_1
*I *6278:X O *D sky130_fd_sc_hd__xor2_1
*CAP
1 *6476:D 0.000211407
2 *6278:X 0.000211407
3 *6476:D *6476:RESET_B 3.69697e-05
4 *6476:D *6478:RESET_B 4.02462e-05
5 *6476:D *182:14 0.00018077
6 *6476:D *460:8 0
*RES
1 *6278:X *6476:D 31.6179 
*END

*D_NET *162 0.000826518
*CONN
*I *6477:D I *D sky130_fd_sc_hd__dfrtp_4
*I *6280:X O *D sky130_fd_sc_hd__clkbuf_1
*CAP
1 *6477:D 0.000239655
2 *6280:X 0.000239655
3 *6477:D *5885:A 0.000273269
4 *6477:D *198:16 3.69697e-05
5 *6477:D *710:185 0
6 *6477:D *810:12 3.69697e-05
*RES
1 *6280:X *6477:D 31.5286 
*END

*D_NET *163 0.000648294
*CONN
*I *6478:D I *D sky130_fd_sc_hd__dfrtp_4
*I *6283:X O *D sky130_fd_sc_hd__clkbuf_1
*CAP
1 *6478:D 0.000229324
2 *6283:X 0.000229324
3 *6478:D *6283:A 5.33334e-05
4 *6478:D *6478:RESET_B 0
5 *6478:D *420:85 0.00010326
6 *6478:D *812:36 3.30526e-05
*RES
1 *6283:X *6478:D 31.1179 
*END

*D_NET *164 0.000507314
*CONN
*I *6479:D I *D sky130_fd_sc_hd__dfrtp_4
*I *6286:X O *D sky130_fd_sc_hd__clkbuf_1
*CAP
1 *6479:D 0.000225129
2 *6286:X 0.000225129
3 *6479:D *490:6 5.70551e-05
*RES
1 *6286:X *6479:D 31.0107 
*END

*D_NET *165 0.00102052
*CONN
*I *6480:D I *D sky130_fd_sc_hd__dfxtp_1
*I *6289:X O *D sky130_fd_sc_hd__clkbuf_1
*CAP
1 *6480:D 0.000190448
2 *6289:X 0.000190448
3 *6480:D *6004:A0 1.46717e-05
4 *6480:D *6004:A1 0.00017924
5 *6480:D *6289:A 4.15914e-05
6 *6480:D *6480:CLK 0.000404121
*RES
1 *6289:X *6480:D 33.1045 
*END

*D_NET *166 0.000948152
*CONN
*I *6481:D I *D sky130_fd_sc_hd__dfxtp_1
*I *6291:X O *D sky130_fd_sc_hd__clkbuf_1
*CAP
1 *6481:D 0.00028868
2 *6291:X 0.00028868
3 *6481:D *6290:A0 8.39e-05
4 *6481:D *6481:CLK 0.000228869
5 *6481:D *284:16 5.80217e-05
*RES
1 *6291:X *6481:D 33.4259 
*END

*D_NET *167 0.000202373
*CONN
*I *6482:D I *D sky130_fd_sc_hd__dfxtp_1
*I *6293:X O *D sky130_fd_sc_hd__clkbuf_1
*CAP
1 *6482:D 7.3996e-05
2 *6293:X 7.3996e-05
3 *6482:D *319:84 1.64343e-05
4 *6482:D *484:118 3.79467e-05
5 *6482:D *746:12 0
*RES
1 *6293:X *6482:D 29.1045 
*END

*D_NET *168 0.000204829
*CONN
*I *6483:D I *D sky130_fd_sc_hd__dfxtp_1
*I *6295:X O *D sky130_fd_sc_hd__clkbuf_1
*CAP
1 *6483:D 9.41971e-05
2 *6295:X 9.41971e-05
3 *6483:D *460:76 0
4 *6483:D *486:72 0
5 *6483:D *486:83 1.64343e-05
*RES
1 *6295:X *6483:D 29.1045 
*END

*D_NET *169 0.000823858
*CONN
*I *6484:D I *D sky130_fd_sc_hd__dfxtp_1
*I *6297:X O *D sky130_fd_sc_hd__clkbuf_1
*CAP
1 *6484:D 0.000317636
2 *6297:X 0.000317636
3 *6484:D *6484:CLK 0
4 *6484:D *319:59 0.000188586
*RES
1 *6297:X *6484:D 32.7116 
*END

*D_NET *170 0.000366005
*CONN
*I *6485:D I *D sky130_fd_sc_hd__dfxtp_1
*I *6299:X O *D sky130_fd_sc_hd__clkbuf_1
*CAP
1 *6485:D 0.000180564
2 *6299:X 0.000180564
3 *6485:D *6485:CLK 4.87669e-06
*RES
1 *6299:X *6485:D 30.2473 
*END

*D_NET *171 0.000751006
*CONN
*I *6486:D I *D sky130_fd_sc_hd__dfxtp_1
*I *6301:X O *D sky130_fd_sc_hd__clkbuf_1
*CAP
1 *6486:D 0.000186057
2 *6301:X 0.000186057
3 *6486:D *298:77 0
4 *6486:D *485:20 0.000275631
5 *6486:D *724:124 0.00010326
*RES
1 *6301:X *6486:D 31.5688 
*END

*D_NET *172 0.000189331
*CONN
*I *6487:D I *D sky130_fd_sc_hd__dfxtp_1
*I *6303:X O *D sky130_fd_sc_hd__clkbuf_1
*CAP
1 *6487:D 9.46657e-05
2 *6303:X 9.46657e-05
3 *6487:D *6303:A 0
4 *6487:D *6487:CLK 0
*RES
1 *6303:X *6487:D 29.1045 
*END

*D_NET *173 0.00105053
*CONN
*I *6488:D I *D sky130_fd_sc_hd__dfxtp_1
*I *6307:X O *D sky130_fd_sc_hd__clkbuf_1
*CAP
1 *6488:D 0.000182447
2 *6307:X 0.000182447
3 *6488:D *6306:A0 0.000188743
4 *6488:D *6307:A 0.000184683
5 *6488:D *616:10 0.000312215
*RES
1 *6307:X *6488:D 24.533 
*END

*D_NET *174 0.000777204
*CONN
*I *6489:D I *D sky130_fd_sc_hd__dfxtp_1
*I *6309:X O *D sky130_fd_sc_hd__clkbuf_1
*CAP
1 *6489:D 0.000241722
2 *6309:X 0.000241722
3 *6489:D *5943:A1 9.73735e-05
4 *6489:D *5943:A2 0.000139913
5 *6489:D *6489:CLK 5.6473e-05
*RES
1 *6309:X *6489:D 23.1759 
*END

*D_NET *175 0.000341808
*CONN
*I *6490:D I *D sky130_fd_sc_hd__dfxtp_1
*I *6311:X O *D sky130_fd_sc_hd__clkbuf_1
*CAP
1 *6490:D 8.20728e-05
2 *6311:X 8.20728e-05
3 *6490:D *6490:CLK 1.41706e-05
4 *6490:D *232:118 0.000150618
5 *6490:D *470:128 7.99677e-06
6 *6490:D *757:56 4.87669e-06
*RES
1 *6311:X *6490:D 29.7116 
*END

*D_NET *176 0.000686808
*CONN
*I *6491:D I *D sky130_fd_sc_hd__dfxtp_1
*I *6313:X O *D sky130_fd_sc_hd__clkbuf_1
*CAP
1 *6491:D 0.000200156
2 *6313:X 0.000200156
3 *6491:D *5962:A1 2.8266e-06
4 *6491:D *6083:A1 0.000171252
5 *6491:D *6405:CLK 1.52978e-05
6 *6491:D *6531:A 0
7 *6491:D *486:106 0
8 *6491:D *486:131 9.71197e-05
*RES
1 *6313:X *6491:D 31.6357 
*END

*D_NET *177 0.000923425
*CONN
*I *6492:D I *D sky130_fd_sc_hd__dfxtp_1
*I *6315:X O *D sky130_fd_sc_hd__clkbuf_1
*CAP
1 *6492:D 0.000221247
2 *6315:X 0.000221247
3 *6492:D *5970:A1 5.52238e-05
4 *6492:D *6105:A0 0.000175519
5 *6492:D *6315:A 4.15914e-05
6 *6492:D *6492:CLK 1.23272e-05
7 *6492:D *508:14 0.000196269
*RES
1 *6315:X *6492:D 33.408 
*END

*D_NET *178 0.000224828
*CONN
*I *6493:D I *D sky130_fd_sc_hd__dfxtp_1
*I *6317:X O *D sky130_fd_sc_hd__clkbuf_1
*CAP
1 *6493:D 6.00937e-05
2 *6317:X 6.00937e-05
3 *6493:D *5979:A1 1.64343e-05
4 *6493:D *5996:S0 3.32132e-06
5 *6493:D *6493:CLK 3.47737e-05
6 *6493:D *232:289 5.01117e-05
*RES
1 *6317:X *6493:D 29.1045 
*END

*D_NET *179 0.000850074
*CONN
*I *6494:D I *D sky130_fd_sc_hd__dfxtp_1
*I *6319:X O *D sky130_fd_sc_hd__clkbuf_1
*CAP
1 *6494:D 0.000177875
2 *6319:X 0.000177875
3 *6494:D *5988:A0 1.3142e-05
4 *6494:D *5989:A1 0.000102798
5 *6494:D *482:93 0.000378385
*RES
1 *6319:X *6494:D 32.408 
*END

*D_NET *180 0.000834678
*CONN
*I *6495:D I *D sky130_fd_sc_hd__dfxtp_1
*I *6321:X O *D sky130_fd_sc_hd__clkbuf_1
*CAP
1 *6495:D 0.000296706
2 *6321:X 0.000296706
3 *6495:D *5997:A3 0
4 *6495:D *6111:A0 5.52302e-05
5 *6495:D *6199:S 1.74352e-05
6 *6495:D *6320:A1 1.76204e-05
7 *6495:D *6495:CLK 0
8 *6495:D *658:30 3.4323e-05
9 *6409:D *6495:D 0.000116657
*RES
1 *6321:X *6495:D 33.0866 
*END

*D_NET *181 0.0014365
*CONN
*I *5875:A0 I *D sky130_fd_sc_hd__mux2_1
*I *5871:A I *D sky130_fd_sc_hd__xnor2_1
*I *5868:Y O *D sky130_fd_sc_hd__inv_2
*CAP
1 *5875:A0 0.000261684
2 *5871:A 0.000184015
3 *5868:Y 0.000145834
4 *181:6 0.000591533
5 *5871:A *5871:B 3.51442e-05
6 *5871:A *6229:S 7.58664e-05
7 *5871:A *188:8 6.75007e-05
8 *5871:A *420:51 7.49239e-05
9 *5871:A *708:12 0
10 *5875:A0 *5884:A 0
11 *5875:A0 *188:8 0
*RES
1 *5868:Y *181:6 11.4786 
2 *181:6 *5871:A 23.2821 
3 *181:6 *5875:A0 22.5321 
*END

*D_NET *182 0.0122322
*CONN
*I *6039:A I *D sky130_fd_sc_hd__and4_1
*I *6057:A_N I *D sky130_fd_sc_hd__and4b_1
*I *6075:D I *D sky130_fd_sc_hd__and4b_1
*I *5872:A I *D sky130_fd_sc_hd__and3_1
*I *6002:A_N I *D sky130_fd_sc_hd__and4b_1
*I *5870:A I *D sky130_fd_sc_hd__and4_1
*I *5878:A1 I *D sky130_fd_sc_hd__a21oi_2
*I *6185:C I *D sky130_fd_sc_hd__and4b_1
*I *6113:A I *D sky130_fd_sc_hd__or2_1
*I *5901:A I *D sky130_fd_sc_hd__nand2_1
*I *6093:A I *D sky130_fd_sc_hd__or2_1
*I *6278:A I *D sky130_fd_sc_hd__xor2_1
*I *5879:A I *D sky130_fd_sc_hd__xor2_1
*I *5869:X O *D sky130_fd_sc_hd__clkbuf_4
*CAP
1 *6039:A 2.89229e-05
2 *6057:A_N 0
3 *6075:D 2.49549e-05
4 *5872:A 2.03441e-05
5 *6002:A_N 0
6 *5870:A 0
7 *5878:A1 7.5119e-05
8 *6185:C 7.42732e-05
9 *6113:A 0
10 *5901:A 0.000194548
11 *6093:A 0
12 *6278:A 0
13 *5879:A 0.000298317
14 *5869:X 0.000183843
15 *182:142 4.34196e-05
16 *182:114 0.000138417
17 *182:104 0.000142362
18 *182:102 0.00027471
19 *182:91 0.000348492
20 *182:56 0.000363632
21 *182:46 0.000225177
22 *182:44 0.000318281
23 *182:42 0.000244653
24 *182:40 0.000223287
25 *182:14 0.000838951
26 *182:12 0.000855922
27 *5872:A *6002:B 5.7661e-06
28 *5872:A *6185:D 0
29 *5878:A1 *5870:B 0.000137735
30 *5878:A1 *5878:B1 5.52302e-05
31 *5878:A1 *6282:A1 5.36e-05
32 *5878:A1 *186:41 5.52238e-05
33 *5879:A *6222:A1 0.000399835
34 *5879:A *420:85 8.96812e-05
35 *5879:A *420:87 9.90431e-05
36 *5879:A *491:20 0.000186669
37 *5879:A *710:185 7.77751e-05
38 *5879:A *810:75 0
39 *5901:A *5901:B 0.00013213
40 *5901:A *6021:A 3.58638e-05
41 *5901:A *6021:B 0
42 *5901:A *6132:A 9.25014e-06
43 *5901:A *6186:C1 0
44 *5901:A *203:184 0.000175519
45 *5901:A *203:197 1.02504e-05
46 *5901:A *212:14 2.43785e-05
47 *5901:A *215:174 0.000219064
48 *5901:A *215:176 1.33343e-05
49 *5901:A *307:6 4.27935e-05
50 *6039:A *6039:D 5.33005e-05
51 *6075:D *6057:D 7.03295e-05
52 *6075:D *811:16 1.42868e-06
53 *6075:D *812:107 0.000116829
54 *6185:C *6185:D 6.71359e-05
55 *182:12 *298:18 0
56 *182:12 *319:12 6.75007e-05
57 *182:14 *710:185 0.000146513
58 *182:40 *211:23 0.000214335
59 *182:40 *211:25 9.25014e-06
60 *182:40 *298:18 0.000356417
61 *182:40 *319:12 0
62 *182:42 *211:25 0.000248493
63 *182:42 *298:18 0.000239243
64 *182:44 *6003:B1 4.06782e-05
65 *182:44 *211:25 4.56437e-05
66 *182:44 *211:31 0.000384995
67 *182:44 *298:18 0.000171375
68 *182:44 *401:12 2.41865e-05
69 *182:44 *401:79 0.000105682
70 *182:44 *810:81 0
71 *182:46 *190:192 0
72 *182:46 *211:31 7.83587e-05
73 *182:46 *401:12 0.000113038
74 *182:56 *5901:B 4.58976e-05
75 *182:56 *6020:A 0.000270298
76 *182:56 *6132:A 0
77 *182:56 *6132:B 0
78 *182:56 *190:192 0
79 *182:56 *211:31 6.20758e-05
80 *182:56 *307:6 0.000140933
81 *182:56 *360:25 0.00019437
82 *182:56 *401:12 5.7616e-05
83 *182:91 *6186:B1 2.22891e-05
84 *182:102 *5872:C 0.000121712
85 *182:102 *6003:B1 0.000111579
86 *182:102 *6185:B 5.52238e-05
87 *182:102 *6185:D 0.000219024
88 *182:102 *6186:B1 1.42392e-06
89 *182:102 *811:76 0.000265441
90 *182:104 *5870:C 0.000174232
91 *182:104 *6002:B 2.28598e-05
92 *182:104 *811:76 0.000116366
93 *182:104 *811:78 0.000239663
94 *182:104 *812:68 5.52238e-05
95 *182:114 *5870:B 4.86792e-05
96 *182:114 *5870:C 0.0001479
97 *182:114 *5878:B1 0.0001878
98 *182:114 *811:78 0.000128496
99 *182:142 *6057:D 2.59355e-05
100 *182:142 *812:107 4.08637e-05
101 *6476:D *182:14 0.00018077
*RES
1 *5869:X *182:12 21.7107 
2 *182:12 *182:14 9.98214 
3 *182:14 *5879:A 26.4607 
4 *182:14 *6278:A 9.3 
5 *182:12 *182:40 9.17857 
6 *182:40 *182:42 3.16071 
7 *182:42 *182:44 5.58929 
8 *182:44 *182:46 1.64286 
9 *182:46 *182:56 10.3214 
10 *182:56 *6093:A 9.3 
11 *182:56 *5901:A 24.1214 
12 *182:46 *6113:A 13.8 
13 *182:44 *182:91 5.74554 
14 *182:91 *6185:C 10.358 
15 *182:91 *182:102 5.89732 
16 *182:102 *182:104 3.41071 
17 *182:104 *182:114 3.51786 
18 *182:114 *5878:A1 11.4786 
19 *182:114 *5870:A 9.3 
20 *182:104 *6002:A_N 9.3 
21 *182:102 *5872:A 9.72857 
22 *182:42 *182:142 5.03571 
23 *182:142 *6075:D 10.5455 
24 *182:142 *6057:A_N 9.3 
25 *182:40 *6039:A 14.3357 
*END

*D_NET *183 0.0051437
*CONN
*I *5871:B I *D sky130_fd_sc_hd__xnor2_1
*I *6287:C1 I *D sky130_fd_sc_hd__o211a_4
*I *5870:X O *D sky130_fd_sc_hd__and4_1
*CAP
1 *5871:B 0.00133379
2 *6287:C1 0.000522441
3 *5870:X 0.000192612
4 *183:8 0.00204885
5 *5871:B *5882:A2 3.77662e-05
6 *5871:B *5882:B1_N 4.01768e-05
7 *5871:B *5887:B 6.57815e-05
8 *5871:B *420:51 0
9 *6287:C1 *6168:A1 1.56839e-05
10 *6287:C1 *6168:A2 9.7049e-06
11 *6287:C1 *6168:B1 0
12 *6287:C1 *6287:A1 0
13 *6287:C1 *200:10 0
14 *6287:C1 *279:24 0.000296407
15 *6287:C1 *420:27 0.000175519
16 *183:8 *199:10 0
17 *183:8 *200:10 0
18 *183:8 *420:27 0.000369818
19 *183:8 *479:61 0
20 *5871:A *5871:B 3.51442e-05
*RES
1 *5870:X *183:8 18.4786 
2 *183:8 *6287:C1 24.3179 
3 *183:8 *5871:B 40.2107 
*END

*D_NET *184 0.00110358
*CONN
*I *6668:A I *D sky130_fd_sc_hd__buf_1
*I *6231:A1 I *D sky130_fd_sc_hd__mux2_1
*I *5871:Y O *D sky130_fd_sc_hd__xnor2_1
*CAP
1 *6668:A 8.26488e-05
2 *6231:A1 0.000338508
3 *5871:Y 0
4 *184:4 0.000421157
5 *6231:A1 *6229:S 5.80706e-06
6 *6231:A1 *279:24 9.2822e-05
7 *6231:A1 *420:51 6.16744e-05
8 *6231:A1 *710:16 0
9 *6668:A *279:24 0.00010096
*RES
1 *5871:Y *184:4 9.3 
2 *184:4 *6231:A1 23.3536 
3 *184:4 *6668:A 11.2821 
*END

*D_NET *185 0.00196702
*CONN
*I *5873:A I *D sky130_fd_sc_hd__clkbuf_2
*I *5872:X O *D sky130_fd_sc_hd__and3_1
*CAP
1 *5873:A 0.000747236
2 *5872:X 0.000747236
3 *5873:A *186:10 1.07719e-05
4 *5873:A *460:8 0.000290264
5 *5873:A *811:20 0.000110601
6 *5873:A *811:26 2.74862e-05
7 *5873:A *811:32 3.34295e-05
*RES
1 *5872:X *5873:A 40.5286 
*END

*D_NET *186 0.00345976
*CONN
*I *6281:A I *D sky130_fd_sc_hd__nor2_1
*I *5874:B I *D sky130_fd_sc_hd__xnor2_1
*I *5880:A1 I *D sky130_fd_sc_hd__o21ai_1
*I *5881:A I *D sky130_fd_sc_hd__or3_1
*I *6168:D1 I *D sky130_fd_sc_hd__o2111a_4
*I *5873:X O *D sky130_fd_sc_hd__clkbuf_2
*CAP
1 *6281:A 1.79444e-05
2 *5874:B 0.000200607
3 *5880:A1 2.69161e-05
4 *5881:A 1.40568e-05
5 *6168:D1 0.000161285
6 *5873:X 0.000153764
7 *186:41 0.000258574
8 *186:23 4.09729e-05
9 *186:12 0.000267403
10 *186:10 0.000299904
11 *5874:B *5875:S 3.14193e-05
12 *5874:B *6281:B 3.32631e-05
13 *5874:B *6282:A1 9.71197e-05
14 *5874:B *6284:A 0.000188586
15 *5874:B *6667:A 0.000144773
16 *5880:A1 *5880:A2 4.27437e-05
17 *5880:A1 *5881:C 9.60939e-05
18 *5881:A *5880:A2 2.89016e-05
19 *5881:A *5881:C 5.52238e-05
20 *6168:D1 *5882:A2 0.000111805
21 *6168:D1 *5889:A1 7.83659e-05
22 *6168:D1 *5889:A2 0
23 *6168:D1 *479:61 0.000387446
24 *6281:A *5870:B 1.04232e-05
25 *6281:A *6281:B 5.7661e-06
26 *186:10 *479:61 0.000121573
27 *186:10 *810:18 3.6572e-05
28 *186:12 *5882:A2 2.16719e-05
29 *186:12 *191:19 2.05938e-05
30 *186:12 *193:18 0
31 *186:12 *479:61 0.000188967
32 *186:12 *810:18 1.19309e-05
33 *186:41 *5870:B 4.88637e-05
34 *186:41 *6281:B 8.43535e-06
35 *186:41 *6282:A1 0.000181796
36 *5873:A *186:10 1.07719e-05
37 *5878:A1 *186:41 5.52238e-05
*RES
1 *5873:X *186:10 16.3893 
2 *186:10 *186:12 2.55357 
3 *186:12 *6168:D1 18.7821 
4 *186:12 *186:23 4.5 
5 *186:23 *5881:A 9.83571 
6 *186:23 *5880:A1 10.2464 
7 *186:10 *186:41 6.26786 
8 *186:41 *5874:B 14.3536 
9 *186:41 *6281:A 9.72857 
*END

*D_NET *187 0.00195333
*CONN
*I *6667:A I *D sky130_fd_sc_hd__clkbuf_1
*I *5875:S I *D sky130_fd_sc_hd__mux2_1
*I *5874:Y O *D sky130_fd_sc_hd__xnor2_1
*CAP
1 *6667:A 8.50503e-05
2 *5875:S 0.000636296
3 *5874:Y 0
4 *187:4 0.000721347
5 *5875:S *5875:A1 5.7661e-06
6 *5875:S *5884:A 3.34366e-05
7 *5875:S *5884:B 5.81455e-05
8 *5875:S *708:12 0
9 *5875:S *712:29 0.0002371
10 *6667:A *6281:B 0
11 *5874:B *5875:S 3.14193e-05
12 *5874:B *6667:A 0.000144773
*RES
1 *5874:Y *187:4 9.3 
2 *187:4 *5875:S 30.8714 
3 *187:4 *6667:A 11.3893 
*END

*D_NET *188 0.00155284
*CONN
*I *5876:B I *D sky130_fd_sc_hd__xnor2_2
*I *6229:A1 I *D sky130_fd_sc_hd__mux2_1
*I *5875:X O *D sky130_fd_sc_hd__mux2_1
*CAP
1 *5876:B 0.000100229
2 *6229:A1 0.000327295
3 *5875:X 0.000206147
4 *188:8 0.000633672
5 *5876:B *5884:A 0.000144773
6 *6229:A1 *5876:A 0
7 *6229:A1 *6229:A0 7.32272e-05
8 *6229:A1 *6229:S 0
9 *188:8 *6229:S 0
10 *5871:A *188:8 6.75007e-05
11 *5875:A0 *188:8 0
*RES
1 *5875:X *188:8 17.8714 
2 *188:8 *6229:A1 18.3357 
3 *188:8 *5876:B 15.9786 
*END

*D_NET *189 0.00226621
*CONN
*I *6168:A1 I *D sky130_fd_sc_hd__o2111a_4
*I *5877:A I *D sky130_fd_sc_hd__buf_8
*I *5876:Y O *D sky130_fd_sc_hd__xnor2_2
*CAP
1 *6168:A1 0.000191319
2 *5877:A 5.31155e-05
3 *5876:Y 0.000534971
4 *189:10 0.000779406
5 *5877:A *6227:B1 3.32631e-05
6 *6168:A1 *6168:A2 5.6357e-06
7 *6168:A1 *6168:B1 0.000194286
8 *6168:A1 *279:24 3.76674e-05
9 *6168:A1 *420:27 0.000134726
10 *189:10 *6168:B1 0.00018917
11 *189:10 *6227:A1 8.91726e-05
12 *189:10 *420:27 7.79781e-06
13 *189:10 *479:61 0
14 *6287:C1 *6168:A1 1.56839e-05
*RES
1 *5876:Y *189:10 23.8714 
2 *189:10 *5877:A 14.7464 
3 *189:10 *6168:A1 19.6214 
*END

*D_NET *190 0.0164135
*CONN
*I *6227:A1 I *D sky130_fd_sc_hd__o211a_1
*I *6040:A1 I *D sky130_fd_sc_hd__o211a_4
*I *6003:A1 I *D sky130_fd_sc_hd__o211a_4
*I *6186:A1 I *D sky130_fd_sc_hd__o211a_4
*I *6287:A1 I *D sky130_fd_sc_hd__o211a_4
*I *5905:A1 I *D sky130_fd_sc_hd__o211a_4
*I *6058:A1 I *D sky130_fd_sc_hd__o211a_4
*I *6076:A1 I *D sky130_fd_sc_hd__o211a_4
*I *6022:A1 I *D sky130_fd_sc_hd__o211a_4
*I *6115:A1 I *D sky130_fd_sc_hd__o211a_4
*I *6133:A1 I *D sky130_fd_sc_hd__o211a_4
*I *6096:A1 I *D sky130_fd_sc_hd__o211a_4
*I *6151:A1 I *D sky130_fd_sc_hd__o211a_4
*I *6305:A1 I *D sky130_fd_sc_hd__o211a_4
*I *6234:A1 I *D sky130_fd_sc_hd__o211a_4
*I *6204:A1 I *D sky130_fd_sc_hd__o211a_4
*I *6221:A1 I *D sky130_fd_sc_hd__o21a_4
*I *5891:A I *D sky130_fd_sc_hd__nor2_1
*I *5877:X O *D sky130_fd_sc_hd__buf_8
*CAP
1 *6227:A1 0.000126138
2 *6040:A1 0.000119689
3 *6003:A1 4.58856e-05
4 *6186:A1 3.58414e-05
5 *6287:A1 0.000204198
6 *5905:A1 0.000107768
7 *6058:A1 0.00018936
8 *6076:A1 6.81546e-05
9 *6022:A1 0.000124515
10 *6115:A1 3.72704e-05
11 *6133:A1 0
12 *6096:A1 6.55947e-05
13 *6151:A1 0
14 *6305:A1 0.000123752
15 *6234:A1 0
16 *6204:A1 1.67212e-05
17 *6221:A1 2.14846e-05
18 *5891:A 0.000107864
19 *5877:X 0
20 *190:207 0.000300396
21 *190:192 0.000609321
22 *190:179 0.000753261
23 *190:166 0.000286685
24 *190:144 0.000393175
25 *190:131 0.000346381
26 *190:120 0.000316449
27 *190:109 0.000397216
28 *190:94 0.000322917
29 *190:76 0.000250058
30 *190:70 0.000348128
31 *190:59 0.000393378
32 *190:42 0.000421269
33 *190:34 0.000468807
34 *190:21 0.000508386
35 *190:8 0.000573397
36 *190:4 0.000325154
37 *5891:A *215:53 0
38 *5891:A *420:10 3.06406e-05
39 *5891:A *680:10 4.25523e-05
40 *5905:A1 *5903:A 5.56825e-05
41 *5905:A1 *6095:B 2.89016e-05
42 *5905:A1 *6151:B1 0
43 *5905:A1 *216:116 0.000110029
44 *6003:A1 *6003:A2 0.000126629
45 *6003:A1 *6076:B1 0.000117621
46 *6022:A1 *309:10 0.000152215
47 *6040:A1 *6003:A2 4.51641e-05
48 *6040:A1 *6040:A2 7.74896e-05
49 *6040:A1 *6040:C1 5.52238e-05
50 *6040:A1 *6076:B1 0.000404707
51 *6058:A1 *6058:A2 0.000226691
52 *6058:A1 *6058:C1 0
53 *6058:A1 *203:144 2.24646e-05
54 *6058:A1 *492:68 0
55 *6076:A1 *6076:A2 9.90367e-05
56 *6076:A1 *339:31 1.21258e-05
57 *6096:A1 *6096:A2 5.52302e-05
58 *6096:A1 *6305:B1 5.33005e-05
59 *6096:A1 *215:133 2.14658e-05
60 *6186:A1 *215:176 4.11274e-05
61 *6204:A1 *215:24 1.04232e-05
62 *6221:A1 *215:36 3.38228e-05
63 *6227:A1 *6168:B1 2.89114e-05
64 *6227:A1 *203:14 3.67548e-05
65 *6227:A1 *420:27 0.00012501
66 *6227:A1 *479:61 0
67 *6287:A1 *6233:B 8.07313e-05
68 *6287:A1 *6234:B1 5.52238e-05
69 *6287:A1 *213:29 5.5674e-05
70 *6305:A1 *6151:A2 6.19181e-05
71 *6305:A1 *6415:CLK 2.60064e-05
72 *6305:A1 *309:14 0
73 *190:8 *6227:B1 0.000135028
74 *190:8 *203:36 6.42095e-05
75 *190:8 *420:10 0.000140933
76 *190:21 *6221:B1 9.90367e-05
77 *190:21 *203:36 0.000139155
78 *190:21 *215:36 0.000100653
79 *190:21 *420:10 9.90431e-05
80 *190:34 *6234:C1 1.98839e-05
81 *190:34 *215:36 0.000201205
82 *190:42 *6204:B1 0.000158484
83 *190:42 *215:24 0.00013594
84 *190:42 *215:28 0.00010326
85 *190:59 *6111:S 0.000146474
86 *190:59 *6234:B1 4.1331e-06
87 *190:59 *203:54 0
88 *190:59 *203:75 9.71197e-05
89 *190:59 *203:175 0
90 *190:59 *215:24 7.32955e-05
91 *190:59 *428:16 0.000178847
92 *190:70 *6166:S 1.08359e-05
93 *190:70 *6305:B1 0.000241198
94 *190:70 *203:75 0.000360497
95 *190:70 *203:101 0.00017309
96 *190:70 *428:16 0.000337693
97 *190:70 *470:12 2.14658e-05
98 *190:76 *6151:A2 9.29355e-06
99 *190:76 *6151:B1 5.33005e-05
100 *190:76 *216:116 0.000353079
101 *190:76 *382:16 6.89612e-05
102 *190:94 *6305:B1 0.00012401
103 *190:94 *203:101 0.00013966
104 *190:94 *215:133 1.08359e-05
105 *190:109 *6133:A2 9.90431e-05
106 *190:109 *6415:CLK 0
107 *190:109 *203:101 2.31791e-05
108 *190:109 *203:112 0.000168939
109 *190:109 *203:129 3.34366e-05
110 *190:109 *215:133 1.52978e-05
111 *190:109 *372:16 4.88637e-05
112 *190:120 *6415:CLK 5.52302e-05
113 *190:120 *203:129 0
114 *190:120 *215:155 0
115 *190:120 *372:16 1.54142e-05
116 *190:120 *492:68 0
117 *190:131 *203:133 0.000129868
118 *190:131 *215:155 0
119 *190:131 *492:68 0
120 *190:144 *203:133 4.56437e-05
121 *190:144 *203:144 0.000198698
122 *190:144 *492:68 0
123 *190:166 *5905:C1 0.000175519
124 *190:166 *6204:B1 0.000222885
125 *190:166 *215:28 4.73656e-05
126 *190:179 *6204:B1 0.000149911
127 *190:179 *203:184 7.79781e-06
128 *190:179 *216:116 0
129 *190:179 *401:12 0
130 *190:192 *6233:B 0
131 *190:192 *203:184 0.000177375
132 *190:192 *211:31 0
133 *190:192 *279:18 3.92854e-05
134 *190:192 *401:12 0
135 *190:207 *6003:A2 0
136 *190:207 *6003:C1 9.91086e-05
137 *190:207 *6040:A2 3.99614e-06
138 *190:207 *6040:B1 5.80706e-06
139 *190:207 *6040:C1 0
140 *190:207 *203:184 2.8266e-06
141 *190:207 *203:197 4.66189e-05
142 *190:207 *211:31 0
143 *190:207 *319:12 1.02504e-05
144 *6287:C1 *6287:A1 0
145 *182:46 *190:192 0
146 *182:56 *190:192 0
147 *189:10 *6227:A1 8.91726e-05
*RES
1 *5877:X *190:4 9.3 
2 *190:4 *190:8 3.83929 
3 *190:8 *5891:A 20.55 
4 *190:8 *190:21 5.57589 
5 *190:21 *6221:A1 9.96518 
6 *190:21 *190:34 8.62054 
7 *190:34 *190:42 8.44643 
8 *190:42 *6204:A1 9.72857 
9 *190:42 *190:59 14.0714 
10 *190:59 *6234:A1 9.3 
11 *190:59 *190:70 11.0714 
12 *190:70 *190:76 8.33929 
13 *190:76 *6305:A1 20.8536 
14 *190:76 *6151:A1 9.3 
15 *190:70 *190:94 1.94643 
16 *190:94 *6096:A1 15.1571 
17 *190:94 *190:109 9.125 
18 *190:109 *6133:A1 9.3 
19 *190:109 *190:120 7.69643 
20 *190:120 *6115:A1 14.3357 
21 *190:120 *190:131 1.94643 
22 *190:131 *6022:A1 15.8893 
23 *190:131 *190:144 3.16071 
24 *190:144 *6076:A1 15.1571 
25 *190:144 *6058:A1 17.7107 
26 *190:34 *190:166 2.85714 
27 *190:166 *5905:A1 16.4071 
28 *190:166 *190:179 2.25 
29 *190:179 *6287:A1 17.6393 
30 *190:179 *190:192 7.71429 
31 *190:192 *6186:A1 14.5411 
32 *190:192 *190:207 7.48214 
33 *190:207 *6003:A1 11.4786 
34 *190:207 *6040:A1 13.9786 
35 *190:4 *6227:A1 21.3893 
*END

*D_NET *191 0.00226224
*CONN
*I *5880:A2 I *D sky130_fd_sc_hd__o21ai_1
*I *5881:B I *D sky130_fd_sc_hd__or3_1
*I *5887:B I *D sky130_fd_sc_hd__xnor2_1
*I *6281:B I *D sky130_fd_sc_hd__nor2_1
*I *5878:Y O *D sky130_fd_sc_hd__a21oi_2
*CAP
1 *5880:A2 0.000120849
2 *5881:B 6.17505e-05
3 *5887:B 0.000184742
4 *6281:B 0.000145965
5 *5878:Y 5.77576e-05
6 *191:34 0.000182599
7 *191:19 0.00025365
8 *191:6 0.000272631
9 *5880:A2 *5880:B1 2.54632e-05
10 *5880:A2 *5881:C 3.68485e-05
11 *5880:A2 *199:10 5.52302e-05
12 *5887:B *5882:A1 0.000104974
13 *5887:B *5882:A2 0.000156047
14 *5887:B *5882:B1_N 0
15 *6281:B *5870:B 2.21417e-05
16 *191:6 *5870:B 9.90431e-05
17 *191:19 *5882:A1 7.22594e-05
18 *191:19 *5882:A2 0.000103981
19 *191:19 *193:18 0.000100823
20 *5871:B *5887:B 6.57815e-05
21 *5874:B *6281:B 3.32631e-05
22 *5880:A1 *5880:A2 4.27437e-05
23 *5881:A *5880:A2 2.89016e-05
24 *6281:A *6281:B 5.7661e-06
25 *6667:A *6281:B 0
26 *186:12 *191:19 2.05938e-05
27 *186:41 *6281:B 8.43535e-06
*RES
1 *5878:Y *191:6 10.2464 
2 *191:6 *6281:B 11.3893 
3 *191:6 *191:19 6.75 
4 *191:19 *5887:B 17.6393 
5 *191:19 *191:34 4.5 
6 *191:34 *5881:B 10.2643 
7 *191:34 *5880:A2 11.8893 
*END

*D_NET *192 0.00339912
*CONN
*I *6279:A1 I *D sky130_fd_sc_hd__mux2_1
*I *5880:B1 I *D sky130_fd_sc_hd__o21ai_1
*I *5881:C I *D sky130_fd_sc_hd__or3_1
*I *5879:X O *D sky130_fd_sc_hd__xor2_1
*CAP
1 *6279:A1 0.000159372
2 *5880:B1 6.3356e-05
3 *5881:C 9.70765e-05
4 *5879:X 0
5 *192:12 0.000673189
6 *192:6 0.000672129
7 *5880:B1 *193:16 4.82048e-05
8 *5880:B1 *199:10 4.88637e-05
9 *5881:C *5883:B 2.44266e-05
10 *5881:C *194:6 0.000125547
11 *5881:C *194:10 3.20041e-05
12 *6279:A1 *6222:S 3.48705e-05
13 *6279:A1 *420:87 9.90367e-05
14 *6279:A1 *491:20 0.000195547
15 *6279:A1 *710:185 5.33334e-05
16 *6279:A1 *810:14 0
17 *192:12 *6282:A0 0
18 *192:12 *6283:A 0.00017715
19 *192:12 *193:16 0.000195555
20 *192:12 *420:31 0
21 *192:12 *479:61 0.000475583
22 *192:12 *491:12 0
23 *192:12 *491:20 1.02504e-05
24 *192:12 *810:14 0
25 *192:12 *810:18 0
26 *5880:A1 *5881:C 9.60939e-05
27 *5880:A2 *5880:B1 2.54632e-05
28 *5880:A2 *5881:C 3.68485e-05
29 *5881:A *5881:C 5.52238e-05
*RES
1 *5879:X *192:6 13.8 
2 *192:6 *192:12 16.5893 
3 *192:12 *5881:C 12.175 
4 *192:12 *5880:B1 11.5143 
5 *192:6 *6279:A1 18.1214 
*END

*D_NET *193 0.00304231
*CONN
*I *6224:A I *D sky130_fd_sc_hd__nand2_1
*I *5883:B I *D sky130_fd_sc_hd__nand3b_1
*I *5882:A1 I *D sky130_fd_sc_hd__a21bo_1
*I *5880:Y O *D sky130_fd_sc_hd__o21ai_1
*CAP
1 *6224:A 4.30497e-05
2 *5883:B 9.44787e-05
3 *5882:A1 7.78854e-05
4 *5880:Y 0.000416829
5 *193:18 0.00028599
6 *193:16 0.000573504
7 *5882:A1 *5882:A2 2.82057e-05
8 *5882:A1 *5889:A2 6.97972e-05
9 *5882:A1 *6224:B 4.46186e-06
10 *5882:A1 *198:16 3.19109e-05
11 *5883:B *5883:C 9.80173e-05
12 *5883:B *194:10 5.16637e-05
13 *6224:A *6224:B 7.80929e-05
14 *6224:A *810:18 0.000153047
15 *193:16 *5870:D 0
16 *193:16 *6282:A1 0.000304387
17 *193:16 *420:27 0
18 *193:18 *6224:B 0.000106383
19 *193:18 *810:18 7.83587e-05
20 *5880:B1 *193:16 4.82048e-05
21 *5881:C *5883:B 2.44266e-05
22 *5887:B *5882:A1 0.000104974
23 *186:12 *193:18 0
24 *191:19 *5882:A1 7.22594e-05
25 *191:19 *193:18 0.000100823
26 *192:12 *193:16 0.000195555
*RES
1 *5880:Y *193:16 29.3 
2 *193:16 *193:18 2.85714 
3 *193:18 *5882:A1 16.6571 
4 *193:18 *5883:B 15.9964 
5 *193:16 *6224:A 15.7464 
*END

*D_NET *194 0.002627
*CONN
*I *5882:A2 I *D sky130_fd_sc_hd__a21bo_1
*I *6224:B I *D sky130_fd_sc_hd__nand2_1
*I *5883:C I *D sky130_fd_sc_hd__nand3b_1
*I *5881:X O *D sky130_fd_sc_hd__or3_1
*CAP
1 *5882:A2 0.000140009
2 *6224:B 0.000151056
3 *5883:C 9.38423e-05
4 *5881:X 0.000101773
5 *194:10 0.000408982
6 *194:6 0.000405865
7 *5882:A2 *5889:A2 0
8 *6224:B *198:16 0.000369825
9 *5871:B *5882:A2 3.77662e-05
10 *5881:C *194:6 0.000125547
11 *5881:C *194:10 3.20041e-05
12 *5882:A1 *5882:A2 2.82057e-05
13 *5882:A1 *6224:B 4.46186e-06
14 *5883:B *5883:C 9.80173e-05
15 *5883:B *194:10 5.16637e-05
16 *5887:B *5882:A2 0.000156047
17 *6168:D1 *5882:A2 0.000111805
18 *6224:A *6224:B 7.80929e-05
19 *186:12 *5882:A2 2.16719e-05
20 *191:19 *5882:A2 0.000103981
21 *193:18 *6224:B 0.000106383
*RES
1 *5881:X *194:6 10.6571 
2 *194:6 *194:10 2.19643 
3 *194:10 *5883:C 11.0857 
4 *194:10 *6224:B 22.9786 
5 *194:6 *5882:A2 22.3 
*END

*D_NET *195 0.000314589
*CONN
*I *5889:A1 I *D sky130_fd_sc_hd__a2111o_1
*I *5882:X O *D sky130_fd_sc_hd__a21bo_1
*CAP
1 *5889:A1 8.95378e-05
2 *5882:X 8.95378e-05
3 *5889:A1 *5889:A2 0
4 *5889:A1 *279:24 5.71472e-05
5 *6168:D1 *5889:A1 7.83659e-05
*RES
1 *5882:X *5889:A1 29.1714 
*END

*D_NET *196 0.00111735
*CONN
*I *5889:A2 I *D sky130_fd_sc_hd__a2111o_1
*I *5883:Y O *D sky130_fd_sc_hd__nand3b_1
*CAP
1 *5889:A2 0.000171442
2 *5883:Y 0.000171442
3 *5889:A2 *198:16 0.000376463
4 *5889:A2 *202:6 9.77274e-05
5 *5889:A2 *279:24 0.000230482
6 *5882:A1 *5889:A2 6.97972e-05
7 *5882:A2 *5889:A2 0
8 *5889:A1 *5889:A2 0
9 *6168:D1 *5889:A2 0
*RES
1 *5883:Y *5889:A2 33.85 
*END

*D_NET *197 0.000676641
*CONN
*I *5889:B1 I *D sky130_fd_sc_hd__a2111o_1
*I *5884:Y O *D sky130_fd_sc_hd__xnor2_1
*CAP
1 *5889:B1 0.000318678
2 *5884:Y 0.000318678
3 *5889:B1 *5889:D1 3.92854e-05
4 *5889:B1 *479:61 0
*RES
1 *5884:Y *5889:B1 31.6357 
*END

*D_NET *198 0.00348417
*CONN
*I *5889:C1 I *D sky130_fd_sc_hd__a2111o_1
*I *5885:Y O *D sky130_fd_sc_hd__xnor2_1
*CAP
1 *5889:C1 0
2 *5885:Y 0.00117249
3 *198:16 0.00117249
4 *198:16 *5874:A 0
5 *198:16 *5882:B1_N 5.5782e-05
6 *198:16 *5885:A 0
7 *198:16 *6285:A1 0
8 *198:16 *6477:RESET_B 0.00014285
9 *198:16 *202:6 0.00010096
10 *198:16 *279:24 2.44318e-05
11 *198:16 *420:47 0
12 *198:16 *712:29 0
13 *198:16 *810:14 0
14 *198:16 *810:18 0
15 *198:16 *812:10 0
16 *5882:A1 *198:16 3.19109e-05
17 *5889:A2 *198:16 0.000376463
18 *6224:B *198:16 0.000369825
19 *6477:D *198:16 3.69697e-05
*RES
1 *5885:Y *198:16 42.1036 
2 *198:16 *5889:C1 9.3 
*END

*D_NET *199 0.00435898
*CONN
*I *6185:D I *D sky130_fd_sc_hd__and4b_1
*I *6094:A I *D sky130_fd_sc_hd__or2_1
*I *5902:A I *D sky130_fd_sc_hd__nand2_1
*I *5887:A I *D sky130_fd_sc_hd__xnor2_1
*I *6168:C1 I *D sky130_fd_sc_hd__o2111a_4
*I *5886:Y O *D sky130_fd_sc_hd__inv_2
*CAP
1 *6185:D 0.000242717
2 *6094:A 7.98756e-05
3 *5902:A 0
4 *5887:A 0
5 *6168:C1 6.5921e-05
6 *5886:Y 0
7 *199:40 0.000437992
8 *199:28 0.000600834
9 *199:10 0.000892559
10 *199:4 0.000826638
11 *6094:A *6094:B 5.52238e-05
12 *6168:C1 *200:10 6.17321e-05
13 *6168:C1 *479:61 0.000174812
14 *6185:D *6113:B 0
15 *6185:D *460:8 4.19671e-05
16 *6185:D *811:32 7.83659e-05
17 *6185:D *811:38 0
18 *199:10 *6020:A 1.39726e-05
19 *199:10 *200:10 3.42457e-05
20 *199:10 *479:61 0.00014209
21 *199:10 *812:46 0.00013949
22 *199:40 *6094:B 5.46298e-05
23 *199:40 *460:8 2.56601e-05
24 *5872:A *6185:D 0
25 *5880:A2 *199:10 5.52302e-05
26 *5880:B1 *199:10 4.88637e-05
27 *6185:C *6185:D 6.71359e-05
28 *182:102 *6185:D 0.000219024
29 *183:8 *199:10 0
*RES
1 *5886:Y *199:4 9.3 
2 *199:4 *199:10 16.0179 
3 *199:10 *6168:C1 16.05 
4 *199:10 *5887:A 13.8 
5 *199:4 *199:28 4.5 
6 *199:28 *199:40 10.2321 
7 *199:40 *5902:A 9.3 
8 *199:40 *6094:A 10.6571 
9 *199:28 *6185:D 19.1973 
*END

*D_NET *200 0.00318692
*CONN
*I *6227:B1 I *D sky130_fd_sc_hd__o211a_1
*I *5888:B I *D sky130_fd_sc_hd__xnor2_1
*I *5887:Y O *D sky130_fd_sc_hd__xnor2_1
*CAP
1 *6227:B1 0.000338389
2 *5888:B 0.000325539
3 *5887:Y 0.000359873
4 *200:10 0.0010238
5 *5888:B *5889:D1 5.76121e-05
6 *6227:B1 *203:14 0.000148182
7 *6227:B1 *391:8 0.000148182
8 *200:10 *5890:A 5.33882e-05
9 *200:10 *6168:B1 0.000467686
10 *200:10 *479:61 0
11 *5877:A *6227:B1 3.32631e-05
12 *6168:C1 *200:10 6.17321e-05
13 *6287:C1 *200:10 0
14 *183:8 *200:10 0
15 *190:8 *6227:B1 0.000135028
16 *199:10 *200:10 3.42457e-05
*RES
1 *5887:Y *200:10 27.2286 
2 *200:10 *5888:B 14.3893 
3 *200:10 *6227:B1 23.6571 
*END

*D_NET *201 0.000737702
*CONN
*I *5889:D1 I *D sky130_fd_sc_hd__a2111o_1
*I *5888:Y O *D sky130_fd_sc_hd__xnor2_1
*CAP
1 *5889:D1 0.000320402
2 *5888:Y 0.000320402
3 *5889:D1 *479:61 0
4 *5889:D1 *712:29 0
5 *5888:B *5889:D1 5.76121e-05
6 *5889:B1 *5889:D1 3.92854e-05
*RES
1 *5888:Y *5889:D1 32.8321 
*END

*D_NET *202 0.00146248
*CONN
*I *6168:A2 I *D sky130_fd_sc_hd__o2111a_4
*I *5890:A I *D sky130_fd_sc_hd__buf_8
*I *5889:X O *D sky130_fd_sc_hd__a2111o_1
*CAP
1 *6168:A2 0.000119205
2 *5890:A 0.000103464
3 *5889:X 0.000261062
4 *202:6 0.00048373
5 *5890:A *479:61 5.33882e-05
6 *6168:A2 *6168:B1 4.87854e-05
7 *6168:A2 *279:24 2.95841e-05
8 *202:6 *279:24 9.58508e-05
9 *5889:A2 *202:6 9.77274e-05
10 *6168:A1 *6168:A2 5.6357e-06
11 *6287:C1 *6168:A2 9.7049e-06
12 *198:16 *202:6 0.00010096
13 *200:10 *5890:A 5.33882e-05
*RES
1 *5889:X *202:6 14.3536 
2 *202:6 *5890:A 20.675 
3 *202:6 *6168:A2 11.4964 
*END

*D_NET *203 0.0169777
*CONN
*I *6221:A2 I *D sky130_fd_sc_hd__o21a_4
*I *6287:A2 I *D sky130_fd_sc_hd__o211a_4
*I *6204:A2 I *D sky130_fd_sc_hd__o211a_4
*I *6040:A2 I *D sky130_fd_sc_hd__o211a_4
*I *6003:A2 I *D sky130_fd_sc_hd__o211a_4
*I *6186:A2 I *D sky130_fd_sc_hd__o211a_4
*I *5905:A2 I *D sky130_fd_sc_hd__o211a_4
*I *6115:A2 I *D sky130_fd_sc_hd__o211a_4
*I *6058:A2 I *D sky130_fd_sc_hd__o211a_4
*I *6076:A2 I *D sky130_fd_sc_hd__o211a_4
*I *6022:A2 I *D sky130_fd_sc_hd__o211a_4
*I *6133:A2 I *D sky130_fd_sc_hd__o211a_4
*I *6096:A2 I *D sky130_fd_sc_hd__o211a_4
*I *6151:A2 I *D sky130_fd_sc_hd__o211a_4
*I *6305:A2 I *D sky130_fd_sc_hd__o211a_4
*I *6234:A2 I *D sky130_fd_sc_hd__o211a_4
*I *6227:A2 I *D sky130_fd_sc_hd__o211a_1
*I *5891:B I *D sky130_fd_sc_hd__nor2_1
*I *5890:X O *D sky130_fd_sc_hd__buf_8
*CAP
1 *6221:A2 0
2 *6287:A2 0.000252208
3 *6204:A2 0
4 *6040:A2 0.000116136
5 *6003:A2 0.000188336
6 *6186:A2 0
7 *5905:A2 0
8 *6115:A2 0
9 *6058:A2 0.000212082
10 *6076:A2 4.98643e-05
11 *6022:A2 3.28144e-05
12 *6133:A2 3.88481e-05
13 *6096:A2 2.72788e-05
14 *6151:A2 6.65796e-05
15 *6305:A2 3.00142e-05
16 *6234:A2 0
17 *6227:A2 0
18 *5891:B 0.000152726
19 *5890:X 9.44093e-05
20 *203:197 0.000407801
21 *203:184 0.00043564
22 *203:175 0.000432431
23 *203:144 0.000389254
24 *203:133 0.000264027
25 *203:129 0.000433587
26 *203:112 0.000436087
27 *203:101 0.000234666
28 *203:79 0.000327349
29 *203:75 0.000539476
30 *203:64 0.00042139
31 *203:54 0.000459492
32 *203:50 0.000644752
33 *203:38 0.00079009
34 *203:36 0.000310501
35 *203:14 0.000240302
36 *203:10 0.000492487
37 *5891:B *6168:B1 4.51495e-05
38 *5891:B *6227:C1 1.25789e-05
39 *5891:B *215:53 4.34249e-05
40 *6003:A2 *6003:C1 0.000269422
41 *6003:A2 *6076:B1 1.82657e-05
42 *6003:A2 *298:18 3.99614e-06
43 *6022:A2 *309:10 9.60939e-05
44 *6022:A2 *401:79 3.14163e-05
45 *6040:A2 *6040:C1 5.52238e-05
46 *6040:A2 *339:8 0
47 *6058:A2 *6058:C1 0
48 *6076:A2 *339:31 0.000102197
49 *6096:A2 *6305:B1 1.98839e-05
50 *6096:A2 *215:133 9.60939e-05
51 *6133:A2 *372:16 0.000139907
52 *6151:A2 *6415:CLK 0.000125724
53 *6151:A2 *382:16 9.29355e-06
54 *6287:A2 *5903:B 0
55 *6287:A2 *6287:B1 0.000362997
56 *6287:A2 *279:24 6.99716e-05
57 *6287:A2 *401:12 0
58 *6287:A2 *460:8 0
59 *6305:A2 *470:12 3.57366e-05
60 *203:10 *391:8 7.92975e-05
61 *203:10 *420:27 0.000142797
62 *203:14 *391:8 3.57844e-05
63 *203:14 *420:27 0.000148189
64 *203:36 *6221:B1 9.90367e-05
65 *203:36 *215:36 5.33005e-05
66 *203:36 *420:10 0.000230482
67 *203:50 *6287:B1 3.17148e-05
68 *203:50 *215:24 0.000186556
69 *203:50 *215:53 0.000197984
70 *203:50 *401:12 0
71 *203:50 *411:10 9.90431e-05
72 *203:54 *6111:S 0
73 *203:54 *428:52 0.000148196
74 *203:64 *6111:S 7.83659e-05
75 *203:64 *292:12 3.69697e-05
76 *203:64 *428:16 0.000310286
77 *203:75 *6166:S 5.59013e-05
78 *203:75 *470:12 0.000181796
79 *203:79 *470:12 0.000279124
80 *203:101 *6091:S 0
81 *203:101 *6096:B1 6.63569e-05
82 *203:101 *6166:S 9.0573e-05
83 *203:112 *6091:S 0
84 *203:112 *215:146 0.000148196
85 *203:112 *215:155 1.02504e-05
86 *203:129 *6115:B1 5.52302e-05
87 *203:129 *6115:C1 1.74352e-05
88 *203:129 *215:155 0.000144512
89 *203:133 *215:166 0
90 *203:144 *6058:C1 0
91 *203:144 *215:170 0
92 *203:144 *215:213 0
93 *203:175 *6095:B 1.02504e-05
94 *203:175 *6204:B1 9.97744e-05
95 *203:175 *6234:B1 9.97744e-05
96 *203:175 *428:52 4.73656e-05
97 *203:184 *6095:B 0.00022217
98 *203:184 *6132:A 3.13225e-05
99 *203:184 *6204:B1 7.15687e-05
100 *203:184 *279:18 7.6644e-05
101 *203:184 *348:10 8.89289e-05
102 *203:184 *349:10 0.000137931
103 *203:197 *6040:C1 0.000100831
104 *203:197 *292:12 0
105 *5901:A *203:184 0.000175519
106 *5901:A *203:197 1.02504e-05
107 *6003:A1 *6003:A2 0.000126629
108 *6040:A1 *6003:A2 4.51641e-05
109 *6040:A1 *6040:A2 7.74896e-05
110 *6058:A1 *6058:A2 0.000226691
111 *6058:A1 *203:144 2.24646e-05
112 *6076:A1 *6076:A2 9.90367e-05
113 *6096:A1 *6096:A2 5.52302e-05
114 *6227:A1 *203:14 3.67548e-05
115 *6227:B1 *203:14 0.000148182
116 *6305:A1 *6151:A2 6.19181e-05
117 *190:8 *203:36 6.42095e-05
118 *190:21 *203:36 0.000139155
119 *190:59 *203:54 0
120 *190:59 *203:75 9.71197e-05
121 *190:59 *203:175 0
122 *190:70 *203:75 0.000360497
123 *190:70 *203:101 0.00017309
124 *190:76 *6151:A2 9.29355e-06
125 *190:94 *203:101 0.00013966
126 *190:109 *6133:A2 9.90431e-05
127 *190:109 *203:101 2.31791e-05
128 *190:109 *203:112 0.000168939
129 *190:109 *203:129 3.34366e-05
130 *190:120 *203:129 0
131 *190:131 *203:133 0.000129868
132 *190:144 *203:133 4.56437e-05
133 *190:144 *203:144 0.000198698
134 *190:179 *203:184 7.79781e-06
135 *190:192 *203:184 0.000177375
136 *190:207 *6003:A2 0
137 *190:207 *6040:A2 3.99614e-06
138 *190:207 *203:184 2.8266e-06
139 *190:207 *203:197 4.66189e-05
*RES
1 *5890:X *203:10 16.2821 
2 *203:10 *203:14 7.35714 
3 *203:14 *5891:B 12.2732 
4 *203:14 *6227:A2 9.3 
5 *203:10 *203:36 11.6071 
6 *203:36 *203:38 4.5 
7 *203:38 *203:50 14.625 
8 *203:50 *203:54 6.44643 
9 *203:54 *203:64 17.5357 
10 *203:64 *6234:A2 9.3 
11 *203:64 *203:75 9.05357 
12 *203:75 *203:79 7.5 
13 *203:79 *6305:A2 10.0321 
14 *203:79 *6151:A2 20.1348 
15 *203:75 *203:101 4.375 
16 *203:101 *6096:A2 14.7464 
17 *203:101 *203:112 2.25 
18 *203:112 *6133:A2 15.1571 
19 *203:112 *203:129 10.0714 
20 *203:129 *203:133 6.75 
21 *203:133 *6022:A2 14.7464 
22 *203:133 *203:144 2.85714 
23 *203:144 *6076:A2 15.5679 
24 *203:144 *6058:A2 18.0679 
25 *203:129 *6115:A2 9.3 
26 *203:54 *203:175 3.16071 
27 *203:175 *5905:A2 13.8 
28 *203:175 *203:184 9.83929 
29 *203:184 *6186:A2 13.8 
30 *203:184 *203:197 6.875 
31 *203:197 *6003:A2 14.2643 
32 *203:197 *6040:A2 11.925 
33 *203:50 *6204:A2 9.3 
34 *203:38 *6287:A2 19.7286 
35 *203:36 *6221:A2 9.3 
*END

*D_NET *204 0.00153052
*CONN
*I *5898:A I *D sky130_fd_sc_hd__or3_4
*I *5892:X O *D sky130_fd_sc_hd__xor2_1
*CAP
1 *5898:A 0.000606358
2 *5892:X 0.000606358
3 *5898:A *5892:A 0.000141131
4 *5898:A *5892:B 0
5 *5898:A *5898:B 3.77053e-05
6 *5898:A *6460:CLK 6.10501e-05
7 *5898:A *6460:D 1.04232e-05
8 *5898:A *210:8 0
9 *5898:A *239:54 1.41029e-05
10 *5898:A *702:22 5.33882e-05
*RES
1 *5892:X *5898:A 37.9214 
*END

*D_NET *205 0.000789922
*CONN
*I *5898:B I *D sky130_fd_sc_hd__or3_4
*I *5893:X O *D sky130_fd_sc_hd__xor2_1
*CAP
1 *5898:B 0.000302124
2 *5893:X 0.000302124
3 *5898:B *6465:CLK 9.31209e-05
4 *5898:B *210:8 1.32552e-05
5 *5898:B *226:51 4.15914e-05
6 *5898:B *710:36 0
7 *5898:A *5898:B 3.77053e-05
*RES
1 *5893:X *5898:B 32.8857 
*END

*D_NET *206 0.00112604
*CONN
*I *5897:A I *D sky130_fd_sc_hd__or3_1
*I *5894:X O *D sky130_fd_sc_hd__xor2_1
*CAP
1 *5897:A 0.000351228
2 *5894:X 0.000351228
3 *5897:A *6261:S 0.000346944
4 *5897:A *6265:A1 0
5 *5897:A *490:35 7.6644e-05
*RES
1 *5894:X *5897:A 34.8857 
*END

*D_NET *207 0.00180576
*CONN
*I *5897:B I *D sky130_fd_sc_hd__or3_1
*I *5895:X O *D sky130_fd_sc_hd__xor2_1
*CAP
1 *5897:B 0.000564363
2 *5895:X 0.000564363
3 *5897:B *6265:A0 8.25843e-06
4 *5897:B *6265:A1 0
5 *5897:B *6472:RESET_B 0
6 *5897:B *208:14 3.69047e-06
7 *5897:B *445:14 0.000122173
8 *5897:B *490:35 0.000437934
9 *6438:D *5897:B 0.000104974
*RES
1 *5895:X *5897:B 39.3321 
*END

*D_NET *208 0.00382728
*CONN
*I *5897:C I *D sky130_fd_sc_hd__or3_1
*I *5896:X O *D sky130_fd_sc_hd__xor2_1
*CAP
1 *5897:C 0
2 *5896:X 0.00144389
3 *208:14 0.00144389
4 *208:14 *5896:B 0.000185964
5 *208:14 *6261:S 1.98839e-05
6 *208:14 *6265:A0 5.33005e-05
7 *208:14 *6479:CLK 0.000576938
8 *5897:B *208:14 3.69047e-06
9 *6435:D *208:14 9.97164e-05
*RES
1 *5896:X *208:14 44.5679 
2 *208:14 *5897:C 9.3 
*END

*D_NET *209 0.00268601
*CONN
*I *5898:C I *D sky130_fd_sc_hd__or3_4
*I *5897:X O *D sky130_fd_sc_hd__or3_1
*CAP
1 *5898:C 0.00113577
2 *5897:X 0.00113577
3 *5898:C *6437:CLK 2.39427e-05
4 *5898:C *6566:A 0.000125593
5 *5898:C *445:14 3.4846e-06
6 *5898:C *487:71 6.98215e-05
7 *5898:C *490:50 0.000191625
*RES
1 *5897:X *5898:C 48.5643 
*END

*D_NET *210 0.00491531
*CONN
*I *5899:A I *D sky130_fd_sc_hd__inv_2
*I *5936:B I *D sky130_fd_sc_hd__nand2_8
*I *6254:A3 I *D sky130_fd_sc_hd__a31o_1
*I *5898:X O *D sky130_fd_sc_hd__or3_4
*CAP
1 *5899:A 0.000412297
2 *5936:B 0
3 *6254:A3 0.000144023
4 *5898:X 0.000697609
5 *210:12 0.000950845
6 *210:8 0.00191673
7 *5899:A *5876:A 5.23142e-05
8 *5899:A *6449:RESET_B 3.67257e-05
9 *6254:A3 *5936:A 0
10 *6254:A3 *6255:B 9.44259e-05
11 *6254:A3 *225:247 5.71472e-05
12 *6254:A3 *711:115 5.52302e-05
13 *210:8 *6465:CLK 2.89114e-05
14 *210:8 *6465:D 4.03902e-05
15 *210:12 *5936:A 0
16 *210:12 *6255:B 8.56716e-05
17 *210:12 *6256:A 2.79092e-05
18 *210:12 *6454:CLK 0
19 *210:12 *6599:A 9.32873e-05
20 *210:12 *438:10 7.79781e-06
21 *210:12 *709:177 5.01213e-05
22 *210:12 *709:211 0
23 *210:12 *711:135 0
24 *210:12 *825:16 0.000150618
25 *5898:A *210:8 0
26 *5898:B *210:8 1.32552e-05
*RES
1 *5898:X *210:8 17.6571 
2 *210:8 *210:12 20.7143 
3 *210:12 *6254:A3 16.8893 
4 *210:12 *5936:B 13.8 
5 *210:8 *5899:A 14.675 
*END

*D_NET *211 0.00941707
*CONN
*I *6039:B I *D sky130_fd_sc_hd__and4_1
*I *6057:B I *D sky130_fd_sc_hd__and4b_1
*I *5901:B I *D sky130_fd_sc_hd__nand2_1
*I *6093:B I *D sky130_fd_sc_hd__or2_1
*I *6222:A1 I *D sky130_fd_sc_hd__mux2_1
*I *5900:Y O *D sky130_fd_sc_hd__inv_2
*CAP
1 *6039:B 0
2 *6057:B 3.92213e-05
3 *5901:B 0.000256478
4 *6093:B 2.23854e-05
5 *6222:A1 0.00212061
6 *5900:Y 0
7 *211:31 0.000782299
8 *211:25 0.000664934
9 *211:23 0.000365155
10 *211:4 0.00236349
11 *5901:B *6021:A 1.97695e-05
12 *5901:B *6132:A 5.71472e-05
13 *5901:B *212:14 8.44175e-05
14 *5901:B *307:6 1.02821e-05
15 *6057:B *812:107 5.52302e-05
16 *6093:B *6132:A 0
17 *6222:A1 *5900:A 5.33433e-05
18 *6222:A1 *6447:D 0.0001399
19 *6222:A1 *6479:RESET_B 6.74911e-05
20 *6222:A1 *491:20 2.14658e-05
21 *6222:A1 *710:10 0
22 *6222:A1 *810:75 0.000334473
23 *211:23 *319:12 0
24 *211:25 *6039:C 0.000202128
25 *211:25 *319:12 0
26 *211:31 *6020:A 3.48705e-05
27 *211:31 *6020:B 0.00010096
28 *211:31 *319:12 0
29 *5879:A *6222:A1 0.000399835
30 *5901:A *5901:B 0.00013213
31 *182:40 *211:23 0.000214335
32 *182:40 *211:25 9.25014e-06
33 *182:42 *211:25 0.000248493
34 *182:44 *211:25 4.56437e-05
35 *182:44 *211:31 0.000384995
36 *182:46 *211:31 7.83587e-05
37 *182:56 *5901:B 4.58976e-05
38 *182:56 *211:31 6.20758e-05
39 *190:192 *211:31 0
40 *190:207 *211:31 0
*RES
1 *5900:Y *211:4 9.3 
2 *211:4 *6222:A1 45.5321 
3 *211:4 *211:23 8.71429 
4 *211:23 *211:25 3.76786 
5 *211:25 *211:31 13.3929 
6 *211:31 *6093:B 9.72857 
7 *211:31 *5901:B 22.7821 
8 *211:25 *6057:B 14.3357 
9 *211:23 *6039:B 13.8 
*END

*D_NET *212 0.00371175
*CONN
*I *6021:A I *D sky130_fd_sc_hd__nor2_1
*I *6304:A I *D sky130_fd_sc_hd__nor2_1
*I *5903:A I *D sky130_fd_sc_hd__nor2_1
*I *5901:Y O *D sky130_fd_sc_hd__nand2_1
*CAP
1 *6021:A 0.000127582
2 *6304:A 0
3 *5903:A 0.00065443
4 *5901:Y 0
5 *212:14 0.000956999
6 *212:4 0.000430152
7 *5903:A *5903:B 5.7661e-06
8 *5903:A *5905:B1 6.79057e-05
9 *5903:A *6095:A 4.28909e-05
10 *5903:A *6095:B 0.000109239
11 *5903:A *6111:S 0
12 *5903:A *6150:A 5.80706e-06
13 *5903:A *6151:B1 0.000102545
14 *5903:A *6234:B1 0.000241205
15 *5903:A *216:8 7.32272e-05
16 *5903:A *216:116 5.94433e-06
17 *5903:A *349:10 5.80706e-06
18 *6021:A *6022:B1 2.89016e-05
19 *6021:A *215:174 2.42662e-05
20 *212:14 *6021:B 2.56601e-05
21 *212:14 *6114:B 2.98019e-05
22 *212:14 *6132:A 3.57844e-05
23 *212:14 *6133:B1 8.00806e-05
24 *212:14 *6150:A 0.000241062
25 *212:14 *292:12 0
26 *212:14 *348:10 0.000178412
27 *212:14 *349:10 1.81709e-05
28 *5901:A *6021:A 3.58638e-05
29 *5901:A *212:14 2.43785e-05
30 *5901:B *6021:A 1.97695e-05
31 *5901:B *212:14 8.44175e-05
32 *5905:A1 *5903:A 5.56825e-05
*RES
1 *5901:Y *212:4 9.3 
2 *212:4 *212:14 12.1964 
3 *212:14 *5903:A 24.2821 
4 *212:14 *6304:A 13.8 
5 *212:4 *6021:A 11.925 
*END

*D_NET *213 0.00184447
*CONN
*I *6203:B I *D sky130_fd_sc_hd__nor2_1
*I *6233:A I *D sky130_fd_sc_hd__nor2_1
*I *5903:B I *D sky130_fd_sc_hd__nor2_1
*I *5902:Y O *D sky130_fd_sc_hd__nand2_1
*CAP
1 *6203:B 1.22324e-05
2 *6233:A 0
3 *5903:B 0.000227464
4 *5902:Y 6.40763e-05
5 *213:29 0.000105521
6 *213:8 0.000384829
7 *5903:B *5905:B1 0.00010096
8 *5903:B *401:12 0.000175519
9 *6203:B *6234:B1 5.52302e-05
10 *6203:B *279:24 2.28598e-05
11 *213:8 *401:12 0.000100831
12 *213:29 *6203:A 1.3701e-05
13 *213:29 *6233:B 0.000142856
14 *213:29 *6234:B1 2.28499e-05
15 *213:29 *279:24 0.000354105
16 *5903:A *5903:B 5.7661e-06
17 *6287:A1 *213:29 5.5674e-05
18 *6287:A2 *5903:B 0
*RES
1 *5902:Y *213:8 15.1393 
2 *213:8 *5903:B 18.5679 
3 *213:8 *213:29 8.33929 
4 *213:29 *6233:A 9.3 
5 *213:29 *6203:B 9.83571 
*END

*D_NET *214 0.000598972
*CONN
*I *5905:B1 I *D sky130_fd_sc_hd__o211a_4
*I *5903:Y O *D sky130_fd_sc_hd__nor2_1
*CAP
1 *5905:B1 0.000106212
2 *5903:Y 0.000106212
3 *5905:B1 *216:8 0.000139907
4 *5905:B1 *216:116 7.77751e-05
5 *5903:A *5905:B1 6.79057e-05
6 *5903:B *5905:B1 0.00010096
*RES
1 *5903:Y *5905:B1 22.0107 
*END

*D_NET *215 0.0167939
*CONN
*I *6022:C1 I *D sky130_fd_sc_hd__o211a_4
*I *6058:C1 I *D sky130_fd_sc_hd__o211a_4
*I *6076:C1 I *D sky130_fd_sc_hd__o211a_4
*I *6040:C1 I *D sky130_fd_sc_hd__o211a_4
*I *6003:C1 I *D sky130_fd_sc_hd__o211a_4
*I *6186:C1 I *D sky130_fd_sc_hd__o211a_4
*I *6115:C1 I *D sky130_fd_sc_hd__o211a_4
*I *6133:C1 I *D sky130_fd_sc_hd__o211a_4
*I *6096:C1 I *D sky130_fd_sc_hd__o211a_4
*I *6151:C1 I *D sky130_fd_sc_hd__o211a_4
*I *6305:C1 I *D sky130_fd_sc_hd__o211a_4
*I *6204:C1 I *D sky130_fd_sc_hd__o211a_4
*I *5905:C1 I *D sky130_fd_sc_hd__o211a_4
*I *6234:C1 I *D sky130_fd_sc_hd__o211a_4
*I *6287:B1 I *D sky130_fd_sc_hd__o211a_4
*I *6168:B1 I *D sky130_fd_sc_hd__o2111a_4
*I *6227:C1 I *D sky130_fd_sc_hd__o211a_1
*I *6221:B1 I *D sky130_fd_sc_hd__o21a_4
*I *5904:X O *D sky130_fd_sc_hd__buf_8
*CAP
1 *6022:C1 3.27249e-05
2 *6058:C1 0.000108081
3 *6076:C1 0
4 *6040:C1 0.00014961
5 *6003:C1 0.000436756
6 *6186:C1 3.12428e-05
7 *6115:C1 6.12204e-05
8 *6133:C1 0
9 *6096:C1 5.0595e-05
10 *6151:C1 0
11 *6305:C1 0
12 *6204:C1 0
13 *5905:C1 9.4083e-05
14 *6234:C1 0.000164849
15 *6287:B1 0.000187609
16 *6168:B1 0.000428653
17 *6227:C1 1.83202e-05
18 *6221:B1 1.645e-05
19 *5904:X 0.000237436
20 *215:213 0.000217089
21 *215:176 0.000547962
22 *215:174 0.000343289
23 *215:170 0.000287985
24 *215:166 0.000195817
25 *215:155 0.000243277
26 *215:146 0.000147564
27 *215:133 0.000325857
28 *215:118 0.000284692
29 *215:109 0.000173588
30 *215:53 0.00092425
31 *215:45 0.000664886
32 *215:36 0.000258432
33 *215:30 0.00040683
34 *215:28 0.000212348
35 *215:24 0.000693221
36 *215:10 0.000913213
37 *5905:C1 *216:14 0
38 *6003:C1 *6076:B1 2.87555e-06
39 *6003:C1 *298:18 5.86661e-05
40 *6022:C1 *6022:B1 0.000186669
41 *6022:C1 *309:10 0.000230482
42 *6022:C1 *401:79 1.74352e-05
43 *6040:C1 *6040:B1 1.99099e-05
44 *6040:C1 *292:12 0
45 *6058:C1 *351:31 0.000166976
46 *6096:C1 *6305:B1 2.27416e-05
47 *6096:C1 *351:31 0
48 *6115:C1 *6115:B1 5.33433e-05
49 *6168:B1 *279:24 9.60875e-05
50 *6168:B1 *420:27 0.000177815
51 *6168:B1 *479:61 0
52 *6186:C1 *6186:B1 1.97695e-05
53 *6234:C1 *428:16 8.54431e-05
54 *6287:B1 *460:8 0
55 *215:10 *6166:S 0
56 *215:10 *6415:CLK 4.1331e-06
57 *215:10 *309:14 0
58 *215:10 *391:122 4.17099e-05
59 *215:10 *658:30 5.52238e-05
60 *215:24 *6204:B1 5.71472e-05
61 *215:28 *6204:B1 2.82057e-05
62 *215:28 *216:14 0
63 *215:28 *428:52 7.80714e-06
64 *215:109 *6166:S 0
65 *215:109 *6305:B1 3.51442e-05
66 *215:109 *6415:CLK 7.49332e-05
67 *215:118 *6305:B1 0.000162118
68 *215:118 *6415:CLK 5.85405e-05
69 *215:133 *6305:B1 0.000170685
70 *215:133 *6415:CLK 7.86249e-05
71 *215:146 *351:31 7.50697e-05
72 *215:155 *351:31 0.000113887
73 *215:166 *351:31 8.31314e-05
74 *215:170 *351:31 5.58941e-05
75 *215:174 *6022:B1 0.000262498
76 *215:174 *401:79 0.000567271
77 *215:176 *401:79 0.00022266
78 *215:213 *351:31 0.00016384
79 *5891:A *215:53 0
80 *5891:B *6168:B1 4.51495e-05
81 *5891:B *6227:C1 1.25789e-05
82 *5891:B *215:53 4.34249e-05
83 *5901:A *6186:C1 0
84 *5901:A *215:174 0.000219064
85 *5901:A *215:176 1.33343e-05
86 *6003:A2 *6003:C1 0.000269422
87 *6021:A *215:174 2.42662e-05
88 *6040:A1 *6040:C1 5.52238e-05
89 *6040:A2 *6040:C1 5.52238e-05
90 *6058:A1 *6058:C1 0
91 *6058:A2 *6058:C1 0
92 *6096:A1 *215:133 2.14658e-05
93 *6096:A2 *215:133 9.60939e-05
94 *6168:A1 *6168:B1 0.000194286
95 *6168:A2 *6168:B1 4.87854e-05
96 *6186:A1 *215:176 4.11274e-05
97 *6204:A1 *215:24 1.04232e-05
98 *6221:A1 *215:36 3.38228e-05
99 *6227:A1 *6168:B1 2.89114e-05
100 *6287:A2 *6287:B1 0.000362997
101 *6287:C1 *6168:B1 0
102 *6415:D *215:10 0.000175519
103 *189:10 *6168:B1 0.00018917
104 *190:21 *6221:B1 9.90367e-05
105 *190:21 *215:36 0.000100653
106 *190:34 *6234:C1 1.98839e-05
107 *190:34 *215:36 0.000201205
108 *190:42 *215:24 0.00013594
109 *190:42 *215:28 0.00010326
110 *190:59 *215:24 7.32955e-05
111 *190:94 *215:133 1.08359e-05
112 *190:109 *215:133 1.52978e-05
113 *190:120 *215:155 0
114 *190:131 *215:155 0
115 *190:166 *5905:C1 0.000175519
116 *190:166 *215:28 4.73656e-05
117 *190:207 *6003:C1 9.91086e-05
118 *190:207 *6040:C1 0
119 *200:10 *6168:B1 0.000467686
120 *203:36 *6221:B1 9.90367e-05
121 *203:36 *215:36 5.33005e-05
122 *203:50 *6287:B1 3.17148e-05
123 *203:50 *215:24 0.000186556
124 *203:50 *215:53 0.000197984
125 *203:112 *215:146 0.000148196
126 *203:112 *215:155 1.02504e-05
127 *203:129 *6115:C1 1.74352e-05
128 *203:129 *215:155 0.000144512
129 *203:133 *215:166 0
130 *203:144 *6058:C1 0
131 *203:144 *215:170 0
132 *203:144 *215:213 0
133 *203:197 *6040:C1 0.000100831
*RES
1 *5904:X *215:10 18.425 
2 *215:10 *215:24 15.6071 
3 *215:24 *215:28 7.35714 
4 *215:28 *215:30 4.5 
5 *215:30 *215:36 5.60714 
6 *215:36 *6221:B1 10.2464 
7 *215:36 *215:45 4.5 
8 *215:45 *215:53 12.9464 
9 *215:53 *6227:C1 9.72857 
10 *215:53 *6168:B1 30.6036 
11 *215:45 *6287:B1 18.7821 
12 *215:30 *6234:C1 12.0946 
13 *215:28 *5905:C1 16.05 
14 *215:24 *6204:C1 9.3 
15 *215:10 *215:109 2.55357 
16 *215:109 *6305:C1 13.8 
17 *215:109 *215:118 2.25 
18 *215:118 *6151:C1 13.8 
19 *215:118 *215:133 9.55357 
20 *215:133 *6096:C1 10.2643 
21 *215:133 *215:146 6.44643 
22 *215:146 *6133:C1 13.8 
23 *215:146 *215:155 2.85714 
24 *215:155 *6115:C1 15.1571 
25 *215:155 *215:166 2.25 
26 *215:166 *215:170 1.26786 
27 *215:170 *215:174 9.96429 
28 *215:174 *215:176 2.17857 
29 *215:176 *6186:C1 10.0321 
30 *215:176 *6003:C1 24.9071 
31 *215:174 *6040:C1 21.0857 
32 *215:170 *215:213 2.25 
33 *215:213 *6076:C1 13.8 
34 *215:213 *6058:C1 16.05 
35 *215:166 *6022:C1 15.9786 
*END

*D_NET *216 0.0309695
*CONN
*I *5912:S I *D sky130_fd_sc_hd__mux2_1
*I *5916:S I *D sky130_fd_sc_hd__mux2_1
*I *5914:S I *D sky130_fd_sc_hd__mux2_1
*I *5906:S I *D sky130_fd_sc_hd__mux2_1
*I *5908:S I *D sky130_fd_sc_hd__mux2_1
*I *5918:S I *D sky130_fd_sc_hd__mux2_1
*I *5920:S I *D sky130_fd_sc_hd__mux2_1
*I *5910:S I *D sky130_fd_sc_hd__mux2_1
*I *5905:X O *D sky130_fd_sc_hd__o211a_4
*CAP
1 *5912:S 0.00157941
2 *5916:S 7.58499e-05
3 *5914:S 0
4 *5906:S 0.000597137
5 *5908:S 0
6 *5918:S 0
7 *5920:S 0
8 *5910:S 0.0001166
9 *5905:X 3.55893e-05
10 *216:116 0.00390872
11 *216:79 0.00191211
12 *216:60 0.00265649
13 *216:44 0.003108
14 *216:29 0.00251384
15 *216:14 0.00183941
16 *216:8 0.0032645
17 *5906:S *5906:A0 4.70553e-05
18 *5906:S *5906:A1 5.52238e-05
19 *5906:S *5907:A 0
20 *5906:S *5908:A0 2.28598e-05
21 *5906:S *5924:A3 2.89114e-05
22 *5906:S *5939:A1 0.000228558
23 *5906:S *5939:A2 9.01334e-05
24 *5906:S *5939:S0 0.000544397
25 *5906:S *5939:S1 0
26 *5906:S *225:121 4.70981e-05
27 *5906:S *226:135 0
28 *5906:S *481:56 0
29 *5910:S *5998:S 3.9532e-05
30 *5912:S *5912:A0 4.87854e-05
31 *5912:S *5913:A 9.09605e-05
32 *5912:S *5957:A3 0.000199134
33 *5912:S *6413:CLK 1.77179e-05
34 *5912:S *6615:A 5.52302e-05
35 *5916:S *230:66 8.5896e-05
36 *5916:S *232:58 0.000172368
37 *216:14 *5948:S1 0.000340773
38 *216:14 *5998:S 5.53678e-05
39 *216:14 *6562:A 4.85018e-05
40 *216:14 *401:12 0.000602073
41 *216:14 *401:22 0.000638448
42 *216:14 *428:52 0
43 *216:14 *746:109 0.000112916
44 *216:29 *5910:A1 0.000126439
45 *216:29 *5920:A1 0.000123903
46 *216:29 *5948:S0 0
47 *216:29 *6202:A 4.96925e-05
48 *216:29 *6585:A 7.90803e-05
49 *216:29 *225:21 0.000636705
50 *216:29 *225:27 0.000509209
51 *216:29 *287:22 4.11218e-05
52 *216:29 *401:22 0.000178907
53 *216:29 *480:16 0
54 *216:29 *790:14 3.79258e-05
55 *216:29 *791:35 1.69115e-05
56 *216:44 *5914:A0 3.92854e-05
57 *216:44 *5920:A0 0.00019243
58 *216:44 *5967:S0 0
59 *216:44 *6243:S 0
60 *216:44 *6244:A 1.76039e-05
61 *216:44 *6398:CLK 2.89114e-05
62 *216:44 *6541:A 0
63 *216:44 *225:160 0
64 *216:44 *226:114 0
65 *216:44 *428:105 0
66 *216:44 *658:24 0.000747401
67 *216:60 *5918:A0 0
68 *216:60 *5919:A 0
69 *216:60 *5984:A1 0.000356022
70 *216:60 *6182:A 0.000134192
71 *216:60 *6244:A 6.42242e-05
72 *216:60 *6416:CLK 7.8011e-05
73 *216:60 *6541:A 0
74 *216:60 *488:78 0.000140933
75 *216:60 *488:82 9.69119e-06
76 *216:60 *580:12 1.72894e-05
77 *216:60 *588:10 0
78 *216:60 *590:12 5.10822e-05
79 *216:60 *625:12 1.02504e-05
80 *216:60 *735:20 5.0725e-05
81 *216:79 *5909:A 0
82 *216:79 *5918:A0 0.000405733
83 *216:79 *5939:A1 1.19402e-05
84 *216:79 *5939:A2 1.4211e-05
85 *216:79 *6323:CLK 0.00010096
86 *216:79 *6427:CLK 5.52238e-05
87 *216:79 *593:6 1.88573e-05
88 *216:79 *625:21 3.57366e-05
89 *216:116 *6095:B 1.57523e-05
90 *216:116 *6151:B1 0.000279668
91 *216:116 *382:16 5.90748e-05
92 *216:116 *401:12 3.80904e-05
93 *5903:A *216:8 7.32272e-05
94 *5903:A *216:116 5.94433e-06
95 *5905:A1 *216:116 0.000110029
96 *5905:B1 *216:8 0.000139907
97 *5905:B1 *216:116 7.77751e-05
98 *5905:C1 *216:14 0
99 *6385:D *216:14 0
100 *6398:D *216:44 6.83539e-05
101 *6401:D *216:29 0
102 *6413:D *5912:S 0.000171906
103 *6427:D *216:79 1.64343e-05
104 *190:76 *216:116 0.000353079
105 *190:179 *216:116 0
106 *215:28 *216:14 0
*RES
1 *5905:X *216:8 15.1571 
2 *216:8 *216:14 29.3571 
3 *216:14 *5910:S 10.9786 
4 *216:14 *216:29 29.1607 
5 *216:29 *5920:S 9.3 
6 *216:29 *216:44 33.125 
7 *216:44 *216:60 37.3929 
8 *216:60 *5918:S 9.3 
9 *216:60 *216:79 28.7857 
10 *216:79 *5908:S 9.3 
11 *216:79 *5906:S 32.6214 
12 *216:44 *5914:S 13.8 
13 *216:8 *216:116 32.4643 
14 *216:116 *5916:S 20.55 
15 *216:116 *5912:S 33.5679 
*END

*D_NET *217 0.000300577
*CONN
*I *5907:A I *D sky130_fd_sc_hd__clkbuf_1
*I *5906:X O *D sky130_fd_sc_hd__mux2_1
*CAP
1 *5907:A 5.37454e-05
2 *5906:X 5.37454e-05
3 *5907:A *5906:A0 0
4 *5907:A *5924:A3 0.00010096
5 *5907:A *225:108 9.21265e-05
6 *5906:S *5907:A 0
*RES
1 *5906:X *5907:A 20.2786 
*END

*D_NET *218 0.00122674
*CONN
*I *5909:A I *D sky130_fd_sc_hd__clkbuf_1
*I *5908:X O *D sky130_fd_sc_hd__mux2_1
*CAP
1 *5909:A 0.000546578
2 *5908:X 0.000546578
3 *5909:A *6550:A 0.000133583
4 *6323:D *5909:A 0
5 *216:79 *5909:A 0
*RES
1 *5908:X *5909:A 37.1536 
*END

*D_NET *219 0.000469698
*CONN
*I *5911:A I *D sky130_fd_sc_hd__clkbuf_1
*I *5910:X O *D sky130_fd_sc_hd__mux2_1
*CAP
1 *5911:A 0.000166263
2 *5910:X 0.000166263
3 *5911:A *5948:S0 0
4 *5911:A *5998:S 1.39726e-05
5 *5911:A *6209:A0 5.71472e-05
6 *5911:A *6324:CLK 4.1331e-06
7 *5911:A *6529:A 0
8 *5911:A *480:79 6.19181e-05
*RES
1 *5910:X *5911:A 30.4929 
*END

*D_NET *220 0.000201435
*CONN
*I *5913:A I *D sky130_fd_sc_hd__clkbuf_1
*I *5912:X O *D sky130_fd_sc_hd__mux2_1
*CAP
1 *5913:A 4.55976e-05
2 *5912:X 4.55976e-05
3 *5913:A *5957:A3 1.92789e-05
4 *5912:S *5913:A 9.09605e-05
*RES
1 *5912:X *5913:A 19.8679 
*END

*D_NET *221 0.00171716
*CONN
*I *5915:A I *D sky130_fd_sc_hd__clkbuf_1
*I *5914:X O *D sky130_fd_sc_hd__mux2_1
*CAP
1 *5915:A 0.000595334
2 *5914:X 0.000595334
3 *5915:A *5966:A3 4.58764e-05
4 *5915:A *5966:S0 5.84171e-05
5 *5915:A *6443:CLK 4.65081e-05
6 *5915:A *225:58 6.638e-05
7 *5915:A *588:10 0
8 *5915:A *768:93 1.19402e-05
9 *5915:A *768:119 0.000139913
10 *6326:D *5915:A 0
11 *6443:D *5915:A 0.000157455
*RES
1 *5914:X *5915:A 39.0464 
*END

*D_NET *222 0.00173719
*CONN
*I *5917:A I *D sky130_fd_sc_hd__clkbuf_1
*I *5916:X O *D sky130_fd_sc_hd__mux2_1
*CAP
1 *5917:A 0.000464798
2 *5916:X 0.000464798
3 *5917:A *5975:A0 0
4 *5917:A *5975:A2 0.000305922
5 *5917:A *6215:A1 0
6 *5917:A *6626:A 7.90803e-05
7 *5917:A *233:41 3.32442e-05
8 *5917:A *237:86 0
9 *5917:A *391:151 8.00806e-05
10 *5917:A *411:92 0.000309266
*RES
1 *5916:X *5917:A 37.4036 
*END

*D_NET *223 0.000985702
*CONN
*I *5919:A I *D sky130_fd_sc_hd__clkbuf_1
*I *5918:X O *D sky130_fd_sc_hd__mux2_1
*CAP
1 *5919:A 0.000255939
2 *5918:X 0.000255939
3 *5919:A *6217:A1 2.89016e-05
4 *5919:A *625:21 2.89114e-05
5 *5919:A *625:32 0.000337644
6 *5919:A *735:20 7.83659e-05
7 *216:60 *5919:A 0
*RES
1 *5918:X *5919:A 32.9214 
*END

*D_NET *224 0.00130202
*CONN
*I *5921:A I *D sky130_fd_sc_hd__clkbuf_1
*I *5920:X O *D sky130_fd_sc_hd__mux2_1
*CAP
1 *5921:A 0.000456408
2 *5920:X 0.000456408
3 *5921:A *5920:A0 3.69047e-06
4 *5921:A *5920:A1 3.34295e-05
5 *5921:A *5993:A1 6.19181e-05
6 *5921:A *5993:A3 5.12829e-05
7 *5921:A *6329:CLK 0
8 *5921:A *225:27 6.53668e-05
9 *5921:A *225:39 0.0001234
10 *5921:A *480:16 0
11 *6329:D *5921:A 5.01117e-05
*RES
1 *5920:X *5921:A 37.0821 
*END

*D_NET *225 0.049577
*CONN
*I *6251:A I *D sky130_fd_sc_hd__xnor2_1
*I *6254:A1 I *D sky130_fd_sc_hd__a31o_1
*I *6263:A I *D sky130_fd_sc_hd__nor2_1
*I *6271:A1 I *D sky130_fd_sc_hd__a31o_1
*I *6252:A I *D sky130_fd_sc_hd__nand2_1
*I *5993:S0 I *D sky130_fd_sc_hd__mux4_1
*I *5975:S0 I *D sky130_fd_sc_hd__mux4_1
*I *5958:S0 I *D sky130_fd_sc_hd__mux4_1
*I *5957:S0 I *D sky130_fd_sc_hd__mux4_1
*I *5949:S0 I *D sky130_fd_sc_hd__mux4_1
*I *5925:S0 I *D sky130_fd_sc_hd__mux4_1
*I *5940:S0 I *D sky130_fd_sc_hd__mux4_1
*I *5924:S0 I *D sky130_fd_sc_hd__mux4_1
*I *5939:S0 I *D sky130_fd_sc_hd__mux4_1
*I *5984:S0 I *D sky130_fd_sc_hd__mux4_1
*I *5967:S0 I *D sky130_fd_sc_hd__mux4_1
*I *5966:S0 I *D sky130_fd_sc_hd__mux4_1
*I *5948:S0 I *D sky130_fd_sc_hd__mux4_1
*I *5922:X O *D sky130_fd_sc_hd__buf_8
*CAP
1 *6251:A 0
2 *6254:A1 0
3 *6263:A 0
4 *6271:A1 0.000138581
5 *6252:A 0
6 *5993:S0 2.85076e-05
7 *5975:S0 0.000335042
8 *5958:S0 0.000810485
9 *5957:S0 2.12584e-05
10 *5949:S0 0.000270993
11 *5925:S0 0.000567566
12 *5940:S0 0
13 *5924:S0 1.1624e-05
14 *5939:S0 0.000284998
15 *5984:S0 0.000124858
16 *5967:S0 0.000405345
17 *5966:S0 6.98031e-05
18 *5948:S0 0.000577975
19 *5922:X 0
20 *225:262 0.000704893
21 *225:247 0.000690689
22 *225:245 0.000336476
23 *225:237 0.00144021
24 *225:181 0.00120632
25 *225:164 0.00264936
26 *225:160 0.0039557
27 *225:136 0.00113682
28 *225:121 0.000760507
29 *225:108 0.00169966
30 *225:79 0.00179554
31 *225:62 0.00109171
32 *225:58 0.00217229
33 *225:39 0.0015831
34 *225:27 0.00167246
35 *225:21 0.00193243
36 *225:4 0.000846937
37 *5924:S0 *5924:A0 5.52238e-05
38 *5924:S0 *5924:A2 5.52238e-05
39 *5925:S0 *5925:A0 5.52238e-05
40 *5925:S0 *5925:A2 5.52238e-05
41 *5925:S0 *5940:A0 0
42 *5925:S0 *6023:A0 4.15914e-05
43 *5925:S0 *6025:A0 2.79092e-05
44 *5925:S0 *6025:S 0
45 *5925:S0 *6026:A 0
46 *5925:S0 *6545:A 0
47 *5925:S0 *226:183 0
48 *5925:S0 *255:14 0.000173083
49 *5939:S0 *5939:A0 5.71472e-05
50 *5939:S0 *5939:A1 0
51 *5939:S0 *5939:A3 5.52238e-05
52 *5948:S0 *5910:A1 0
53 *5948:S0 *5948:A3 1.41706e-05
54 *5948:S0 *6324:CLK 0
55 *5948:S0 *287:24 9.16074e-05
56 *5948:S0 *411:20 1.6959e-05
57 *5948:S0 *480:8 5.80706e-06
58 *5948:S0 *480:79 0.000292661
59 *5948:S0 *790:33 0.000137983
60 *5949:S0 *6029:S 0
61 *5949:S0 *6565:A 0.000152333
62 *5949:S0 *411:111 0.00018567
63 *5949:S0 *495:88 0
64 *5957:S0 *5957:A0 0.000142856
65 *5957:S0 *5957:A1 0.000142856
66 *5958:S0 *5958:A0 6.44698e-05
67 *5958:S0 *6029:S 0.000615492
68 *5958:S0 *6241:A1 0
69 *5958:S0 *483:63 2.60633e-05
70 *5958:S0 *757:87 0
71 *5958:S0 *757:89 0
72 *5966:S0 *5966:A3 6.61445e-05
73 *5967:S0 *5967:A0 0.000198494
74 *5967:S0 *5967:A2 0
75 *5967:S0 *226:114 0
76 *5967:S0 *295:20 4.25716e-05
77 *5975:S0 *5975:A0 0.000181796
78 *5975:S0 *5975:A1 3.47797e-05
79 *5975:S0 *5975:A3 0.00035206
80 *5975:S0 *6180:A 0.000138816
81 *5975:S0 *470:18 0.000142327
82 *5984:S0 *5984:A0 0
83 *5984:S0 *5984:A1 9.25014e-06
84 *5984:S0 *265:12 0
85 *5984:S0 *625:45 9.99989e-05
86 *5993:S0 *5993:A2 5.52238e-05
87 *6271:A1 *6263:B 9.76223e-06
88 *6271:A1 *6271:A2 1.7859e-05
89 *6271:A1 *6271:B1 5.52238e-05
90 *6271:A1 *226:28 4.14279e-05
91 *6271:A1 *226:30 3.98559e-05
92 *225:21 *226:85 0
93 *225:21 *401:22 0.000242307
94 *225:21 *575:8 4.45524e-05
95 *225:27 *5993:A3 6.42145e-05
96 *225:27 *226:85 0
97 *225:27 *226:95 0
98 *225:39 *6213:S 0
99 *225:39 *6249:A1 0
100 *225:39 *226:95 0
101 *225:39 *391:47 0.000909399
102 *225:39 *391:59 0.000621848
103 *225:58 *5966:S1 8.359e-05
104 *225:58 *6244:A 5.52238e-05
105 *225:58 *6596:A 0
106 *225:58 *226:114 0.00012799
107 *225:58 *391:59 0.000183726
108 *225:58 *768:93 0
109 *225:58 *768:119 6.58013e-05
110 *225:62 *226:114 0.000290158
111 *225:62 *428:105 3.67257e-05
112 *225:79 *6248:A 3.69697e-05
113 *225:79 *226:114 0.000151071
114 *225:79 *265:12 0
115 *225:79 *428:105 0.000203916
116 *225:79 *625:45 0.000111796
117 *225:79 *625:51 0.000357048
118 *225:108 *5924:A3 0.000219887
119 *225:108 *5984:A0 0.000485543
120 *225:108 *6169:A0 0
121 *225:108 *6445:CLK 0.000980101
122 *225:108 *494:53 1.98839e-05
123 *225:108 *600:8 3.48705e-05
124 *225:121 *5924:A3 5.01117e-05
125 *225:121 *226:135 0
126 *225:136 *5924:A3 5.0587e-05
127 *225:136 *5940:A1 0
128 *225:136 *5940:A2 0
129 *225:136 *226:133 0
130 *225:136 *481:41 0.000197467
131 *225:136 *658:20 9.24395e-05
132 *225:160 *6142:A0 0.00010326
133 *225:160 *6180:A 4.15914e-05
134 *225:160 *6195:S 8.47203e-05
135 *225:160 *6320:A0 2.79092e-05
136 *225:160 *6327:CLK 2.15363e-05
137 *225:160 *226:114 3.17163e-05
138 *225:160 *237:86 0
139 *225:160 *309:14 0
140 *225:160 *372:74 0.000709103
141 *225:160 *470:18 0.000463985
142 *225:160 *488:14 3.87254e-05
143 *225:160 *488:20 0.000117997
144 *225:160 *489:34 0.000196781
145 *225:160 *489:95 0.000145841
146 *225:160 *623:10 0.000109809
147 *225:160 *768:69 0.000399825
148 *225:160 *768:85 0.000103267
149 *225:160 *768:93 0
150 *225:164 *6215:A1 0.000190858
151 *225:164 *6241:S 0.000798061
152 *225:164 *6327:CLK 5.23057e-05
153 *225:164 *6444:CLK 2.27416e-05
154 *225:181 *6029:S 0.000217143
155 *225:181 *6241:A1 0
156 *225:181 *6241:S 0.000269428
157 *225:181 *226:219 0.000104227
158 *225:237 *6401:CLK 1.39726e-05
159 *225:237 *6470:CLK 8.32171e-05
160 *225:237 *237:12 6.07943e-05
161 *225:237 *237:66 0.000160945
162 *225:237 *239:160 0.0013275
163 *225:237 *712:53 7.80714e-06
164 *225:245 *6258:A 0
165 *225:245 *237:12 0.000529356
166 *225:245 *239:134 0.000271648
167 *225:245 *713:8 8.68665e-05
168 *225:247 *6254:A2 5.52238e-05
169 *225:247 *6255:B 5.71472e-05
170 *225:247 *226:18 0.000284018
171 *225:247 *680:24 5.04589e-05
172 *225:247 *711:115 0.000119667
173 *225:262 *6257:B 0.000127446
174 *225:262 *6267:A 0.000171375
175 *225:262 *6267:B 3.57366e-05
176 *225:262 *6276:B 3.75052e-05
177 *225:262 *6454:CLK 5.85135e-05
178 *225:262 *226:28 5.52238e-05
179 *225:262 *711:109 4.1331e-06
180 *225:262 *711:135 0.000186507
181 *5906:S *5939:S0 0.000544397
182 *5906:S *225:121 4.70981e-05
183 *5907:A *225:108 9.21265e-05
184 *5911:A *5948:S0 0
185 *5915:A *5966:S0 5.84171e-05
186 *5915:A *225:58 6.638e-05
187 *5921:A *225:27 6.53668e-05
188 *5921:A *225:39 0.0001234
189 *6254:A3 *225:247 5.71472e-05
190 *6322:D *225:121 0
191 *6322:D *225:136 0
192 *6324:D *5948:S0 0
193 *6327:D *225:164 9.2244e-05
194 *6401:D *5948:S0 0.000128161
195 *6410:D *225:108 2.28589e-05
196 *6414:D *225:39 5.52238e-05
197 *6431:D *225:160 4.78056e-05
198 *6444:D *225:164 4.87669e-06
199 *216:29 *5948:S0 0
200 *216:29 *225:21 0.000636705
201 *216:29 *225:27 0.000509209
202 *216:44 *5967:S0 0
203 *216:44 *225:160 0
*RES
1 *5922:X *225:4 9.3 
2 *225:4 *5948:S0 31.1393 
3 *225:4 *225:21 12.8214 
4 *225:21 *225:27 10.1964 
5 *225:27 *225:39 30.2679 
6 *225:39 *5966:S0 15.4429 
7 *225:39 *225:58 16.7857 
8 *225:58 *225:62 10.375 
9 *225:62 *5967:S0 25.7107 
10 *225:62 *225:79 16 
11 *225:79 *5984:S0 16.3536 
12 *225:79 *225:108 32.4196 
13 *225:108 *5939:S0 21.2911 
14 *225:108 *225:121 3.00893 
15 *225:121 *5924:S0 14.3357 
16 *225:121 *225:136 10.5 
17 *225:136 *5940:S0 13.8 
18 *225:136 *5925:S0 24.175 
19 *225:58 *225:160 39.1429 
20 *225:160 *225:164 30.5 
21 *225:164 *5949:S0 24.4964 
22 *225:164 *225:181 12.375 
23 *225:181 *5957:S0 15.1571 
24 *225:181 *5958:S0 31.0857 
25 *225:160 *5975:S0 22.7464 
26 *225:27 *5993:S0 14.3357 
27 *225:21 *225:237 32.0357 
28 *225:237 *225:245 16.3036 
29 *225:245 *225:247 5.05357 
30 *225:247 *6252:A 9.3 
31 *225:247 *225:262 21.1429 
32 *225:262 *6271:A1 12.3357 
33 *225:262 *6263:A 9.3 
34 *225:245 *6254:A1 9.3 
35 *225:237 *6251:A 9.3 
*END

*D_NET *226 0.0531345
*CONN
*I *5948:S1 I *D sky130_fd_sc_hd__mux4_1
*I *5993:S1 I *D sky130_fd_sc_hd__mux4_1
*I *5957:S1 I *D sky130_fd_sc_hd__mux4_1
*I *5958:S1 I *D sky130_fd_sc_hd__mux4_1
*I *5975:S1 I *D sky130_fd_sc_hd__mux4_1
*I *5949:S1 I *D sky130_fd_sc_hd__mux4_1
*I *5925:S1 I *D sky130_fd_sc_hd__mux4_1
*I *5940:S1 I *D sky130_fd_sc_hd__mux4_1
*I *5924:S1 I *D sky130_fd_sc_hd__mux4_1
*I *5984:S1 I *D sky130_fd_sc_hd__mux4_1
*I *5939:S1 I *D sky130_fd_sc_hd__mux4_1
*I *5967:S1 I *D sky130_fd_sc_hd__mux4_1
*I *5966:S1 I *D sky130_fd_sc_hd__mux4_1
*I *6254:B1 I *D sky130_fd_sc_hd__a31o_1
*I *6252:B I *D sky130_fd_sc_hd__nand2_1
*I *6263:B I *D sky130_fd_sc_hd__nor2_1
*I *6260:A I *D sky130_fd_sc_hd__inv_2
*I *6271:A2 I *D sky130_fd_sc_hd__a31o_1
*I *5923:X O *D sky130_fd_sc_hd__buf_6
*CAP
1 *5948:S1 0.000620828
2 *5993:S1 0
3 *5957:S1 4.52415e-05
4 *5958:S1 0.000391829
5 *5975:S1 0.00139211
6 *5949:S1 5.85144e-05
7 *5925:S1 5.49346e-05
8 *5940:S1 0
9 *5924:S1 0
10 *5984:S1 0.000615344
11 *5939:S1 0.000194701
12 *5967:S1 0
13 *5966:S1 0.000157944
14 *6254:B1 3.82418e-05
15 *6252:B 0
16 *6263:B 1.06417e-05
17 *6260:A 0
18 *6271:A2 3.9202e-05
19 *5923:X 0
20 *226:240 0.00076292
21 *226:219 0.00217369
22 *226:204 0.00177027
23 *226:183 0.00178667
24 *226:170 0.000635964
25 *226:135 0.00106435
26 *226:133 0.000660288
27 *226:131 0.00153119
28 *226:114 0.00198533
29 *226:95 0.00200311
30 *226:85 0.00167399
31 *226:83 0.00178227
32 *226:51 0.00187838
33 *226:30 0.00194271
34 *226:28 0.000581674
35 *226:18 0.00105257
36 *226:14 0.00196554
37 *226:4 0.00173288
38 *5925:S1 *5925:A0 4.58194e-05
39 *5939:S1 *481:56 0.000201044
40 *5948:S1 *5948:A0 9.0145e-05
41 *5948:S1 *5948:A1 3.69047e-06
42 *5948:S1 *5948:A2 0
43 *5948:S1 *5994:A1 2.80292e-05
44 *5948:S1 *6149:A 0.000342604
45 *5948:S1 *6201:A0 0
46 *5948:S1 *6240:A 0
47 *5948:S1 *401:22 0.000104695
48 *5948:S1 *578:10 5.21837e-05
49 *5948:S1 *746:109 0.000151333
50 *5948:S1 *790:33 0
51 *5949:S1 *5949:A1 1.92789e-05
52 *5949:S1 *6029:S 6.19965e-06
53 *5957:S1 *5957:A2 8.6229e-06
54 *5957:S1 *746:45 6.90798e-05
55 *5958:S1 *5957:A3 9.10992e-05
56 *5958:S1 *5958:A1 7.6644e-05
57 *5958:S1 *5958:A2 6.7257e-05
58 *5958:S1 *6564:A 9.14786e-05
59 *5958:S1 *746:45 0.000572809
60 *5958:S1 *757:87 0.00018725
61 *5966:S1 *6541:A 0.000337637
62 *5975:S1 *5957:A2 3.38578e-05
63 *5975:S1 *5975:A1 0.00013073
64 *5975:S1 *5975:A3 0
65 *5975:S1 *6325:CLK 8.70693e-05
66 *5975:S1 *6444:CLK 0.000685457
67 *5975:S1 *391:151 0.000270268
68 *5975:S1 *479:16 1.58163e-05
69 *5975:S1 *495:90 0.000276021
70 *5984:S1 *5986:A0 4.01768e-05
71 *5984:S1 *6169:A0 2.44318e-05
72 *5984:S1 *6170:A 0.000111935
73 *5984:S1 *428:121 0.0013912
74 *5984:S1 *724:43 0.00110084
75 *6271:A2 *6264:B 3.46775e-05
76 *226:14 *5936:A 6.79057e-05
77 *226:14 *6254:A2 1.92789e-05
78 *226:14 *411:30 8.41713e-05
79 *226:14 *480:14 0
80 *226:14 *680:10 0.000145618
81 *226:14 *680:24 0.000170261
82 *226:14 *711:115 7.62726e-05
83 *226:14 *790:14 3.30237e-05
84 *226:14 *791:14 5.52302e-05
85 *226:14 *791:35 0.000131439
86 *226:18 *6254:A2 1.56e-05
87 *226:18 *6267:B 5.18772e-05
88 *226:18 *680:24 2.88018e-06
89 *226:28 *6257:B 4.48206e-05
90 *226:28 *6264:B 7.43578e-06
91 *226:28 *6267:B 9.71197e-05
92 *226:28 *6271:B1 0
93 *226:28 *6276:B 0.000195547
94 *226:28 *237:24 0.00038013
95 *226:28 *437:12 6.59861e-05
96 *226:28 *797:19 0
97 *226:30 *6264:B 8.07313e-05
98 *226:30 *6271:B1 5.52238e-05
99 *226:51 *5893:B 0.000581038
100 *226:51 *6226:A 9.90367e-05
101 *226:51 *6261:A0 1.83053e-05
102 *226:51 *6261:S 0
103 *226:51 *6264:B 9.7049e-06
104 *226:51 *6437:CLK 3.0285e-05
105 *226:51 *6450:D 0
106 *226:51 *6459:RESET_B 0
107 *226:51 *6517:A 8.00806e-05
108 *226:51 *6566:A 0
109 *226:51 *487:71 1.78353e-05
110 *226:51 *490:50 0
111 *226:51 *710:12 0.00019197
112 *226:51 *710:16 0.000324422
113 *226:51 *710:30 0
114 *226:51 *710:32 0
115 *226:51 *710:34 0
116 *226:51 *710:36 0
117 *226:51 *710:38 0
118 *226:51 *797:19 0.00034421
119 *226:51 *813:10 0
120 *226:83 *6201:A0 0.000135028
121 *226:83 *6201:A1 9.41642e-05
122 *226:83 *6201:S 3.99614e-06
123 *226:83 *6202:A 2.89114e-05
124 *226:83 *401:22 2.08721e-05
125 *226:83 *790:14 1.74352e-05
126 *226:83 *791:35 0.000270326
127 *226:85 *5920:A0 5.26091e-05
128 *226:85 *5993:A3 3.84291e-05
129 *226:85 *5994:A1 9.69119e-06
130 *226:85 *5994:S0 0
131 *226:85 *6149:A 0.000169804
132 *226:85 *6201:A1 0
133 *226:85 *6249:A1 0
134 *226:85 *636:111 0
135 *226:95 *5920:A0 5.80217e-05
136 *226:95 *5993:A3 4.1331e-06
137 *226:95 *6249:A0 0.000758153
138 *226:95 *6249:A1 0.000490416
139 *226:95 *6250:A 0.000185643
140 *226:95 *428:75 7.32955e-05
141 *226:95 *428:84 0.000183412
142 *226:114 *5967:A0 0
143 *226:114 *5967:A2 0.000313458
144 *226:114 *6541:A 3.34366e-05
145 *226:114 *625:51 0
146 *226:131 *5940:A2 1.90936e-05
147 *226:131 *5967:A1 7.69776e-06
148 *226:131 *5973:A0 0.00143007
149 *226:131 *712:53 0.00329368
150 *226:133 *5924:A3 9.11365e-06
151 *226:133 *5928:A0 0
152 *226:133 *6579:A 0
153 *226:133 *481:52 0.000106533
154 *226:133 *658:20 8.68665e-05
155 *226:135 *5924:A3 4.25716e-05
156 *226:135 *481:52 9.97648e-05
157 *226:135 *481:56 9.90477e-05
158 *226:170 *5940:A2 0.00012116
159 *226:170 *6579:A 0
160 *226:183 *5925:A0 0
161 *226:183 *5928:A0 0
162 *226:183 *6025:A0 2.56694e-05
163 *226:183 *6025:S 9.46128e-05
164 *226:183 *6117:A 0
165 *226:183 *237:124 0.000433075
166 *226:204 *5928:A0 0
167 *226:204 *5949:A1 5.74562e-05
168 *226:204 *5954:A0 0.00014478
169 *226:204 *6027:A0 0.000127585
170 *226:204 *6028:A 0.00027332
171 *226:204 *6029:S 0
172 *226:204 *6525:A 8.22614e-05
173 *226:204 *231:14 0
174 *226:204 *237:124 0.00033153
175 *226:204 *625:114 7.75093e-05
176 *226:219 *6028:A 6.30409e-05
177 *226:219 *6029:S 0
178 *226:219 *6120:A1 0
179 *226:219 *6241:A1 2.56601e-05
180 *226:219 *746:45 0
181 *226:240 *5957:A2 0.000169668
182 *226:240 *5957:A3 6.90798e-05
183 *226:240 *6241:A1 0.000135659
184 *226:240 *746:45 4.7024e-05
185 *5898:B *226:51 4.15914e-05
186 *5906:S *5939:S1 0
187 *5906:S *226:135 0
188 *5925:S0 *226:183 0
189 *5967:S0 *226:114 0
190 *6271:A1 *6263:B 9.76223e-06
191 *6271:A1 *6271:A2 1.7859e-05
192 *6271:A1 *226:28 4.14279e-05
193 *6271:A1 *226:30 3.98559e-05
194 *6325:D *5975:S1 9.82585e-06
195 *6429:D *5975:S1 1.64343e-05
196 *6435:D *226:51 2.27416e-05
197 *6437:D *226:51 6.75007e-05
198 *6443:D *5966:S1 6.42145e-05
199 *6446:D *226:95 3.24836e-05
200 *6468:D *226:14 5.71472e-05
201 *216:14 *5948:S1 0.000340773
202 *216:44 *226:114 0
203 *225:21 *226:85 0
204 *225:27 *226:85 0
205 *225:27 *226:95 0
206 *225:39 *226:95 0
207 *225:58 *5966:S1 8.359e-05
208 *225:58 *226:114 0.00012799
209 *225:62 *226:114 0.000290158
210 *225:79 *226:114 0.000151071
211 *225:121 *226:135 0
212 *225:136 *226:133 0
213 *225:160 *226:114 3.17163e-05
214 *225:181 *226:219 0.000104227
215 *225:247 *226:18 0.000284018
216 *225:262 *226:28 5.52238e-05
*RES
1 *5923:X *226:4 9.3 
2 *226:4 *226:14 30.0714 
3 *226:14 *226:18 7.01786 
4 *226:18 *226:28 21.4464 
5 *226:28 *226:30 1.35714 
6 *226:30 *6271:A2 10.2643 
7 *226:30 *226:51 48.8036 
8 *226:51 *6260:A 9.3 
9 *226:28 *6263:B 9.72857 
10 *226:18 *6252:B 9.3 
11 *226:14 *6254:B1 10.0321 
12 *226:4 *226:83 11.2321 
13 *226:83 *226:85 15 
14 *226:85 *226:95 28.4286 
15 *226:95 *5966:S1 18.175 
16 *226:95 *226:114 27.0893 
17 *226:114 *5967:S1 13.8 
18 *226:114 *226:131 13.5998 
19 *226:131 *226:133 7.86607 
20 *226:133 *226:135 4.98214 
21 *226:135 *5939:S1 18.4786 
22 *226:135 *5984:S1 35.8536 
23 *226:133 *5924:S1 13.8 
24 *226:131 *226:170 3.04464 
25 *226:170 *5940:S1 13.8 
26 *226:170 *226:183 10.5 
27 *226:183 *5925:S1 14.7464 
28 *226:183 *226:204 30.6339 
29 *226:204 *5949:S1 14.9339 
30 *226:204 *226:219 13.3661 
31 *226:219 *5975:S1 32.7821 
32 *226:219 *226:240 11.4375 
33 *226:240 *5958:S1 27.4339 
34 *226:240 *5957:S1 15.2196 
35 *226:85 *5993:S1 13.8 
36 *226:83 *5948:S1 28.6214 
*END

*D_NET *227 0.00348404
*CONN
*I *5928:A0 I *D sky130_fd_sc_hd__mux2_1
*I *5924:X O *D sky130_fd_sc_hd__mux4_1
*CAP
1 *5928:A0 0.00114464
2 *5924:X 0.00114464
3 *5928:A0 *5924:A1 2.89016e-05
4 *5928:A0 *5925:A0 7.6644e-05
5 *5928:A0 *5928:A1 0.000186669
6 *5928:A0 *5941:A0 0
7 *5928:A0 *6117:A 0.000315179
8 *5928:A0 *6119:A 4.48113e-05
9 *5928:A0 *6236:A 1.74352e-05
10 *5928:A0 *6386:CLK 0.000173083
11 *5928:A0 *6499:A 0
12 *5928:A0 *6547:A 3.38229e-05
13 *5928:A0 *6579:A 0.000241576
14 *5928:A0 *481:29 0
15 *5928:A0 *481:52 0
16 *5928:A0 *584:12 7.6644e-05
17 *5928:A0 *735:105 0
18 *226:133 *5928:A0 0
19 *226:183 *5928:A0 0
20 *226:204 *5928:A0 0
*RES
1 *5924:X *5928:A0 49.2607 
*END

*D_NET *228 0.000454655
*CONN
*I *5928:A1 I *D sky130_fd_sc_hd__mux2_1
*I *5925:X O *D sky130_fd_sc_hd__mux4_1
*CAP
1 *5928:A1 0.000127941
2 *5925:X 0.000127941
3 *5928:A1 *5925:A0 6.05161e-06
4 *5928:A1 *6499:A 6.05161e-06
5 *5928:A0 *5928:A1 0.000186669
*RES
1 *5925:X *5928:A1 21.1893 
*END

*D_NET *229 0.00479212
*CONN
*I *5998:S I *D sky130_fd_sc_hd__mux2_1
*I *5927:A I *D sky130_fd_sc_hd__buf_8
*I *5926:Y O *D sky130_fd_sc_hd__inv_2
*CAP
1 *5998:S 0.00130416
2 *5927:A 0.000108051
3 *5926:Y 6.65161e-05
4 *229:6 0.00147873
5 *5927:A *5926:A 0
6 *5927:A *709:177 0
7 *5927:A *712:39 5.33882e-05
8 *5998:S *5910:A0 0.000493339
9 *5998:S *5998:A0 9.90431e-05
10 *5998:S *5998:A1 3.93346e-05
11 *5998:S *6174:A 5.52302e-05
12 *5998:S *6209:A0 0.000211328
13 *5998:S *479:51 0.000615956
14 *5998:S *709:185 4.17014e-05
15 *229:6 *6174:A 9.90367e-05
16 *229:6 *709:185 1.74352e-05
17 *5910:S *5998:S 3.9532e-05
18 *5911:A *5998:S 1.39726e-05
19 *216:14 *5998:S 5.53678e-05
*RES
1 *5926:Y *229:6 10.6571 
2 *229:6 *5927:A 20.3714 
3 *229:6 *5998:S 36.1571 
*END

*D_NET *230 0.0571799
*CONN
*I *6258:A I *D sky130_fd_sc_hd__or3_1
*I *6276:A I *D sky130_fd_sc_hd__or4_1
*I *6267:A I *D sky130_fd_sc_hd__and2_1
*I *5968:S I *D sky130_fd_sc_hd__mux2_1
*I *5980:S I *D sky130_fd_sc_hd__mux2_1
*I *5962:S I *D sky130_fd_sc_hd__mux2_1
*I *5933:S I *D sky130_fd_sc_hd__mux2_1
*I *5944:S I *D sky130_fd_sc_hd__mux2_1
*I *5950:S I *D sky130_fd_sc_hd__mux2_1
*I *5928:S I *D sky130_fd_sc_hd__mux2_1
*I *5941:S I *D sky130_fd_sc_hd__mux2_1
*I *5989:S I *D sky130_fd_sc_hd__mux2_1
*I *5959:S I *D sky130_fd_sc_hd__mux2_1
*I *5953:S I *D sky130_fd_sc_hd__mux2_1
*I *5971:S I *D sky130_fd_sc_hd__mux2_1
*I *5977:S I *D sky130_fd_sc_hd__mux2_1
*I *5986:S I *D sky130_fd_sc_hd__mux2_1
*I *5995:S I *D sky130_fd_sc_hd__mux2_1
*I *5927:X O *D sky130_fd_sc_hd__buf_8
*CAP
1 *6258:A 0.000328842
2 *6276:A 0
3 *6267:A 0.000148193
4 *5968:S 0.00014395
5 *5980:S 0.000416717
6 *5962:S 0.00057632
7 *5933:S 0
8 *5944:S 0.000499317
9 *5950:S 0.00103582
10 *5928:S 2.76557e-05
11 *5941:S 0.000365331
12 *5989:S 0
13 *5959:S 3.98889e-05
14 *5953:S 0
15 *5971:S 0
16 *5977:S 5.40911e-05
17 *5986:S 0.000741558
18 *5995:S 0.000173025
19 *5927:X 0.000243259
20 *230:271 0.00026678
21 *230:263 0.00125327
22 *230:211 0.000987971
23 *230:157 0.00053797
24 *230:155 0.00153322
25 *230:140 0.00101789
26 *230:128 0.00215444
27 *230:122 0.00225318
28 *230:111 0.00171714
29 *230:98 0.00162122
30 *230:91 0.00189524
31 *230:81 0.00231055
32 *230:66 0.00232604
33 *230:41 0.00251872
34 *230:37 0.00173996
35 *230:16 0.00310848
36 *230:8 0.0026882
37 *5928:S *6499:A 2.89016e-05
38 *5941:S *6116:S 0.000216098
39 *5941:S *6386:CLK 0
40 *5941:S *6499:A 6.91215e-06
41 *5941:S *481:29 0
42 *5941:S *724:107 0.000146983
43 *5941:S *724:120 0.000613266
44 *5944:S *6089:S 0.00064246
45 *5944:S *231:22 4.25809e-05
46 *5944:S *351:119 0.000125731
47 *5950:S *5950:A1 3.25425e-05
48 *5950:S *6384:CLK 0.00012389
49 *5950:S *309:101 0.000170898
50 *5950:S *470:40 0.000103646
51 *5950:S *482:29 6.85604e-05
52 *5950:S *482:42 2.81787e-05
53 *5950:S *724:120 0.000272304
54 *5959:S *259:18 3.67142e-05
55 *5962:S *5933:A1 2.59355e-05
56 *5962:S *5963:A1 0
57 *5962:S *5963:S 0.000225314
58 *5962:S *6103:S 0
59 *5962:S *6373:CLK 0.000291755
60 *5962:S *6549:A 4.27935e-05
61 *5962:S *6556:A 0.000250208
62 *5962:S *351:111 0
63 *5968:S *239:180 5.21937e-05
64 *5977:S *5976:A2 1.39841e-05
65 *5977:S *5977:A0 9.90367e-05
66 *5977:S *5977:A1 4.97479e-05
67 *5980:S *5980:A0 4.01768e-05
68 *5980:S *6105:A0 1.55885e-05
69 *5980:S *6105:A1 6.05161e-06
70 *5980:S *6106:A 4.01768e-05
71 *5980:S *351:52 1.94879e-05
72 *5986:S *5986:A1 0.000282455
73 *5986:S *5990:A0 2.59355e-05
74 *5986:S *6146:A0 9.60939e-05
75 *5986:S *6146:A1 5.33005e-05
76 *5986:S *372:64 0.000590925
77 *5995:S *5995:A1 0
78 *5995:S *6130:S 2.09897e-05
79 *5995:S *6543:A 0
80 *6258:A *6253:A 5.66157e-05
81 *6258:A *6255:B 0.000100009
82 *6258:A *6258:B 0.000127446
83 *6258:A *6258:C 0
84 *6258:A *6259:B 0.000127446
85 *6258:A *239:117 0.000360109
86 *6258:A *713:8 0
87 *6267:A *6267:B 0.000186543
88 *6267:A *6269:A0 1.92789e-05
89 *6267:A *437:12 0.000171375
90 *6267:A *680:24 0.000285216
91 *230:8 *411:30 0
92 *230:8 *709:185 0.000172839
93 *230:8 *709:187 7.61856e-05
94 *230:16 *5995:A1 0
95 *230:16 *6130:A1 0.000123288
96 *230:16 *6130:S 0.000324335
97 *230:16 *287:22 0.000235321
98 *230:16 *479:30 0
99 *230:16 *636:90 0.00017152
100 *230:16 *712:53 0
101 *230:37 *239:180 0.000115141
102 *230:37 *712:53 0.000677223
103 *230:41 *5967:A1 3.88892e-05
104 *230:41 *6595:A 3.93893e-05
105 *230:41 *625:51 0.000542969
106 *230:41 *625:66 2.24646e-05
107 *230:66 *5977:A0 0.000350405
108 *230:66 *6036:A 2.6949e-05
109 *230:66 *6126:A1 0
110 *230:66 *6199:A1 0
111 *230:66 *6246:A 0
112 *230:66 *6444:CLK 0
113 *230:66 *6615:A 4.10338e-05
114 *230:66 *232:25 0.000363754
115 *230:66 *232:58 0.000836649
116 *230:66 *309:52 0
117 *230:66 *589:8 2.56601e-05
118 *230:66 *625:66 0.000404174
119 *230:66 *746:99 0
120 *230:66 *768:42 0
121 *230:81 *5976:A2 6.19181e-05
122 *230:81 *6033:S 0
123 *230:81 *6086:A 4.79842e-05
124 *230:81 *6105:A1 0
125 *230:81 *6126:A1 0
126 *230:81 *232:58 0.000137931
127 *230:81 *232:69 0.00131922
128 *230:81 *232:278 4.38265e-05
129 *230:81 *233:66 0
130 *230:91 *5970:A0 3.69697e-05
131 *230:91 *5971:A0 5.36878e-05
132 *230:91 *5971:A1 8.00806e-05
133 *230:91 *6160:A0 5.9563e-05
134 *230:91 *6160:A1 1.54142e-05
135 *230:91 *6160:S 9.71197e-05
136 *230:91 *232:81 2.38671e-05
137 *230:91 *233:66 0.00065682
138 *230:91 *270:12 0
139 *230:91 *484:34 0
140 *230:98 *6311:A 0.00014285
141 *230:98 *232:103 0.00049731
142 *230:98 *233:169 0.00026353
143 *230:98 *254:8 0.000137983
144 *230:111 *6005:A 2.56694e-05
145 *230:111 *6157:A 8.82699e-05
146 *230:111 *6404:CLK 0
147 *230:111 *233:169 0.000128496
148 *230:111 *298:73 0
149 *230:111 *298:77 0
150 *230:111 *382:53 6.32633e-05
151 *230:111 *382:68 2.34337e-05
152 *230:111 *486:57 0
153 *230:122 *259:18 0.000366944
154 *230:122 *485:10 0.000271352
155 *230:128 *5942:A0 0.000315179
156 *230:128 *5942:S0 2.0203e-05
157 *230:128 *5988:S1 0.000505328
158 *230:128 *6043:A0 4.15914e-05
159 *230:128 *6043:S 0.000419575
160 *230:128 *6072:A 7.83587e-05
161 *230:128 *6539:A 0.000250208
162 *230:128 *232:167 3.05661e-05
163 *230:128 *233:181 0
164 *230:128 *233:191 0
165 *230:128 *284:16 0
166 *230:128 *329:87 0
167 *230:140 *5988:A3 0.000374548
168 *230:140 *5988:S1 0
169 *230:140 *5989:A1 1.74352e-05
170 *230:140 *6089:S 0.000318107
171 *230:140 *6164:A1 0
172 *230:140 *6319:A 3.03395e-05
173 *230:140 *237:150 0.000197991
174 *230:140 *284:16 5.24908e-05
175 *230:140 *482:76 5.71472e-05
176 *230:140 *735:117 0
177 *230:155 *5989:A1 5.62995e-05
178 *230:155 *6110:A 0.000239146
179 *230:155 *482:76 0.000124969
180 *230:155 *482:93 1.40034e-05
181 *230:157 *6499:A 1.69115e-05
182 *230:157 *482:18 4.71257e-05
183 *230:157 *482:29 7.26935e-05
184 *230:157 *724:120 0.000388139
185 *230:211 *5931:A0 9.71197e-05
186 *230:211 *5933:A0 0.00013073
187 *230:211 *5933:A1 2.89016e-05
188 *230:211 *6060:A 0.000156276
189 *230:211 *6549:A 0.000357048
190 *230:211 *233:181 0
191 *230:211 *259:18 0
192 *230:211 *329:85 1.5942e-05
193 *230:211 *329:87 1.19402e-05
194 *230:211 *724:164 0.000181368
195 *230:263 *6256:A 0.000344943
196 *230:263 *6467:RESET_B 2.27812e-05
197 *230:263 *239:6 0.000135394
198 *230:271 *6253:B 0.000154122
199 *230:271 *239:6 2.59355e-05
200 *230:271 *239:10 0.000113865
201 *5916:S *230:66 8.5896e-05
202 *6338:D *230:111 0.000151333
203 *6352:D *230:66 0.000124534
204 *6368:D *230:128 0.000179278
205 *6373:D *5962:S 8.18231e-05
206 *6380:D *230:91 0
207 *6392:D *5986:S 4.72917e-05
208 *6404:D *230:111 0.00017309
209 *6418:D *5986:S 5.7661e-06
210 *6468:D *230:263 5.33334e-05
211 *6470:D *6258:A 0
212 *16:5 *230:111 0.000369674
213 *225:245 *6258:A 0
214 *225:262 *6267:A 0.000171375
*RES
1 *5927:X *230:8 19.5411 
2 *230:8 *230:16 14.8453 
3 *230:16 *5995:S 15.8982 
4 *230:16 *230:37 17.4544 
5 *230:37 *230:41 11.9107 
6 *230:41 *5986:S 26.4429 
7 *230:41 *230:66 35.8036 
8 *230:66 *5977:S 15.6036 
9 *230:66 *230:81 20.1607 
10 *230:81 *230:91 29.5 
11 *230:91 *5971:S 9.3 
12 *230:91 *230:98 17.375 
13 *230:98 *5953:S 9.3 
14 *230:98 *230:111 27.7857 
15 *230:111 *5959:S 10.2464 
16 *230:111 *230:122 15.75 
17 *230:122 *230:128 34.625 
18 *230:128 *230:140 21.3929 
19 *230:140 *5989:S 9.3 
20 *230:140 *230:155 12.1786 
21 *230:155 *230:157 4.98214 
22 *230:157 *5941:S 23.6393 
23 *230:157 *5928:S 14.3357 
24 *230:155 *5950:S 29.6214 
25 *230:128 *5944:S 26.2286 
26 *230:122 *230:211 20.2857 
27 *230:211 *5933:S 9.3 
28 *230:211 *5962:S 31.4071 
29 *230:81 *5980:S 21.3179 
30 *230:37 *5968:S 11.4964 
31 *230:8 *230:263 18.7679 
32 *230:263 *230:271 3 
33 *230:271 *6267:A 23.5679 
34 *230:271 *6276:A 9.3 
35 *230:263 *6258:A 26.675 
*END

*D_NET *231 0.0088323
*CONN
*I *5935:A0 I *D sky130_fd_sc_hd__mux2_1
*I *5928:X O *D sky130_fd_sc_hd__mux2_1
*CAP
1 *5935:A0 0
2 *5928:X 0.00166486
3 *231:22 0.00156642
4 *231:14 0.00323128
5 *231:14 *6164:A0 8.70144e-05
6 *231:14 *6164:S 5.76121e-05
7 *231:14 *6165:A 2.27416e-05
8 *231:14 *6346:CLK 8.55687e-05
9 *231:14 *6574:A 4.88515e-05
10 *231:14 *482:18 0
11 *231:14 *482:29 0
12 *231:22 *5944:A0 9.96238e-05
13 *231:22 *5945:A0 0
14 *231:22 *6062:A 0.000127446
15 *231:22 *6071:A0 0.00016727
16 *231:22 *6100:A 0.000314692
17 *231:22 *6109:S 2.11419e-05
18 *231:22 *6646:A 0
19 *231:22 *237:169 0.00107396
20 *231:22 *351:111 0
21 *231:22 *351:119 0
22 *231:22 *470:52 0
23 *231:22 *622:12 0.000117968
24 *231:22 *724:179 0
25 *5944:S *231:22 4.25809e-05
26 *6379:D *231:22 0.000103267
27 *226:204 *231:14 0
*RES
1 *5928:X *231:14 43.55 
2 *231:14 *231:22 42.625 
3 *231:22 *5935:A0 9.3 
*END

*D_NET *232 0.0588048
*CONN
*I *5985:S0 I *D sky130_fd_sc_hd__mux4_1
*I *5978:S0 I *D sky130_fd_sc_hd__mux4_1
*I *5996:S0 I *D sky130_fd_sc_hd__mux4_1
*I *5979:S0 I *D sky130_fd_sc_hd__mux4_1
*I *5970:S0 I *D sky130_fd_sc_hd__mux4_1
*I *5969:S0 I *D sky130_fd_sc_hd__mux4_1
*I *5960:S0 I *D sky130_fd_sc_hd__mux4_1
*I *5961:S0 I *D sky130_fd_sc_hd__mux4_1
*I *5931:S0 I *D sky130_fd_sc_hd__mux4_1
*I *5987:S0 I *D sky130_fd_sc_hd__mux4_1
*I *5943:S0 I *D sky130_fd_sc_hd__mux4_1
*I *5932:S0 I *D sky130_fd_sc_hd__mux4_1
*I *5942:S0 I *D sky130_fd_sc_hd__mux4_1
*I *5951:S0 I *D sky130_fd_sc_hd__mux4_1
*I *5952:S0 I *D sky130_fd_sc_hd__mux4_1
*I *5976:S0 I *D sky130_fd_sc_hd__mux4_1
*I *5988:S0 I *D sky130_fd_sc_hd__mux4_1
*I *5994:S0 I *D sky130_fd_sc_hd__mux4_1
*I *5929:X O *D sky130_fd_sc_hd__buf_8
*CAP
1 *5985:S0 0.000218137
2 *5978:S0 0.000493629
3 *5996:S0 0.00103511
4 *5979:S0 4.24062e-05
5 *5970:S0 0
6 *5969:S0 0.000404026
7 *5960:S0 2.60844e-05
8 *5961:S0 0.000749289
9 *5931:S0 0
10 *5987:S0 1.1624e-05
11 *5943:S0 0.000180811
12 *5932:S0 0.00137583
13 *5942:S0 4.51612e-05
14 *5951:S0 2.9462e-05
15 *5952:S0 0.00015337
16 *5976:S0 1.1624e-05
17 *5988:S0 0.00214812
18 *5994:S0 0.000228349
19 *5929:X 0
20 *232:289 0.0018195
21 *232:278 0.00086847
22 *232:184 0.00206241
23 *232:167 0.00146548
24 *232:157 0.00161793
25 *232:151 0.00109465
26 *232:143 0.00176717
27 *232:141 0.0016985
28 *232:118 0.00154916
29 *232:103 0.00190278
30 *232:85 0.00179367
31 *232:81 0.000697052
32 *232:69 0.00182245
33 *232:58 0.0017618
34 *232:25 0.00347766
35 *232:21 0.00216595
36 *232:4 0.00190421
37 *5932:S0 *5932:A0 0
38 *5932:S0 *5932:A1 0.000116757
39 *5932:S0 *5944:A1 7.97806e-05
40 *5932:S0 *6061:A1 0.000258126
41 *5932:S0 *6079:A0 4.15914e-05
42 *5932:S0 *6080:A 4.15914e-05
43 *5932:S0 *6089:S 0
44 *5932:S0 *6306:S 0
45 *5932:S0 *6527:A 0
46 *5932:S0 *6644:A 0.000250208
47 *5932:S0 *339:81 0
48 *5932:S0 *351:111 0.00021189
49 *5932:S0 *351:119 2.84494e-05
50 *5942:S0 *5988:S1 9.25014e-06
51 *5943:S0 *5943:A0 0.000191187
52 *5943:S0 *5944:A1 8.69193e-05
53 *5943:S0 *6089:S 0.000195731
54 *5951:S0 *5951:A0 7.49933e-05
55 *5951:S0 *5951:A2 1.15172e-05
56 *5952:S0 *5952:A0 1.19402e-05
57 *5952:S0 *5952:A2 9.90431e-05
58 *5952:S0 *5952:A3 0
59 *5952:S0 *5952:S1 0
60 *5952:S0 *351:101 0.00010096
61 *5952:S0 *746:31 0
62 *5960:S0 *5960:A1 0.000186669
63 *5960:S0 *5960:A3 0.000186669
64 *5961:S0 *5961:A1 0.000148166
65 *5961:S0 *5962:A1 0.000117786
66 *5961:S0 *351:111 0.000212324
67 *5969:S0 *5969:A3 1.41706e-05
68 *5969:S0 *6068:A 0
69 *5969:S0 *6105:A0 0
70 *5969:S0 *6358:CLK 0.000200413
71 *5969:S0 *6492:CLK 0.00052537
72 *5969:S0 *233:81 0
73 *5969:S0 *768:32 0.00015739
74 *5976:S0 *5976:A3 5.52238e-05
75 *5976:S0 *233:41 5.52238e-05
76 *5978:S0 *5978:A3 1.99099e-05
77 *5978:S0 *5979:S1 4.98394e-05
78 *5978:S0 *6014:S 0
79 *5978:S0 *6070:A 0
80 *5978:S0 *233:106 4.04872e-05
81 *5978:S0 *298:33 0
82 *5978:S0 *460:31 0.000175519
83 *5985:S0 *5985:A0 0.000136678
84 *5985:S0 *5985:A2 3.81416e-06
85 *5987:S0 *5987:A2 5.52238e-05
86 *5987:S0 *5987:A3 5.52238e-05
87 *5988:S0 *5985:A1 3.61629e-06
88 *5988:S0 *5985:A3 4.46641e-05
89 *5988:S0 *5988:A3 1.95906e-05
90 *5988:S0 *6036:A 5.71472e-05
91 *5988:S0 *6630:A 7.17136e-05
92 *5988:S0 *237:150 0.000105136
93 *5988:S0 *284:16 8.34352e-05
94 *5988:S0 *309:52 0.00018077
95 *5988:S0 *470:40 0.00354246
96 *5988:S0 *669:14 0.000630538
97 *5988:S0 *768:44 8.78131e-05
98 *5994:S0 *5994:A0 9.25014e-06
99 *5994:S0 *5994:A1 0
100 *5994:S0 *5997:S0 8.36572e-05
101 *5994:S0 *6201:A0 4.99081e-05
102 *5994:S0 *428:75 0.000386819
103 *5994:S0 *790:33 0.000131628
104 *5996:S0 *5979:A1 2.59042e-05
105 *5996:S0 *5996:A1 6.4915e-05
106 *5996:S0 *5996:A2 5.52238e-05
107 *5996:S0 *6074:A 0
108 *5996:S0 *319:12 6.65302e-05
109 *232:21 *5985:A2 1.05901e-05
110 *232:21 *5997:S0 6.4443e-05
111 *232:21 *6353:CLK 1.07719e-05
112 *232:21 *6400:CLK 0.000122055
113 *232:21 *6506:A 1.92905e-05
114 *232:21 *489:21 7.49387e-06
115 *232:25 *5985:A1 0.000511411
116 *232:25 *233:41 0
117 *232:58 *233:41 0.000285881
118 *232:69 *5976:A0 0
119 *232:69 *5976:A1 0
120 *232:69 *5981:A0 0
121 *232:69 *6087:A0 0
122 *232:69 *6162:A0 0
123 *232:69 *6197:A0 0
124 *232:69 *6572:A 0
125 *232:81 *5970:A0 7.77751e-05
126 *232:81 *5970:A3 0
127 *232:81 *6105:A1 0.000170654
128 *232:81 *233:66 6.12902e-05
129 *232:81 *351:79 5.06983e-05
130 *232:81 *768:32 0
131 *232:81 *768:36 1.58163e-05
132 *232:81 *768:38 8.15095e-05
133 *232:85 *351:79 1.69497e-05
134 *232:85 *768:32 8.68569e-05
135 *232:103 *5970:A1 0.000266486
136 *232:103 *270:8 5.52238e-05
137 *232:103 *620:6 5.33005e-05
138 *232:118 *5951:A1 9.69119e-06
139 *232:118 *5952:S1 0
140 *232:118 *6101:A0 0
141 *232:118 *6311:A 0
142 *232:118 *6490:CLK 0
143 *232:118 *233:150 0
144 *232:118 *757:56 0
145 *232:141 *5951:A0 0.000206272
146 *232:141 *5951:A2 7.40946e-05
147 *232:141 *5953:A0 5.03772e-05
148 *232:141 *5960:A0 3.67364e-05
149 *232:141 *5960:A3 0.000268409
150 *232:141 *6294:A0 0.000180777
151 *232:141 *6294:S 0.000109795
152 *232:141 *6295:A 0.00018051
153 *232:141 *319:105 0
154 *232:141 *486:93 9.60875e-05
155 *232:143 *5960:A2 0
156 *232:143 *5960:S1 0
157 *232:143 *6010:A0 7.83659e-05
158 *232:143 *233:171 0
159 *232:143 *319:105 6.34196e-05
160 *232:143 *486:34 2.26327e-05
161 *232:143 *528:12 0.000117189
162 *232:151 *5931:A0 5.76321e-06
163 *232:151 *5931:A1 0
164 *232:151 *5931:A2 6.98553e-06
165 *232:151 *5931:A3 6.42095e-05
166 *232:151 *233:171 0
167 *232:151 *233:175 4.25716e-05
168 *232:151 *486:34 0.000162722
169 *232:151 *528:12 9.25014e-06
170 *232:157 *5931:A1 9.25014e-06
171 *232:157 *5931:A3 5.33005e-05
172 *232:157 *5987:A0 0.000348111
173 *232:157 *6053:A1 0.000175118
174 *232:157 *6288:A0 0.000171368
175 *232:157 *6502:A 6.65302e-05
176 *232:157 *6651:A 0.000134504
177 *232:157 *319:109 0.000169158
178 *232:157 *460:78 0
179 *232:157 *460:80 0
180 *232:157 *479:238 0.000106565
181 *232:157 *485:10 0
182 *232:157 *625:142 3.55008e-05
183 *232:157 *724:151 6.81366e-05
184 *232:167 *5942:A0 4.38136e-05
185 *232:167 *5942:A2 3.97925e-05
186 *232:167 *5987:A0 4.46186e-06
187 *232:167 *6043:A0 7.83659e-05
188 *232:167 *6043:S 0.000246064
189 *232:167 *6290:S 0
190 *232:167 *6300:A0 0.000100823
191 *232:167 *6355:CLK 0.000103285
192 *232:167 *237:169 0
193 *232:167 *485:90 2.58997e-05
194 *232:167 *625:142 0.000115072
195 *232:184 *5942:A2 5.01876e-06
196 *232:184 *5942:A3 6.73313e-05
197 *232:184 *5944:A1 3.67257e-05
198 *232:184 *5945:A0 0.000189914
199 *232:184 *5988:S1 0.000181916
200 *232:184 *6089:S 0.000661827
201 *232:184 *6570:A 1.33343e-05
202 *232:184 *6646:A 0.000128941
203 *232:184 *237:150 0.00019484
204 *232:278 *5979:S1 9.71118e-06
205 *232:278 *351:52 0.00033124
206 *232:278 *479:188 0.000405068
207 *232:278 *492:8 0
208 *232:289 *5979:S1 0.000149809
209 *232:289 *6493:CLK 0
210 *5916:S *232:58 0.000172368
211 *6327:D *232:58 0.000150618
212 *6351:D *232:69 0
213 *6352:D *5988:S0 4.88631e-05
214 *6366:D *5969:S0 0
215 *6369:D *5996:S0 0.00014183
216 *6381:D *5961:S0 3.18676e-05
217 *6400:D *232:21 2.81046e-05
218 *6490:D *232:118 0.000150618
219 *6493:D *5996:S0 3.32132e-06
220 *6493:D *232:289 5.01117e-05
221 *226:85 *5994:S0 0
222 *230:66 *232:25 0.000363754
223 *230:66 *232:58 0.000836649
224 *230:81 *232:58 0.000137931
225 *230:81 *232:69 0.00131922
226 *230:81 *232:278 4.38265e-05
227 *230:91 *232:81 2.38671e-05
228 *230:98 *232:103 0.00049731
229 *230:128 *5942:S0 2.0203e-05
230 *230:128 *232:167 3.05661e-05
*RES
1 *5929:X *232:4 9.3 
2 *232:4 *5994:S0 24.6393 
3 *232:4 *232:21 20.1607 
4 *232:21 *232:25 13.4286 
5 *232:25 *5988:S0 43.5803 
6 *232:25 *232:58 26.2857 
7 *232:58 *5976:S0 14.3357 
8 *232:58 *232:69 16.8214 
9 *232:69 *232:81 23.0714 
10 *232:81 *232:85 6.75 
11 *232:85 *232:103 28.8571 
12 *232:103 *5952:S0 16.9964 
13 *232:103 *232:118 12.5179 
14 *232:118 *5951:S0 10.2643 
15 *232:118 *232:141 25.6607 
16 *232:141 *232:143 11.6607 
17 *232:143 *232:151 11.4821 
18 *232:151 *232:157 23.0714 
19 *232:157 *232:167 24.4911 
20 *232:167 *5942:S0 14.9161 
21 *232:167 *232:184 19.1696 
22 *232:184 *5932:S0 47.6036 
23 *232:184 *5943:S0 14.5143 
24 *232:157 *5987:S0 14.3357 
25 *232:151 *5931:S0 9.3 
26 *232:143 *5961:S0 28.5857 
27 *232:141 *5960:S0 15.5679 
28 *232:85 *5969:S0 24.2464 
29 *232:81 *5970:S0 9.3 
30 *232:69 *232:278 9.82938 
31 *232:278 *5979:S0 14.3357 
32 *232:278 *232:289 5.74107 
33 *232:289 *5996:S0 37.5589 
34 *232:289 *5978:S0 23.5411 
35 *232:21 *5985:S0 12.3179 
*END

*D_NET *233 0.0517704
*CONN
*I *5985:S1 I *D sky130_fd_sc_hd__mux4_1
*I *5960:S1 I *D sky130_fd_sc_hd__mux4_1
*I *5932:S1 I *D sky130_fd_sc_hd__mux4_1
*I *5943:S1 I *D sky130_fd_sc_hd__mux4_1
*I *5961:S1 I *D sky130_fd_sc_hd__mux4_1
*I *5931:S1 I *D sky130_fd_sc_hd__mux4_1
*I *5987:S1 I *D sky130_fd_sc_hd__mux4_1
*I *5988:S1 I *D sky130_fd_sc_hd__mux4_1
*I *5942:S1 I *D sky130_fd_sc_hd__mux4_1
*I *5952:S1 I *D sky130_fd_sc_hd__mux4_1
*I *5951:S1 I *D sky130_fd_sc_hd__mux4_1
*I *5978:S1 I *D sky130_fd_sc_hd__mux4_1
*I *5996:S1 I *D sky130_fd_sc_hd__mux4_1
*I *5979:S1 I *D sky130_fd_sc_hd__mux4_1
*I *5969:S1 I *D sky130_fd_sc_hd__mux4_1
*I *5970:S1 I *D sky130_fd_sc_hd__mux4_1
*I *5976:S1 I *D sky130_fd_sc_hd__mux4_1
*I *5994:S1 I *D sky130_fd_sc_hd__mux4_1
*I *5930:X O *D sky130_fd_sc_hd__buf_6
*CAP
1 *5985:S1 0.000715598
2 *5960:S1 0.000466649
3 *5932:S1 4.63547e-05
4 *5943:S1 0.00137691
5 *5961:S1 0.000121377
6 *5931:S1 5.24844e-05
7 *5987:S1 2.0911e-05
8 *5988:S1 0.000518636
9 *5942:S1 0.000110821
10 *5952:S1 0.000174177
11 *5951:S1 3.19299e-05
12 *5978:S1 0
13 *5996:S1 0.000698807
14 *5979:S1 0.000387657
15 *5969:S1 0
16 *5970:S1 0
17 *5976:S1 0
18 *5994:S1 0.000136057
19 *5930:X 2.52229e-05
20 *233:264 0.00216624
21 *233:247 0.00146213
22 *233:191 0.00110086
23 *233:181 0.00139297
24 *233:175 0.0011383
25 *233:171 0.00117536
26 *233:169 0.0019825
27 *233:150 0.00161653
28 *233:139 0.00202412
29 *233:106 0.00150503
30 *233:98 0.00165646
31 *233:92 0.00294484
32 *233:81 0.00064163
33 *233:66 0.0017443
34 *233:45 0.00115801
35 *233:41 0.00206864
36 *233:31 0.00370333
37 *233:6 0.00110202
38 *5931:S1 *5931:A0 3.4879e-05
39 *5932:S1 *5932:A1 3.67142e-05
40 *5942:S1 *5942:A1 0.000213169
41 *5942:S1 *5942:A2 2.524e-05
42 *5942:S1 *6043:A0 8.52065e-05
43 *5943:S1 *5932:A2 0
44 *5943:S1 *5932:A3 0
45 *5943:S1 *5944:A1 3.4879e-05
46 *5943:S1 *6152:A1 4.57445e-05
47 *5943:S1 *6306:A0 0
48 *5943:S1 *382:74 0
49 *5943:S1 *382:80 4.1331e-06
50 *5943:S1 *735:162 0.000298877
51 *5952:S1 *5952:A1 6.5185e-05
52 *5952:S1 *5952:A3 0
53 *5952:S1 *6311:A 4.46186e-06
54 *5952:S1 *254:10 3.26873e-05
55 *5960:S1 *5960:A1 3.17163e-05
56 *5960:S1 *5960:A2 6.08836e-05
57 *5960:S1 *5962:A0 0
58 *5960:S1 *6066:A 0
59 *5960:S1 *6104:A 9.42698e-05
60 *5960:S1 *329:85 6.45111e-05
61 *5961:S1 *6083:S 0
62 *5961:S1 *515:10 0
63 *5979:S1 *6317:A 0.000317602
64 *5979:S1 *470:100 0
65 *5979:S1 *779:43 0
66 *5979:S1 *779:54 6.90781e-05
67 *5985:S1 *5985:A0 4.58194e-05
68 *5985:S1 *362:51 0.00012401
69 *5985:S1 *372:30 0
70 *5985:S1 *372:64 0.000227247
71 *5985:S1 *372:74 2.44318e-05
72 *5987:S1 *5987:A2 2.49484e-05
73 *5987:S1 *6071:A1 5.80706e-06
74 *5987:S1 *284:16 1.12323e-05
75 *5988:S1 *5945:A0 0
76 *5988:S1 *5988:A0 0.000112648
77 *5988:S1 *6164:A1 0.000215896
78 *5988:S1 *6319:A 0.000146513
79 *5988:S1 *6570:A 4.56498e-05
80 *5988:S1 *237:150 0.000262099
81 *5988:S1 *482:93 0.000167816
82 *5994:S1 *6130:S 7.72892e-05
83 *5994:S1 *6195:S 4.87953e-05
84 *5994:S1 *636:84 0.000218128
85 *5996:S1 *6345:CLK 5.30637e-06
86 *5996:S1 *292:8 7.02611e-05
87 *233:6 *5997:S1 5.52238e-05
88 *233:31 *5994:A1 0.000102736
89 *233:31 *5997:S1 0.000125547
90 *233:31 *6147:A 5.71472e-05
91 *233:31 *6353:CLK 0.000144056
92 *233:31 *372:74 0.000794157
93 *233:41 *5975:A2 0.000313458
94 *233:41 *5976:A2 1.14548e-05
95 *233:41 *5976:A3 8.86512e-05
96 *233:41 *5981:A0 0
97 *233:41 *5985:A1 0.000162625
98 *233:41 *6147:A 0
99 *233:41 *6179:A0 0
100 *233:41 *6352:CLK 0
101 *233:41 *6518:A 0
102 *233:41 *6587:A 4.15914e-05
103 *233:41 *6626:A 0.000246064
104 *233:41 *237:86 0
105 *233:41 *391:151 0.00012401
106 *233:41 *779:79 0
107 *233:41 *779:81 0
108 *233:45 *5976:A2 2.94103e-05
109 *233:45 *6126:A1 1.78447e-05
110 *233:66 *5970:A2 4.46186e-06
111 *233:66 *5970:A3 4.94362e-05
112 *233:66 *6033:S 0.000175519
113 *233:66 *6086:A 6.42338e-05
114 *233:66 *6126:A1 0.00023778
115 *233:66 *6160:A1 0.00018372
116 *233:66 *6160:S 9.25014e-06
117 *233:66 *270:12 5.66471e-05
118 *233:66 *768:32 0
119 *233:66 *768:36 0.000269422
120 *233:66 *768:38 0
121 *233:66 *768:42 0
122 *233:81 *5969:A0 3.34687e-05
123 *233:81 *5970:A2 4.47013e-05
124 *233:81 *5971:A0 0
125 *233:81 *6068:A 0.000158192
126 *233:81 *6553:A 0.000105582
127 *233:81 *6589:A 0.000247778
128 *233:81 *270:12 5.41258e-05
129 *233:81 *768:32 0
130 *233:92 *6068:A 8.32171e-05
131 *233:98 *5969:A0 6.69718e-06
132 *233:98 *5969:A2 0.000505998
133 *233:98 *5978:A0 0.000152981
134 *233:98 *540:6 5.52238e-05
135 *233:106 *6070:A 0.000150618
136 *233:106 *779:33 0.000251737
137 *233:106 *779:43 0
138 *233:139 *5951:A0 4.79842e-05
139 *233:139 *5969:A0 1.20814e-05
140 *233:139 *6008:A0 8.27184e-06
141 *233:139 *6063:S 0.000125684
142 *233:139 *6364:CLK 0.000183324
143 *233:150 *5951:A0 2.88517e-05
144 *233:150 *5952:A1 6.28257e-05
145 *233:150 *5953:A0 0
146 *233:150 *6063:S 7.50697e-05
147 *233:150 *6311:A 0.00017364
148 *233:150 *6613:A 8.6769e-05
149 *233:171 *6041:A0 7.83659e-05
150 *233:171 *6104:A 0
151 *233:171 *329:85 0
152 *233:171 *724:164 0
153 *233:175 *259:18 4.46186e-06
154 *233:175 *486:34 0
155 *233:175 *724:164 0
156 *233:181 *5931:A2 0.00013438
157 *233:181 *6053:A0 2.56694e-05
158 *233:181 *6053:A1 0
159 *233:181 *6071:A1 6.75651e-05
160 *233:181 *259:18 0.000133361
161 *233:181 *319:109 0
162 *233:181 *485:10 0
163 *233:181 *485:14 0
164 *233:181 *486:10 0
165 *233:181 *486:34 0
166 *233:181 *534:16 7.2754e-05
167 *233:191 *5942:A0 0.00010096
168 *233:191 *5942:A1 0.000143888
169 *233:191 *6006:A0 8.9904e-05
170 *233:191 *6291:A 0
171 *233:191 *284:16 0.000690102
172 *233:247 *5964:A0 0.000534229
173 *233:247 *6373:CLK 6.82199e-05
174 *233:247 *339:65 0.000454894
175 *233:247 *515:10 5.71472e-05
176 *233:247 *724:164 0.000316184
177 *233:264 *5932:A3 0
178 *233:264 *5933:A1 0.000214284
179 *233:264 *5964:A0 0.000260954
180 *233:264 *6306:A0 0
181 *233:264 *382:74 0
182 *5917:A *233:41 3.32442e-05
183 *5942:S0 *5988:S1 9.25014e-06
184 *5952:S0 *5952:S1 0
185 *5969:S0 *233:81 0
186 *5976:S0 *233:41 5.52238e-05
187 *5978:S0 *5979:S1 4.98394e-05
188 *5978:S0 *233:106 4.04872e-05
189 *6327:D *233:41 5.26091e-05
190 *6331:D *5943:S1 3.79467e-05
191 *6340:D *233:139 5.39166e-06
192 *6342:D *233:98 9.07255e-05
193 *6362:D *233:181 0.000153047
194 *6364:D *233:139 2.15245e-05
195 *6368:D *233:181 0.000468494
196 *6368:D *233:191 0
197 *6373:D *233:247 1.64343e-05
198 *6381:D *233:171 8.06331e-05
199 *6392:D *5985:S1 8.35809e-05
200 *6424:D *233:41 0
201 *16:5 *233:139 0
202 *230:81 *233:66 0
203 *230:91 *233:66 0.00065682
204 *230:98 *233:169 0.00026353
205 *230:111 *233:169 0.000128496
206 *230:128 *5988:S1 0.000505328
207 *230:128 *233:181 0
208 *230:128 *233:191 0
209 *230:140 *5988:S1 0
210 *230:211 *233:181 0
211 *232:25 *233:41 0
212 *232:58 *233:41 0.000285881
213 *232:81 *233:66 6.12902e-05
214 *232:118 *5952:S1 0
215 *232:118 *233:150 0
216 *232:143 *5960:S1 0
217 *232:143 *233:171 0
218 *232:151 *233:171 0
219 *232:151 *233:175 4.25716e-05
220 *232:184 *5988:S1 0.000181916
221 *232:278 *5979:S1 9.71118e-06
222 *232:289 *5979:S1 0.000149809
*RES
1 *5930:X *233:6 9.83571 
2 *233:6 *5994:S1 22.1036 
3 *233:6 *233:31 17.5714 
4 *233:31 *233:41 48.1786 
5 *233:41 *233:45 5.23214 
6 *233:45 *5976:S1 13.8 
7 *233:45 *233:66 35.9286 
8 *233:66 *5970:S1 13.8 
9 *233:66 *233:81 13.1607 
10 *233:81 *5969:S1 13.8 
11 *233:81 *233:92 5.53571 
12 *233:92 *233:98 17 
13 *233:98 *233:106 13.8036 
14 *233:106 *5979:S1 22.4607 
15 *233:106 *5996:S1 25.0321 
16 *233:98 *5978:S1 9.3 
17 *233:92 *233:139 25.8571 
18 *233:139 *5951:S1 14.3357 
19 *233:139 *233:150 7.71429 
20 *233:150 *5952:S1 17.1214 
21 *233:150 *233:169 27.6071 
22 *233:169 *233:171 7.41071 
23 *233:171 *233:175 3.19643 
24 *233:175 *233:181 20.0804 
25 *233:181 *233:191 17.2411 
26 *233:191 *5942:S1 13.2821 
27 *233:191 *5988:S1 32.8536 
28 *233:181 *5987:S1 14.6839 
29 *233:175 *5931:S1 14.7464 
30 *233:171 *233:247 19.6964 
31 *233:247 *5961:S1 20.2464 
32 *233:247 *233:264 19.6607 
33 *233:264 *5943:S1 39.8179 
34 *233:264 *5932:S1 14.7464 
35 *233:169 *5960:S1 24.5857 
36 *233:31 *5985:S1 28.4071 
*END

*D_NET *234 0.0009776
*CONN
*I *5933:A0 I *D sky130_fd_sc_hd__mux2_1
*I *5931:X O *D sky130_fd_sc_hd__mux4_1
*CAP
1 *5933:A0 0.000370169
2 *5931:X 0.000370169
3 *5933:A0 *5931:A0 0.000106533
4 *5933:A0 *724:164 0
5 *230:211 *5933:A0 0.00013073
*RES
1 *5931:X *5933:A0 32.8679 
*END

*D_NET *235 0.00283282
*CONN
*I *5933:A1 I *D sky130_fd_sc_hd__mux2_1
*I *5932:X O *D sky130_fd_sc_hd__mux4_1
*CAP
1 *5933:A1 0.00110263
2 *5932:X 0.00110263
3 *5933:A1 *5932:A1 2.22891e-05
4 *5933:A1 *6077:A0 3.92854e-05
5 *5933:A1 *6306:A0 0.000103267
6 *5933:A1 *6549:A 3.48705e-05
7 *5933:A1 *6639:A 2.58997e-05
8 *5933:A1 *382:74 0.000132833
9 *5962:S *5933:A1 2.59355e-05
10 *230:211 *5933:A1 2.89016e-05
11 *233:264 *5933:A1 0.000214284
*RES
1 *5932:X *5933:A1 47.9929 
*END

*D_NET *236 0.000666145
*CONN
*I *5935:A1 I *D sky130_fd_sc_hd__mux2_1
*I *5933:X O *D sky130_fd_sc_hd__mux2_1
*CAP
1 *5935:A1 0.00010975
2 *5933:X 0.00010975
3 *5935:A1 *5937:A0 0.000126639
4 *5935:A1 *5963:S 0
5 *5935:A1 *6370:CLK 4.72818e-05
6 *5935:A1 *237:169 0.000142856
7 *5935:A1 *329:85 0.000129868
*RES
1 *5933:X *5935:A1 31.4214 
*END

*D_NET *237 0.0402795
*CONN
*I *5999:S I *D sky130_fd_sc_hd__mux2_1
*I *5990:S I *D sky130_fd_sc_hd__mux2_1
*I *5954:S I *D sky130_fd_sc_hd__mux2_1
*I *5935:S I *D sky130_fd_sc_hd__mux2_1
*I *5963:S I *D sky130_fd_sc_hd__mux2_1
*I *5945:S I *D sky130_fd_sc_hd__mux2_1
*I *5972:S I *D sky130_fd_sc_hd__mux2_1
*I *5981:S I *D sky130_fd_sc_hd__mux2_1
*I *6259:A I *D sky130_fd_sc_hd__xnor2_1
*I *6268:A I *D sky130_fd_sc_hd__xnor2_1
*I *6275:A I *D sky130_fd_sc_hd__inv_2
*I *6271:B1 I *D sky130_fd_sc_hd__a31o_1
*I *5934:X O *D sky130_fd_sc_hd__clkbuf_8
*CAP
1 *5999:S 0
2 *5990:S 0
3 *5954:S 0
4 *5935:S 0
5 *5963:S 0.000254159
6 *5945:S 2.20861e-05
7 *5972:S 0.000204453
8 *5981:S 2.52229e-05
9 *6259:A 0
10 *6268:A 0
11 *6275:A 0
12 *6271:B1 0.000236119
13 *5934:X 0
14 *237:169 0.00135676
15 *237:150 0.0025917
16 *237:124 0.00360008
17 *237:112 0.00226516
18 *237:97 0.00141063
19 *237:86 0.00191062
20 *237:80 0.00417318
21 *237:66 0.0018314
22 *237:24 0.000631643
23 *237:14 0.000553042
24 *237:12 0.000691998
25 *237:4 0.00115219
26 *5945:S *6646:A 3.57366e-05
27 *5963:S *329:85 0
28 *5963:S *351:111 0
29 *5972:S *5972:A1 0
30 *5972:S *5986:A0 0
31 *5972:S *362:51 0
32 *5981:S *5981:A0 5.52238e-05
33 *6271:B1 *797:19 0.000145733
34 *237:12 *5934:A 0.000401758
35 *237:12 *239:134 8.18698e-05
36 *237:12 *239:160 0.00061121
37 *237:14 *6269:A0 0.000100625
38 *237:14 *239:134 6.86792e-05
39 *237:14 *711:109 8.18783e-05
40 *237:24 *6258:C 0
41 *237:24 *6268:B 6.42338e-05
42 *237:24 *6269:A0 0.000174782
43 *237:24 *239:16 0
44 *237:24 *239:30 0
45 *237:24 *287:24 0.00014285
46 *237:24 *437:12 1.00375e-05
47 *237:24 *709:10 0
48 *237:24 *709:17 0
49 *237:24 *711:109 5.76121e-05
50 *237:24 *797:19 0
51 *237:66 *5934:A 0.000230475
52 *237:66 *6130:A1 0
53 *237:66 *6401:CLK 5.33005e-05
54 *237:66 *239:160 0.000846334
55 *237:66 *239:168 0.000888379
56 *237:66 *567:8 0.00032033
57 *237:80 *5995:A1 0
58 *237:80 *6130:A1 2.9214e-06
59 *237:80 *6130:S 0.000317082
60 *237:80 *6131:A 0.000276524
61 *237:80 *6505:A 6.33995e-05
62 *237:80 *6542:A 4.70078e-05
63 *237:80 *239:168 3.57315e-05
64 *237:80 *658:30 0.000264178
65 *237:80 *768:69 0.000146523
66 *237:86 *6037:A0 2.56694e-05
67 *237:86 *6147:A 0
68 *237:86 *6195:S 0
69 *237:86 *6215:A0 0
70 *237:86 *6215:A1 0.00042821
71 *237:86 *6320:A0 0
72 *237:86 *6352:CLK 0.000175036
73 *237:86 *6533:A 5.93692e-05
74 *237:86 *6626:A 0
75 *237:86 *382:16 0.000344088
76 *237:86 *391:122 0.000135783
77 *237:86 *470:18 0
78 *237:86 *470:40 1.94945e-05
79 *237:86 *779:79 0.00030978
80 *237:86 *779:81 0.000405497
81 *237:97 *6031:A0 0.00010528
82 *237:97 *6031:A1 5.62995e-05
83 *237:97 *6031:S 0.000190838
84 *237:97 *6595:A 1.39726e-05
85 *237:97 *768:69 0.000171023
86 *237:112 *5990:A1 0.000139907
87 *237:112 *362:51 0
88 *237:112 *372:36 0.000112418
89 *237:124 *5990:A1 9.22103e-06
90 *237:124 *6025:S 0.000267814
91 *237:124 *6134:A0 8.18698e-05
92 *237:124 *6134:S 0.000346534
93 *237:124 *6545:A 0.000222784
94 *237:124 *255:14 0
95 *237:124 *286:16 0.000183713
96 *237:124 *309:101 0.00037693
97 *237:124 *372:36 0.00108907
98 *237:124 *625:116 2.89114e-05
99 *237:150 *5945:A0 0
100 *237:150 *5945:A1 5.52302e-05
101 *237:150 *5988:A1 0.000278135
102 *237:150 *6089:A0 0.000142856
103 *237:150 *6089:S 2.24763e-05
104 *237:150 *6109:A0 8.20056e-05
105 *237:150 *6164:A1 0
106 *237:150 *6319:A 9.25014e-06
107 *237:150 *6570:A 8.24674e-05
108 *237:150 *6617:A 0.000313241
109 *237:150 *6646:A 7.26753e-05
110 *237:150 *247:14 1.74352e-05
111 *237:150 *470:40 1.91512e-05
112 *237:150 *625:116 0.000184634
113 *237:169 *5937:A0 1.74352e-05
114 *237:169 *5942:A2 0
115 *237:169 *5942:A3 0
116 *237:169 *5945:A1 0.000144773
117 *237:169 *6061:S 6.58289e-05
118 *237:169 *6370:CLK 0.000186669
119 *237:169 *6646:A 0
120 *237:169 *247:14 6.97409e-05
121 *237:169 *329:85 6.85873e-05
122 *237:169 *329:87 0.000284151
123 *237:169 *351:111 0
124 *237:169 *485:90 0
125 *5917:A *237:86 0
126 *5935:A1 *5963:S 0
127 *5935:A1 *237:169 0.000142856
128 *5962:S *5963:S 0.000225314
129 *5988:S0 *237:150 0.000105136
130 *5988:S1 *237:150 0.000262099
131 *6271:A1 *6271:B1 5.52238e-05
132 *6355:D *237:169 5.03694e-05
133 *6384:D *237:124 0
134 *6400:D *237:86 4.15914e-05
135 *6401:D *237:66 0.000105246
136 *6424:D *237:86 0
137 *6467:D *237:12 2.27304e-05
138 *225:160 *237:86 0
139 *225:237 *237:12 6.07943e-05
140 *225:237 *237:66 0.000160945
141 *225:245 *237:12 0.000529356
142 *226:28 *6271:B1 0
143 *226:28 *237:24 0.00038013
144 *226:30 *6271:B1 5.52238e-05
145 *226:183 *237:124 0.000433075
146 *226:204 *237:124 0.00033153
147 *230:140 *237:150 0.000197991
148 *231:22 *237:169 0.00107396
149 *232:167 *237:169 0
150 *232:184 *237:150 0.00019484
151 *233:41 *237:86 0
*RES
1 *5934:X *237:4 9.3 
2 *237:4 *237:12 14.1429 
3 *237:12 *237:14 3.82143 
4 *237:14 *237:24 18.8214 
5 *237:24 *6271:B1 23.8179 
6 *237:24 *6275:A 9.3 
7 *237:14 *6268:A 9.3 
8 *237:12 *6259:A 9.3 
9 *237:4 *237:66 20.9821 
10 *237:66 *237:80 27.3214 
11 *237:80 *237:86 49.5 
12 *237:86 *5981:S 9.83571 
13 *237:80 *237:97 18.5893 
14 *237:97 *5972:S 17.2643 
15 *237:97 *237:112 7.5 
16 *237:112 *237:124 47.4643 
17 *237:124 *237:150 44.2857 
18 *237:150 *5945:S 10.0321 
19 *237:150 *237:169 39.1964 
20 *237:169 *5963:S 23.2821 
21 *237:169 *5935:S 9.3 
22 *237:124 *5954:S 9.3 
23 *237:112 *5990:S 9.3 
24 *237:66 *5999:S 9.3 
*END

*D_NET *238 0.00304602
*CONN
*I *5937:A0 I *D sky130_fd_sc_hd__mux2_1
*I *5935:X O *D sky130_fd_sc_hd__mux2_1
*CAP
1 *5937:A0 0.00135585
2 *5935:X 0.00135585
3 *5937:A0 *5932:A3 2.32625e-05
4 *5937:A0 *5937:S 3.57366e-05
5 *5937:A0 *6370:CLK 8.78006e-05
6 *5937:A0 *6636:A 3.18676e-05
7 *5935:A1 *5937:A0 0.000126639
8 *6370:D *5937:A0 1.15797e-05
9 *237:169 *5937:A0 1.74352e-05
*RES
1 *5935:X *5937:A0 37.2607 
*END

*D_NET *239 0.0464455
*CONN
*I *6253:A I *D sky130_fd_sc_hd__or2_1
*I *6251:B I *D sky130_fd_sc_hd__xnor2_1
*I *5964:S I *D sky130_fd_sc_hd__mux2_1
*I *5937:S I *D sky130_fd_sc_hd__mux2_1
*I *5946:S I *D sky130_fd_sc_hd__mux2_1
*I *5955:S I *D sky130_fd_sc_hd__mux2_1
*I *6000:S I *D sky130_fd_sc_hd__mux2_1
*I *5973:S I *D sky130_fd_sc_hd__mux2_1
*I *6258:B I *D sky130_fd_sc_hd__or3_1
*I *6276:C I *D sky130_fd_sc_hd__or4_1
*I *6269:S I *D sky130_fd_sc_hd__mux2_1
*I *6261:S I *D sky130_fd_sc_hd__mux2_1
*I *6265:S I *D sky130_fd_sc_hd__mux2_1
*I *5982:S I *D sky130_fd_sc_hd__mux2_1
*I *6273:S I *D sky130_fd_sc_hd__mux2_1
*I *5991:S I *D sky130_fd_sc_hd__mux2_1
*I *5936:Y O *D sky130_fd_sc_hd__nand2_8
*CAP
1 *6253:A 2.2436e-05
2 *6251:B 0
3 *5964:S 0.000438428
4 *5937:S 3.93635e-05
5 *5946:S 0
6 *5955:S 0.000159489
7 *6000:S 0.000267769
8 *5973:S 0
9 *6258:B 9.73207e-05
10 *6276:C 0
11 *6269:S 0
12 *6261:S 0.00104831
13 *6265:S 8.11735e-05
14 *5982:S 0
15 *6273:S 0
16 *5991:S 0.000246646
17 *5936:Y 0.000121385
18 *239:228 0.00176358
19 *239:219 0.00277445
20 *239:206 0.00205016
21 *239:193 0.00126372
22 *239:184 0.00137371
23 *239:180 0.00296859
24 *239:168 0.00320677
25 *239:160 0.00172129
26 *239:134 0.00114992
27 *239:117 0.000660724
28 *239:115 0.000139255
29 *239:67 0.00141015
30 *239:54 0.00130394
31 *239:41 0.00139833
32 *239:30 0.00134544
33 *239:16 0.00097654
34 *239:10 0.000460713
35 *239:6 0.000329284
36 *5937:S *5937:A1 5.52302e-05
37 *5964:S *5964:A0 1.33343e-05
38 *5964:S *5964:A1 3.18676e-05
39 *5964:S *5965:A 0
40 *5964:S *6333:CLK 0
41 *5964:S *382:74 0
42 *5964:S *712:96 0
43 *5991:S *6475:CLK 1.5546e-05
44 *5991:S *6475:RESET_B 5.03772e-05
45 *5991:S *709:38 5.03076e-05
46 *6000:S *6000:A1 0
47 *6000:S *6001:A 0
48 *6000:S *703:27 4.94362e-05
49 *6253:A *6255:B 9.11365e-06
50 *6253:A *711:135 7.15521e-05
51 *6258:B *6258:C 0
52 *6258:B *711:109 1.02504e-05
53 *6261:S *5894:A 0
54 *6261:S *5894:B 0
55 *6261:S *6261:A0 0.000464535
56 *6261:S *6261:A1 8.25512e-05
57 *6261:S *6265:A0 0.000310236
58 *6261:S *6265:A1 0
59 *6261:S *6447:D 5.33005e-05
60 *6261:S *6458:CLK 6.05161e-06
61 *6261:S *445:14 3.12359e-05
62 *6261:S *490:20 4.58194e-05
63 *6261:S *490:35 4.54254e-05
64 *6261:S *712:29 2.79421e-05
65 *6265:S *6265:A0 9.99853e-05
66 *6265:S *6265:A1 9.99853e-05
67 *6265:S *6266:A 3.99614e-06
68 *239:10 *6253:B 8.43535e-06
69 *239:10 *6276:D 1.98839e-05
70 *239:16 *6276:D 5.33005e-05
71 *239:16 *6277:B 9.40041e-05
72 *239:16 *797:19 0.000169405
73 *239:30 *6269:A0 9.60875e-05
74 *239:30 *6475:RESET_B 2.94103e-05
75 *239:30 *680:24 0.000890639
76 *239:30 *702:22 0.000111805
77 *239:30 *711:73 0
78 *239:30 *797:10 7.83659e-05
79 *239:30 *797:19 1.02504e-05
80 *239:41 *6273:A0 4.57445e-05
81 *239:41 *6475:RESET_B 2.49484e-05
82 *239:41 *702:22 0.000418914
83 *239:41 *709:38 0
84 *239:54 *5892:A 8.00806e-05
85 *239:54 *6273:A0 1.00375e-05
86 *239:54 *6273:A1 0.000202835
87 *239:54 *6455:D 0
88 *239:54 *6456:D 0
89 *239:54 *6472:RESET_B 0.000726367
90 *239:54 *702:22 2.69614e-05
91 *239:54 *709:38 2.11543e-05
92 *239:54 *709:48 9.31149e-05
93 *239:54 *709:59 1.62372e-05
94 *239:54 *709:71 0
95 *239:54 *709:80 0
96 *239:54 *709:90 0
97 *239:54 *798:21 7.83587e-05
98 *239:67 *6265:A1 3.43495e-05
99 *239:67 *6266:A 7.3237e-05
100 *239:67 *6472:RESET_B 7.8327e-05
101 *239:67 *709:90 0
102 *239:117 *711:109 0.000235099
103 *239:117 *711:135 0.00012401
104 *239:134 *711:109 3.57366e-05
105 *239:160 *6401:CLK 6.05161e-06
106 *239:160 *6470:CLK 0.000100031
107 *239:160 *480:14 2.74862e-05
108 *239:160 *480:16 5.66157e-05
109 *239:160 *712:53 5.43491e-05
110 *239:160 *713:8 0
111 *239:168 *6032:A 9.90367e-05
112 *239:168 *6038:A 0.000184745
113 *239:168 *6130:A0 0.000527311
114 *239:168 *6130:A1 2.44318e-05
115 *239:168 *6130:S 2.61099e-05
116 *239:168 *6131:A 0.000136958
117 *239:168 *6350:CLK 0.000168265
118 *239:168 *6542:A 0.000315165
119 *239:180 *5940:A2 1.66856e-05
120 *239:180 *5940:A3 0.000532141
121 *239:180 *5972:A0 0.000787239
122 *239:180 *5972:A1 0.000229456
123 *239:180 *6025:A0 3.74158e-05
124 *239:180 *6190:A 9.90367e-05
125 *239:180 *6579:A 8.25843e-06
126 *239:184 *5941:A1 0.000268403
127 *239:184 *5973:A1 2.44318e-05
128 *239:184 *5974:A 5.52302e-05
129 *239:184 *6025:A0 8.28038e-05
130 *239:184 *6579:A 0.000111451
131 *239:184 *243:8 0.00165863
132 *239:193 *5973:A1 0.00014285
133 *239:206 *5955:A1 0
134 *239:206 *6001:A 0
135 *239:206 *712:72 0
136 *239:206 *712:83 7.04538e-05
137 *239:219 *6308:A0 0
138 *239:219 *247:14 0
139 *239:219 *712:83 0
140 *239:228 *6152:A0 3.92854e-05
141 *239:228 *247:14 0
142 *239:228 *699:10 0
143 *239:228 *712:83 0
144 *239:228 *712:96 0
145 *5897:A *6261:S 0.000346944
146 *5898:A *239:54 1.41029e-05
147 *5937:A0 *5937:S 3.57366e-05
148 *5968:S *239:180 5.21937e-05
149 *6258:A *6253:A 5.66157e-05
150 *6258:A *6258:B 0.000127446
151 *6258:A *239:117 0.000360109
152 *6350:D *239:168 0.000277781
153 *6401:D *239:160 0.000103323
154 *6419:D *239:180 0.000221515
155 *6475:D *5991:S 8.37235e-05
156 *208:14 *6261:S 1.98839e-05
157 *225:237 *239:160 0.0013275
158 *225:245 *239:134 0.000271648
159 *226:51 *6261:S 0
160 *230:37 *239:180 0.000115141
161 *230:263 *239:6 0.000135394
162 *230:271 *239:6 2.59355e-05
163 *230:271 *239:10 0.000113865
164 *237:12 *239:134 8.18698e-05
165 *237:12 *239:160 0.00061121
166 *237:14 *239:134 6.86792e-05
167 *237:24 *239:16 0
168 *237:24 *239:30 0
169 *237:66 *239:160 0.000846334
170 *237:66 *239:168 0.000888379
171 *237:80 *239:168 3.57315e-05
*RES
1 *5936:Y *239:6 11.4786 
2 *239:6 *239:10 3.42857 
3 *239:10 *239:16 9.75 
4 *239:16 *239:30 23.0179 
5 *239:30 *5991:S 18.8536 
6 *239:30 *239:41 9.83929 
7 *239:41 *6273:S 13.8 
8 *239:41 *239:54 25.4821 
9 *239:54 *5982:S 13.8 
10 *239:54 *239:67 9.03571 
11 *239:67 *6265:S 11.8179 
12 *239:67 *6261:S 48.3357 
13 *239:16 *6269:S 13.8 
14 *239:10 *6276:C 9.3 
15 *239:6 *239:115 4.5 
16 *239:115 *239:117 4.67857 
17 *239:117 *6258:B 15.4429 
18 *239:117 *239:134 13.2857 
19 *239:134 *239:160 47.3304 
20 *239:160 *239:168 24.3125 
21 *239:168 *239:180 38.8214 
22 *239:180 *239:184 21.5 
23 *239:184 *5973:S 9.3 
24 *239:184 *239:193 14.4821 
25 *239:193 *6000:S 18.7821 
26 *239:193 *239:206 12.2143 
27 *239:206 *5955:S 11.8893 
28 *239:206 *239:219 30 
29 *239:219 *5946:S 13.8 
30 *239:219 *239:228 22.5893 
31 *239:228 *5937:S 14.7643 
32 *239:228 *5964:S 21.675 
33 *239:134 *6251:B 9.3 
34 *239:115 *6253:A 14.8357 
*END

*D_NET *240 0.000380746
*CONN
*I *5938:A I *D sky130_fd_sc_hd__clkbuf_1
*I *5937:X O *D sky130_fd_sc_hd__mux2_1
*CAP
1 *5938:A 3.56108e-05
2 *5937:X 3.56108e-05
3 *5938:A *6333:CLK 2.48938e-05
4 *5938:A *382:74 0.000154762
5 *5938:A *712:96 0.000129868
*RES
1 *5937:X *5938:A 29.5464 
*END

*D_NET *241 0.00391545
*CONN
*I *5941:A0 I *D sky130_fd_sc_hd__mux2_1
*I *5939:X O *D sky130_fd_sc_hd__mux4_1
*CAP
1 *5941:A0 0.0007978
2 *5939:X 0.0007978
3 *5941:A0 *5906:A0 7.6644e-05
4 *5941:A0 *5939:A0 8.71761e-05
5 *5941:A0 *6116:S 0.000210843
6 *5941:A0 *6119:A 6.65398e-05
7 *5941:A0 *6237:A0 9.80173e-05
8 *5941:A0 *6237:S 0.000322453
9 *5941:A0 *6238:A 5.71472e-05
10 *5941:A0 *481:29 0.000189675
11 *5941:A0 *724:41 0.000123295
12 *5941:A0 *724:107 0
13 *5941:A0 *735:92 1.02504e-05
14 *5941:A0 *735:105 0.00107781
15 *5928:A0 *5941:A0 0
*RES
1 *5939:X *5941:A0 49.975 
*END

*D_NET *242 0.000536393
*CONN
*I *5941:A1 I *D sky130_fd_sc_hd__mux2_1
*I *5940:X O *D sky130_fd_sc_hd__mux4_1
*CAP
1 *5941:A1 6.30029e-05
2 *5940:X 6.30029e-05
3 *5941:A1 *6579:A 0.000141985
4 *239:184 *5941:A1 0.000268403
*RES
1 *5940:X *5941:A1 21.1893 
*END

*D_NET *243 0.00775446
*CONN
*I *5945:A0 I *D sky130_fd_sc_hd__mux2_1
*I *5941:X O *D sky130_fd_sc_hd__mux2_1
*CAP
1 *5945:A0 0.00137628
2 *5941:X 0.00106676
3 *243:8 0.00244304
4 *5945:A0 *5973:A0 0
5 *5945:A0 *5988:A0 0.00041499
6 *5945:A0 *6318:A0 7.83659e-05
7 *5945:A0 *6570:A 6.8646e-06
8 *5945:A0 *6646:A 1.02504e-05
9 *5945:A0 *482:93 0
10 *5945:A0 *614:10 0.000121573
11 *5945:A0 *622:12 0.000173587
12 *5945:A0 *735:129 2.11419e-05
13 *243:8 *5973:A0 0.000193062
14 *5988:S1 *5945:A0 0
15 *6379:D *5945:A0 0
16 *231:22 *5945:A0 0
17 *232:184 *5945:A0 0.000189914
18 *237:150 *5945:A0 0
19 *239:184 *243:8 0.00165863
*RES
1 *5941:X *243:8 29.5321 
2 *243:8 *5945:A0 40.1929 
*END

*D_NET *244 0.000755399
*CONN
*I *5944:A0 I *D sky130_fd_sc_hd__mux2_1
*I *5942:X O *D sky130_fd_sc_hd__mux4_1
*CAP
1 *5944:A0 0.000156354
2 *5942:X 0.000156354
3 *5944:A0 *5944:A1 5.71472e-05
4 *5944:A0 *247:14 1.32552e-05
5 *5944:A0 *351:119 0.000272665
6 *231:22 *5944:A0 9.96238e-05
*RES
1 *5942:X *5944:A0 32.0107 
*END

*D_NET *245 0.00277955
*CONN
*I *5944:A1 I *D sky130_fd_sc_hd__mux2_1
*I *5943:X O *D sky130_fd_sc_hd__mux4_1
*CAP
1 *5944:A1 0.00109734
2 *5943:X 0.00109734
3 *5944:A1 *5943:A0 6.444e-05
4 *5944:A1 *5943:A1 0
5 *5944:A1 *5943:A2 1.66856e-05
6 *5944:A1 *6306:S 0
7 *5944:A1 *247:14 6.09773e-05
8 *5944:A1 *351:119 0.000147311
9 *5932:S0 *5944:A1 7.97806e-05
10 *5943:S0 *5944:A1 8.69193e-05
11 *5943:S1 *5944:A1 3.4879e-05
12 *5944:A0 *5944:A1 5.71472e-05
13 *232:184 *5944:A1 3.67257e-05
*RES
1 *5943:X *5944:A1 43.5286 
*END

*D_NET *246 0.00044031
*CONN
*I *5945:A1 I *D sky130_fd_sc_hd__mux2_1
*I *5944:X O *D sky130_fd_sc_hd__mux2_1
*CAP
1 *5945:A1 0.000120153
2 *5944:X 0.000120153
3 *237:150 *5945:A1 5.52302e-05
4 *237:169 *5945:A1 0.000144773
*RES
1 *5944:X *5945:A1 20.3679 
*END

*D_NET *247 0.00410549
*CONN
*I *5946:A0 I *D sky130_fd_sc_hd__mux2_1
*I *5945:X O *D sky130_fd_sc_hd__mux2_1
*CAP
1 *5946:A0 0
2 *5945:X 0.00139307
3 *247:14 0.00139307
4 *247:14 *6079:A0 0.000142847
5 *247:14 *6080:A 0.000351203
6 *247:14 *6646:A 0.000218685
7 *247:14 *712:83 0.000445214
8 *5944:A0 *247:14 1.32552e-05
9 *5944:A1 *247:14 6.09773e-05
10 *237:150 *247:14 1.74352e-05
11 *237:169 *247:14 6.97409e-05
12 *239:219 *247:14 0
13 *239:228 *247:14 0
*RES
1 *5945:X *247:14 44.2643 
2 *247:14 *5946:A0 9.3 
*END

*D_NET *248 0.00015106
*CONN
*I *5947:A I *D sky130_fd_sc_hd__clkbuf_1
*I *5946:X O *D sky130_fd_sc_hd__mux2_1
*CAP
1 *5947:A 7.55302e-05
2 *5946:X 7.55302e-05
*RES
1 *5946:X *5947:A 19.8679 
*END

*D_NET *249 0.00930654
*CONN
*I *5950:A0 I *D sky130_fd_sc_hd__mux2_1
*I *5948:X O *D sky130_fd_sc_hd__mux4_1
*CAP
1 *5950:A0 0.00321273
2 *5948:X 0.00321273
3 *5950:A0 *6027:A0 2.06112e-05
4 *5950:A0 *470:40 0.00283776
5 *5950:A0 *578:10 2.26973e-05
6 *5950:A0 *669:14 0
*RES
1 *5948:X *5950:A0 43.092 
*END

*D_NET *250 0.000704503
*CONN
*I *5950:A1 I *D sky130_fd_sc_hd__mux2_1
*I *5949:X O *D sky130_fd_sc_hd__mux4_1
*CAP
1 *5950:A1 0.0001782
2 *5949:X 0.0001782
3 *5950:A1 *6028:A 2.28428e-05
4 *5950:A1 *625:114 0.000191888
5 *5950:S *5950:A1 3.25425e-05
6 *6388:D *5950:A1 0.000100831
*RES
1 *5949:X *5950:A1 31.7964 
*END

*D_NET *251 0.00175306
*CONN
*I *5954:A0 I *D sky130_fd_sc_hd__mux2_1
*I *5950:X O *D sky130_fd_sc_hd__mux2_1
*CAP
1 *5954:A0 0.000384496
2 *5950:X 0.000384496
3 *5954:A0 *5949:A1 0.000142358
4 *5954:A0 *6027:A0 3.78226e-05
5 *5954:A0 *6028:A 2.79421e-05
6 *5954:A0 *6525:A 9.54798e-06
7 *5954:A0 *625:114 0.000163587
8 *5954:A0 *625:116 0.000276211
9 *6388:D *5954:A0 0.000181819
10 *226:204 *5954:A0 0.00014478
*RES
1 *5950:X *5954:A0 37.475 
*END

*D_NET *252 0.00144938
*CONN
*I *5953:A0 I *D sky130_fd_sc_hd__mux2_1
*I *5951:X O *D sky130_fd_sc_hd__mux4_1
*CAP
1 *5953:A0 0.000318927
2 *5951:X 0.000318927
3 *5953:A0 *5951:A0 9.25014e-06
4 *5953:A0 *5952:A1 8.03078e-05
5 *5953:A0 *6613:A 0.000241198
6 *5953:A0 *254:10 7.83587e-05
7 *5953:A0 *470:128 0.000148196
8 *16:5 *5953:A0 0.000203841
9 *232:141 *5953:A0 5.03772e-05
10 *233:150 *5953:A0 0
*RES
1 *5951:X *5953:A0 35.6536 
*END

*D_NET *253 0.000516195
*CONN
*I *5953:A1 I *D sky130_fd_sc_hd__mux2_1
*I *5952:X O *D sky130_fd_sc_hd__mux4_1
*CAP
1 *5953:A1 0.000177244
2 *5952:X 0.000177244
3 *5953:A1 *254:10 4.15914e-05
4 *5953:A1 *351:101 4.17509e-05
5 *16:5 *5953:A1 7.83659e-05
*RES
1 *5952:X *5953:A1 30.4036 
*END

*D_NET *254 0.00737075
*CONN
*I *5954:A1 I *D sky130_fd_sc_hd__mux2_1
*I *5953:X O *D sky130_fd_sc_hd__mux2_1
*CAP
1 *5954:A1 9.00307e-05
2 *5953:X 7.71056e-05
3 *254:10 0.001925
4 *254:8 0.00191207
5 *5954:A1 *625:116 0.000144773
6 *254:10 *5952:A1 0.000171368
7 *254:10 *5952:A3 0
8 *254:10 *5959:A0 0.00115695
9 *254:10 *6120:A0 0.00014699
10 *254:10 *6120:S 0.000717932
11 *254:10 *6122:S 0.000103041
12 *254:10 *6123:A 0
13 *254:10 *6339:CLK 0
14 *254:10 *6538:A 0
15 *254:10 *6560:A 0
16 *254:10 *485:30 0
17 *254:10 *498:10 3.97646e-05
18 *254:10 *499:12 0.000173804
19 *254:10 *746:45 0
20 *5952:S1 *254:10 3.26873e-05
21 *5953:A0 *254:10 7.83587e-05
22 *5953:A1 *254:10 4.15914e-05
23 *16:5 *254:10 0.000421294
24 *230:98 *254:8 0.000137983
*RES
1 *5953:X *254:8 15.1571 
2 *254:8 *254:10 45.9643 
3 *254:10 *5954:A1 15.1571 
*END

*D_NET *255 0.00748047
*CONN
*I *5955:A0 I *D sky130_fd_sc_hd__mux2_1
*I *5954:X O *D sky130_fd_sc_hd__mux2_1
*CAP
1 *5955:A0 0.002386
2 *5954:X 0.00080898
3 *255:14 0.00319498
4 *5955:A0 *5925:A0 6.67127e-07
5 *5955:A0 *5956:A 7.33622e-05
6 *5955:A0 *6386:CLK 5.33005e-05
7 *5955:A0 *496:6 5.52607e-05
8 *255:14 *5925:A3 0.000205141
9 *255:14 *6023:A1 0.00010096
10 *255:14 *6386:CLK 1.97695e-05
11 *255:14 *6545:A 0
12 *255:14 *309:101 0.000289419
13 *255:14 *552:10 0
14 *5925:S0 *255:14 0.000173083
15 *6386:D *5955:A0 6.24109e-05
16 *6386:D *255:14 5.71472e-05
17 *237:124 *255:14 0
*RES
1 *5954:X *255:14 34.925 
2 *255:14 *5955:A0 39.1929 
*END

*D_NET *256 0.000173115
*CONN
*I *5956:A I *D sky130_fd_sc_hd__clkbuf_1
*I *5955:X O *D sky130_fd_sc_hd__mux2_1
*CAP
1 *5956:A 4.98762e-05
2 *5955:X 4.98762e-05
3 *5955:A0 *5956:A 7.33622e-05
*RES
1 *5955:X *5956:A 19.8679 
*END

*D_NET *257 0.00287874
*CONN
*I *5959:A0 I *D sky130_fd_sc_hd__mux2_1
*I *5957:X O *D sky130_fd_sc_hd__mux4_1
*CAP
1 *5959:A0 0.000455729
2 *5957:X 0.000455729
3 *5959:A0 *5957:A0 5.52238e-05
4 *5959:A0 *485:30 2.30116e-06
5 *5959:A0 *579:14 0.000139913
6 *16:5 *5959:A0 0.000612887
7 *254:10 *5959:A0 0.00115695
*RES
1 *5957:X *5959:A0 44.0643 
*END

*D_NET *258 0.000354492
*CONN
*I *5959:A1 I *D sky130_fd_sc_hd__mux2_1
*I *5958:X O *D sky130_fd_sc_hd__mux4_1
*CAP
1 *5959:A1 0.000136309
2 *5958:X 0.000136309
3 *5959:A1 *259:18 8.18752e-05
*RES
1 *5958:X *5959:A1 21.1893 
*END

*D_NET *259 0.00518773
*CONN
*I *5963:A0 I *D sky130_fd_sc_hd__mux2_1
*I *5959:X O *D sky130_fd_sc_hd__mux2_1
*CAP
1 *5963:A0 0
2 *5959:X 0.00206022
3 *259:18 0.00206022
4 *259:18 *5931:A0 7.48999e-05
5 *259:18 *5963:A1 0.000188586
6 *259:18 *6060:A 0
7 *259:18 *485:10 0.000101169
8 *259:18 *724:164 0
9 *5959:A1 *259:18 8.18752e-05
10 *5959:S *259:18 3.67142e-05
11 *6362:D *259:18 7.92879e-05
12 *230:122 *259:18 0.000366944
13 *230:211 *259:18 0
14 *233:175 *259:18 4.46186e-06
15 *233:181 *259:18 0.000133361
*RES
1 *5959:X *259:18 49.7286 
2 *259:18 *5963:A0 9.3 
*END

*D_NET *260 0.00109873
*CONN
*I *5962:A0 I *D sky130_fd_sc_hd__mux2_1
*I *5960:X O *D sky130_fd_sc_hd__mux4_1
*CAP
1 *5962:A0 0.000326967
2 *5960:X 0.000326967
3 *5962:A0 *6065:A1 5.10822e-05
4 *5962:A0 *6066:A 7.83659e-05
5 *5962:A0 *6103:S 0.000229443
6 *5962:A0 *6556:A 8.59039e-05
7 *5962:A0 *329:85 0
8 *5962:A0 *486:106 0
9 *5960:S1 *5962:A0 0
*RES
1 *5960:X *5962:A0 35.2429 
*END

*D_NET *261 0.00284894
*CONN
*I *5962:A1 I *D sky130_fd_sc_hd__mux2_1
*I *5961:X O *D sky130_fd_sc_hd__mux4_1
*CAP
1 *5962:A1 0.00106141
2 *5961:X 0.00106141
3 *5962:A1 *5961:A0 0.000127439
4 *5962:A1 *5961:A1 1.40872e-05
5 *5962:A1 *5961:A2 1.00442e-05
6 *5962:A1 *5961:A3 3.67257e-05
7 *5962:A1 *6083:A1 0
8 *5962:A1 *6083:S 0
9 *5962:A1 *6084:A 0.000199698
10 *5962:A1 *6159:A 3.27727e-05
11 *5962:A1 *6373:CLK 0
12 *5962:A1 *6405:CLK 0
13 *5962:A1 *6531:A 0
14 *5962:A1 *486:131 0.000184745
15 *5961:S0 *5962:A1 0.000117786
16 *6491:D *5962:A1 2.8266e-06
*RES
1 *5961:X *5962:A1 44.5286 
*END

*D_NET *262 0.00201246
*CONN
*I *5963:A1 I *D sky130_fd_sc_hd__mux2_1
*I *5962:X O *D sky130_fd_sc_hd__mux2_1
*CAP
1 *5963:A1 0.00034093
2 *5962:X 0.00034093
3 *5963:A1 *5964:A0 0.000230482
4 *5963:A1 *6103:S 0.000105347
5 *5963:A1 *329:85 0.000699657
6 *5963:A1 *351:111 0.000106533
7 *5962:S *5963:A1 0
8 *259:18 *5963:A1 0.000188586
*RES
1 *5962:X *5963:A1 38.7071 
*END

*D_NET *263 0.00332599
*CONN
*I *5964:A0 I *D sky130_fd_sc_hd__mux2_1
*I *5963:X O *D sky130_fd_sc_hd__mux2_1
*CAP
1 *5964:A0 0.00101218
2 *5963:X 0.00101218
3 *5964:A0 *6083:S 0
4 *5964:A0 *6084:A 0.000177064
5 *5964:A0 *339:65 8.55687e-05
6 *5964:A0 *339:71 0
7 *5963:A1 *5964:A0 0.000230482
8 *5964:S *5964:A0 1.33343e-05
9 *233:247 *5964:A0 0.000534229
10 *233:264 *5964:A0 0.000260954
*RES
1 *5963:X *5964:A0 48.3143 
*END

*D_NET *264 0.000338304
*CONN
*I *5965:A I *D sky130_fd_sc_hd__clkbuf_1
*I *5964:X O *D sky130_fd_sc_hd__mux2_1
*CAP
1 *5965:A 0.000133905
2 *5964:X 0.000133905
3 *5965:A *382:74 4.15914e-05
4 *5964:S *5965:A 0
5 *6333:D *5965:A 2.89016e-05
*RES
1 *5964:X *5965:A 30.3321 
*END

*D_NET *265 0.00437848
*CONN
*I *5968:A0 I *D sky130_fd_sc_hd__mux2_1
*I *5966:X O *D sky130_fd_sc_hd__mux4_1
*CAP
1 *5968:A0 0
2 *5966:X 0.00113198
3 *265:12 0.00113198
4 *265:12 *5966:A0 6.87574e-05
5 *265:12 *5968:A1 0.000123145
6 *265:12 *5984:A0 3.57844e-05
7 *265:12 *5984:A2 0.000270243
8 *265:12 *6124:A1 0
9 *265:12 *6125:A 0
10 *265:12 *6243:A0 0.000533203
11 *265:12 *6243:A1 2.44318e-05
12 *265:12 *6243:S 0.0001827
13 *265:12 *6392:CLK 1.41029e-05
14 *265:12 *6519:A 7.03295e-05
15 *265:12 *362:61 0
16 *265:12 *625:51 0.000791819
17 *5984:S0 *265:12 0
18 *6390:D *265:12 0
19 *6416:D *265:12 0
20 *225:79 *265:12 0
*RES
1 *5966:X *265:12 43.2464 
2 *265:12 *5968:A0 9.3 
*END

*D_NET *266 0.000468034
*CONN
*I *5968:A1 I *D sky130_fd_sc_hd__mux2_1
*I *5967:X O *D sky130_fd_sc_hd__mux4_1
*CAP
1 *5968:A1 0.000110873
2 *5967:X 0.000110873
3 *5968:A1 *6392:CLK 0.000123145
4 *265:12 *5968:A1 0.000123145
*RES
1 *5967:X *5968:A1 29.7786 
*END

*D_NET *267 0.00183276
*CONN
*I *5972:A0 I *D sky130_fd_sc_hd__mux2_1
*I *5968:X O *D sky130_fd_sc_hd__mux2_1
*CAP
1 *5972:A0 0.000522761
2 *5968:X 0.000522761
3 *239:180 *5972:A0 0.000787239
*RES
1 *5968:X *5972:A0 26.1179 
*END

*D_NET *268 0.00131244
*CONN
*I *5971:A0 I *D sky130_fd_sc_hd__mux2_1
*I *5969:X O *D sky130_fd_sc_hd__mux4_1
*CAP
1 *5971:A0 0.000629377
2 *5969:X 0.000629377
3 *5971:A0 *6553:A 0
4 *5971:A0 *484:34 0
5 *5971:A0 *484:118 0
6 *230:91 *5971:A0 5.36878e-05
7 *233:81 *5971:A0 0
*RES
1 *5969:X *5971:A0 37.7964 
*END

*D_NET *269 0.000177412
*CONN
*I *5971:A1 I *D sky130_fd_sc_hd__mux2_1
*I *5970:X O *D sky130_fd_sc_hd__mux4_1
*CAP
1 *5971:A1 4.86659e-05
2 *5970:X 4.86659e-05
3 *230:91 *5971:A1 8.00806e-05
*RES
1 *5970:X *5971:A1 28.6357 
*END

*D_NET *270 0.0101208
*CONN
*I *5972:A1 I *D sky130_fd_sc_hd__mux2_1
*I *5971:X O *D sky130_fd_sc_hd__mux2_1
*CAP
1 *5972:A1 0.00122497
2 *5971:X 3.92359e-05
3 *270:12 0.00304147
4 *270:8 0.00185574
5 *5972:A1 *5986:A0 0.000238825
6 *5972:A1 *5990:A0 7.6644e-05
7 *5972:A1 *6128:A0 7.79781e-06
8 *5972:A1 *6188:A 0
9 *5972:A1 *6418:CLK 0
10 *5972:A1 *6512:A 5.86388e-05
11 *5972:A1 *6603:A 0.000154172
12 *5972:A1 *372:30 0
13 *5972:A1 *372:36 0
14 *5972:A1 *479:116 0.000152732
15 *5972:A1 *495:10 0
16 *5972:A1 *495:32 0
17 *5972:A1 *495:41 0
18 *5972:A1 *495:56 0
19 *270:12 *5970:A0 3.52562e-05
20 *270:12 *6033:A0 0
21 *270:12 *6126:A0 9.5527e-05
22 *270:12 *6126:S 0
23 *270:12 *6160:S 0.000184563
24 *270:12 *6192:A 0
25 *270:12 *6211:S 0
26 *270:12 *6212:A 0.000267092
27 *270:12 *6413:CLK 0.000588304
28 *270:12 *6421:CLK 0.000342495
29 *270:12 *6603:A 8.92923e-05
30 *270:12 *362:95 0
31 *270:12 *372:24 0.000336523
32 *270:12 *382:24 0.000147599
33 *270:12 *479:16 7.69776e-06
34 *270:12 *479:178 0.000150893
35 *270:12 *483:69 0.000164547
36 *270:12 *501:14 0
37 *270:12 *612:10 5.48581e-05
38 *5972:S *5972:A1 0
39 *6394:D *5972:A1 2.79092e-05
40 *6413:D *270:12 5.10822e-05
41 *6418:D *5972:A1 0
42 *6420:D *5972:A1 2.14703e-05
43 *6420:D *270:12 0.000310047
44 *6421:D *270:12 0
45 *230:91 *270:12 0
46 *232:103 *270:8 5.52238e-05
47 *233:66 *270:12 5.66471e-05
48 *233:81 *270:12 5.41258e-05
49 *239:180 *5972:A1 0.000229456
*RES
1 *5971:X *270:8 14.3357 
2 *270:8 *270:12 43.4018 
3 *270:12 *5972:A1 37.4161 
*END

*D_NET *271 0.00833939
*CONN
*I *5973:A0 I *D sky130_fd_sc_hd__mux2_1
*I *5972:X O *D sky130_fd_sc_hd__mux2_1
*CAP
1 *5973:A0 0.00296633
2 *5972:X 0.00296633
3 *5973:A0 *5973:A1 0
4 *5973:A0 *362:51 2.26973e-05
5 *5973:A0 *479:132 0
6 *5973:A0 *712:53 0.0007609
7 *5945:A0 *5973:A0 0
8 *226:131 *5973:A0 0.00143007
9 *243:8 *5973:A0 0.000193062
*RES
1 *5972:X *5973:A0 43.3956 
*END

*D_NET *272 0.000426969
*CONN
*I *5974:A I *D sky130_fd_sc_hd__clkbuf_1
*I *5973:X O *D sky130_fd_sc_hd__mux2_1
*CAP
1 *5974:A 0.00018587
2 *5973:X 0.00018587
3 *5974:A *5973:A1 0
4 *239:184 *5974:A 5.52302e-05
*RES
1 *5973:X *5974:A 30.0821 
*END

*D_NET *273 0.00162641
*CONN
*I *5977:A0 I *D sky130_fd_sc_hd__mux2_1
*I *5975:X O *D sky130_fd_sc_hd__mux4_1
*CAP
1 *5977:A0 0.000418899
2 *5975:X 0.000418899
3 *5977:A0 *5977:A1 2.95726e-05
4 *5977:A0 *6615:A 0.0003096
5 *5977:A0 *768:42 0
6 *5977:S *5977:A0 9.90367e-05
7 *230:66 *5977:A0 0.000350405
*RES
1 *5975:X *5977:A0 37.9929 
*END

*D_NET *274 0.00102445
*CONN
*I *5977:A1 I *D sky130_fd_sc_hd__mux2_1
*I *5976:X O *D sky130_fd_sc_hd__mux4_1
*CAP
1 *5977:A1 0.00031209
2 *5976:X 0.00031209
3 *5977:A1 *5976:A2 5.71472e-05
4 *5977:A1 *6126:A0 0
5 *5977:A1 *6126:A1 0.000183726
6 *5977:A1 *768:42 8.00806e-05
7 *5977:A0 *5977:A1 2.95726e-05
8 *5977:S *5977:A1 4.97479e-05
*RES
1 *5976:X *5977:A1 33.725 
*END

*D_NET *275 0.00137232
*CONN
*I *5981:A0 I *D sky130_fd_sc_hd__mux2_1
*I *5977:X O *D sky130_fd_sc_hd__mux2_1
*CAP
1 *5981:A0 0.000494295
2 *5977:X 0.000494295
3 *5981:A0 *5976:A1 9.10431e-06
4 *5981:A0 *5976:A2 0.000228558
5 *5981:A0 *5976:A3 9.25014e-06
6 *5981:A0 *779:79 8.15939e-05
7 *5981:S *5981:A0 5.52238e-05
8 *232:69 *5981:A0 0
9 *233:41 *5981:A0 0
*RES
1 *5977:X *5981:A0 35.5464 
*END

*D_NET *276 0.00214439
*CONN
*I *5980:A0 I *D sky130_fd_sc_hd__mux2_1
*I *5978:X O *D sky130_fd_sc_hd__mux4_1
*CAP
1 *5980:A0 0.000610096
2 *5978:X 0.000610096
3 *5980:A0 *6106:A 0
4 *5980:A0 *6382:CLK 0.000585875
5 *5980:A0 *6575:A 0.000125731
6 *5980:A0 *493:73 0.000117196
7 *5980:A0 *779:33 0
8 *5980:A0 *779:43 5.52238e-05
9 *5980:S *5980:A0 4.01768e-05
10 *6382:D *5980:A0 0
*RES
1 *5978:X *5980:A0 40.5286 
*END

*D_NET *277 0.000446911
*CONN
*I *5980:A1 I *D sky130_fd_sc_hd__mux2_1
*I *5979:X O *D sky130_fd_sc_hd__mux4_1
*CAP
1 *5980:A1 0.000145852
2 *5979:X 0.000145852
3 *5980:A1 *5981:A1 7.6644e-05
4 *5980:A1 *6524:A 5.62995e-05
5 *5980:A1 *470:100 2.22641e-05
*RES
1 *5979:X *5980:A1 30.1893 
*END

*D_NET *278 0.00356655
*CONN
*I *5981:A1 I *D sky130_fd_sc_hd__mux2_1
*I *5980:X O *D sky130_fd_sc_hd__mux2_1
*CAP
1 *5981:A1 0.000762486
2 *5980:X 0.000762486
3 *5981:A1 *5979:A0 8.469e-05
4 *5981:A1 *5979:A2 4.87854e-05
5 *5981:A1 *382:16 0.000703071
6 *5981:A1 *470:100 0.00109721
7 *5981:A1 *779:43 1.65169e-05
8 *5981:A1 *779:73 1.46624e-05
9 *5980:A1 *5981:A1 7.6644e-05
*RES
1 *5980:X *5981:A1 47.4036 
*END

*D_NET *279 0.0113043
*CONN
*I *5982:A0 I *D sky130_fd_sc_hd__mux2_1
*I *5981:X O *D sky130_fd_sc_hd__mux2_1
*CAP
1 *5982:A0 0
2 *5981:X 0.00117005
3 *279:24 0.00294912
4 *279:18 0.00411917
5 *279:18 *6133:B1 7.84272e-05
6 *279:18 *309:14 6.95205e-05
7 *279:18 *349:10 9.41642e-05
8 *279:18 *372:16 0.00103345
9 *279:18 *470:100 5.98293e-05
10 *279:24 *5982:A1 5.71472e-05
11 *279:24 *6234:B1 1.74352e-05
12 *5889:A1 *279:24 5.71472e-05
13 *5889:A2 *279:24 0.000230482
14 *6168:A1 *279:24 3.76674e-05
15 *6168:A2 *279:24 2.95841e-05
16 *6168:B1 *279:24 9.60875e-05
17 *6203:B *279:24 2.28598e-05
18 *6231:A1 *279:24 9.2822e-05
19 *6287:A2 *279:24 6.99716e-05
20 *6287:C1 *279:24 0.000296407
21 *6399:D *279:18 3.17148e-05
22 *6668:A *279:24 0.00010096
23 *190:192 *279:18 3.92854e-05
24 *198:16 *279:24 2.44318e-05
25 *202:6 *279:24 9.58508e-05
26 *203:184 *279:18 7.6644e-05
27 *213:29 *279:24 0.000354105
*RES
1 *5981:X *279:18 44.5679 
2 *279:18 *279:24 47.0893 
3 *279:24 *5982:A0 9.3 
*END

*D_NET *280 0.000695135
*CONN
*I *5983:A I *D sky130_fd_sc_hd__clkbuf_1
*I *5982:X O *D sky130_fd_sc_hd__mux2_1
*CAP
1 *5983:A 0.000308385
2 *5982:X 0.000308385
3 *5983:A *6676:A 0
4 *5983:A *709:90 7.83659e-05
*RES
1 *5982:X *5983:A 32.7964 
*END

*D_NET *281 0.00284302
*CONN
*I *5986:A0 I *D sky130_fd_sc_hd__mux2_1
*I *5984:X O *D sky130_fd_sc_hd__mux4_1
*CAP
1 *5986:A0 0.00119339
2 *5984:X 0.00119339
3 *5986:A0 *6137:A 0
4 *5986:A0 *6170:A 0
5 *5986:A0 *6190:A 0
6 *5986:A0 *6206:A 0
7 *5986:A0 *6598:A 0
8 *5986:A0 *411:125 0
9 *5986:A0 *428:121 0
10 *5986:A0 *494:10 0
11 *5986:A0 *494:18 0
12 *5972:A1 *5986:A0 0.000238825
13 *5972:S *5986:A0 0
14 *5984:S1 *5986:A0 4.01768e-05
15 *6395:D *5986:A0 0
16 *6426:D *5986:A0 0.000177234
*RES
1 *5984:X *5986:A0 49.0107 
*END

*D_NET *282 0.000936946
*CONN
*I *5986:A1 I *D sky130_fd_sc_hd__mux2_1
*I *5985:X O *D sky130_fd_sc_hd__mux4_1
*CAP
1 *5986:A1 0.000219553
2 *5985:X 0.000219553
3 *5986:A1 *372:30 8.00806e-05
4 *5986:S *5986:A1 0.000282455
5 *6392:D *5986:A1 0.000135304
*RES
1 *5985:X *5986:A1 32.7786 
*END

*D_NET *283 0.00112118
*CONN
*I *5990:A0 I *D sky130_fd_sc_hd__mux2_1
*I *5986:X O *D sky130_fd_sc_hd__mux2_1
*CAP
1 *5990:A0 0.000360119
2 *5986:X 0.000360119
3 *5990:A0 *5990:A1 0.000166485
4 *5990:A0 *479:116 0.000131874
5 *5972:A1 *5990:A0 7.6644e-05
6 *5986:S *5990:A0 2.59355e-05
*RES
1 *5986:X *5990:A0 32.9929 
*END

*D_NET *284 0.00443518
*CONN
*I *5989:A0 I *D sky130_fd_sc_hd__mux2_1
*I *5987:X O *D sky130_fd_sc_hd__mux4_1
*CAP
1 *5989:A0 0
2 *5987:X 0.00154407
3 *284:16 0.00154407
4 *284:16 *5987:A2 9.25014e-06
5 *284:16 *5988:A3 0
6 *284:16 *6071:A1 0.000117543
7 *284:16 *6089:A1 5.33978e-05
8 *284:16 *6109:S 6.80338e-05
9 *284:16 *6290:A0 0
10 *284:16 *6290:S 0
11 *284:16 *6481:CLK 1.5856e-05
12 *284:16 *534:16 8.46507e-06
13 *284:16 *625:122 0
14 *284:16 *625:142 0.000103032
15 *284:16 *735:117 3.59846e-05
16 *284:16 *735:192 4.01933e-05
17 *5987:S1 *284:16 1.12323e-05
18 *5988:S0 *284:16 8.34352e-05
19 *6481:D *284:16 5.80217e-05
20 *230:128 *284:16 0
21 *230:140 *284:16 5.24908e-05
22 *233:191 *284:16 0.000690102
*RES
1 *5987:X *284:16 46.4964 
2 *284:16 *5989:A0 9.3 
*END

*D_NET *285 0.00187916
*CONN
*I *5989:A1 I *D sky130_fd_sc_hd__mux2_1
*I *5988:X O *D sky130_fd_sc_hd__mux4_1
*CAP
1 *5989:A1 0.00054242
2 *5988:X 0.00054242
3 *5989:A1 *5988:A0 0.000197589
4 *5989:A1 *482:76 9.22103e-06
5 *5989:A1 *482:93 0.000410974
6 *6494:D *5989:A1 0.000102798
7 *230:140 *5989:A1 1.74352e-05
8 *230:155 *5989:A1 5.62995e-05
*RES
1 *5988:X *5989:A1 36.1714 
*END

*D_NET *286 0.00754265
*CONN
*I *5990:A1 I *D sky130_fd_sc_hd__mux2_1
*I *5989:X O *D sky130_fd_sc_hd__mux2_1
*CAP
1 *5990:A1 0.000850608
2 *5989:X 0.00103323
3 *286:16 0.00188384
4 *5990:A1 *6023:A0 1.33343e-05
5 *5990:A1 *6134:A0 0.00053026
6 *5990:A1 *6134:S 1.21258e-05
7 *5990:A1 *6545:A 9.31893e-05
8 *5990:A1 *372:36 0.000334506
9 *5990:A1 *479:116 0.000533203
10 *5990:A1 *494:10 0.00024782
11 *5990:A1 *724:64 0.000119203
12 *286:16 *6023:A0 2.24763e-05
13 *286:16 *6386:CLK 0.00014285
14 *286:16 *6547:A 0.000160197
15 *286:16 *479:132 0.000147828
16 *286:16 *481:6 0.000213172
17 *286:16 *724:120 0
18 *286:16 *735:117 0.000705478
19 *5990:A0 *5990:A1 0.000166485
20 *237:112 *5990:A1 0.000139907
21 *237:124 *5990:A1 9.22103e-06
22 *237:124 *286:16 0.000183713
*RES
1 *5989:X *286:16 40.6214 
2 *286:16 *5990:A1 30.925 
*END

*D_NET *287 0.01365
*CONN
*I *5991:A0 I *D sky130_fd_sc_hd__mux2_1
*I *5990:X O *D sky130_fd_sc_hd__mux2_1
*CAP
1 *5991:A0 8.29479e-05
2 *5990:X 0.00179884
3 *287:24 0.00293718
4 *287:22 0.00465307
5 *5991:A0 *711:69 0
6 *5991:A0 *711:73 0
7 *287:22 *6037:A0 0.000831058
8 *287:22 *6037:A1 0.000218246
9 *287:22 *6037:S 9.71197e-05
10 *287:22 *6195:S 2.77173e-05
11 *287:22 *6505:A 2.73162e-05
12 *287:22 *309:31 0.00130915
13 *287:22 *479:30 0
14 *287:22 *636:84 2.95466e-05
15 *287:22 *790:14 4.29471e-05
16 *287:24 *6255:A 1.38323e-05
17 *287:24 *6255:B 0.000139913
18 *287:24 *6257:B 0.000166416
19 *287:24 *6276:B 0.000180764
20 *287:24 *6277:B 0.000337575
21 *287:24 *6497:A 9.80173e-05
22 *287:24 *790:33 5.33005e-05
23 *287:24 *791:35 9.41642e-05
24 *5948:S0 *287:24 9.16074e-05
25 *216:29 *287:22 4.11218e-05
26 *230:16 *287:22 0.000235321
27 *237:24 *287:24 0.00014285
*RES
1 *5990:X *287:22 49.2206 
2 *287:22 *287:24 46.125 
3 *287:24 *5991:A0 19.6393 
*END

*D_NET *288 0.000736518
*CONN
*I *5992:A I *D sky130_fd_sc_hd__clkbuf_1
*I *5991:X O *D sky130_fd_sc_hd__mux2_1
*CAP
1 *5992:A 0.000317847
2 *5991:X 0.000317847
3 *5992:A *5991:A1 0
4 *5992:A *6670:A 0
5 *6336:D *5992:A 0.000100823
*RES
1 *5991:X *5992:A 33.1536 
*END

*D_NET *289 0.00135854
*CONN
*I *5995:A0 I *D sky130_fd_sc_hd__mux2_1
*I *5993:X O *D sky130_fd_sc_hd__mux4_1
*CAP
1 *5995:A0 0.000550516
2 *5993:X 0.000550516
3 *5995:A0 *5993:A0 5.19842e-06
4 *5995:A0 *6446:CLK 2.28499e-05
5 *5995:A0 *428:75 0
6 *5995:A0 *488:24 0.000229456
7 *6398:D *5995:A0 0
*RES
1 *5993:X *5995:A0 36.4929 
*END

*D_NET *290 0.00174627
*CONN
*I *5995:A1 I *D sky130_fd_sc_hd__mux2_1
*I *5994:X O *D sky130_fd_sc_hd__mux4_1
*CAP
1 *5995:A1 0.000543593
2 *5994:X 0.000543593
3 *5995:A1 *6131:A 0
4 *5995:A1 *6148:S 0.000372272
5 *5995:A1 *6505:A 8.392e-05
6 *5995:A1 *6542:A 0
7 *5995:A1 *295:20 0.000202891
8 *5995:A1 *636:90 0
9 *5995:A1 *658:30 0
10 *5995:S *5995:A1 0
11 *230:16 *5995:A1 0
12 *237:80 *5995:A1 0
*RES
1 *5994:X *5995:A1 38.3679 
*END

*D_NET *291 0.000523348
*CONN
*I *5999:A0 I *D sky130_fd_sc_hd__mux2_1
*I *5995:X O *D sky130_fd_sc_hd__mux2_1
*CAP
1 *5999:A0 9.81603e-05
2 *5995:X 9.81603e-05
3 *5999:A0 *5994:A2 2.37783e-05
4 *5999:A0 *6148:S 5.52302e-05
5 *5999:A0 *6543:A 0.000101545
6 *5999:A0 *428:75 0.000146474
*RES
1 *5995:X *5999:A0 30.0821 
*END

*D_NET *292 0.00943367
*CONN
*I *5998:A0 I *D sky130_fd_sc_hd__mux2_1
*I *5996:X O *D sky130_fd_sc_hd__mux4_1
*CAP
1 *5998:A0 0.000362226
2 *5996:X 0.000110967
3 *292:12 0.0021385
4 *292:8 0.00188724
5 *5998:A0 *5997:A2 0
6 *5998:A0 *5997:S0 6.95205e-05
7 *5998:A0 *6130:S 0.000816456
8 *5998:A0 *6166:S 1.78623e-05
9 *5998:A0 *636:73 0.000385854
10 *5998:A0 *636:84 0
11 *292:12 *6021:B 6.42338e-05
12 *292:12 *6040:B1 0
13 *292:12 *6074:A 2.60064e-05
14 *292:12 *6095:A 2.47093e-05
15 *292:12 *6111:S 0.000590648
16 *292:12 *6114:B 1.53725e-05
17 *292:12 *6130:S 1.9441e-05
18 *292:12 *6150:A 0
19 *292:12 *6166:S 1.30669e-05
20 *292:12 *362:12 0.00163888
21 *292:12 *511:10 4.038e-06
22 *292:12 *636:53 0.00100309
23 *5996:S1 *292:8 7.02611e-05
24 *5998:S *5998:A0 9.90431e-05
25 *6040:C1 *292:12 0
26 *6369:D *292:12 3.92854e-05
27 *6383:D *292:12 0
28 *203:64 *292:12 3.69697e-05
29 *203:197 *292:12 0
30 *212:14 *292:12 0
*RES
1 *5996:X *292:8 15.1571 
2 *292:8 *292:12 45.8304 
3 *292:12 *5998:A0 25.2554 
*END

*D_NET *293 0.00111324
*CONN
*I *5998:A1 I *D sky130_fd_sc_hd__mux2_1
*I *5997:X O *D sky130_fd_sc_hd__mux4_1
*CAP
1 *5998:A1 0.000505319
2 *5997:X 0.000505319
3 *5998:A1 *309:14 0
4 *5998:A1 *658:30 6.32633e-05
5 *5998:S *5998:A1 3.93346e-05
*RES
1 *5997:X *5998:A1 35.5643 
*END

*D_NET *294 0.00200451
*CONN
*I *5999:A1 I *D sky130_fd_sc_hd__mux2_1
*I *5998:X O *D sky130_fd_sc_hd__mux2_1
*CAP
1 *5999:A1 0.000339303
2 *5998:X 0.000339303
3 *5999:A1 *5994:A2 0.000158268
4 *5999:A1 *5994:A3 0.000244736
5 *5999:A1 *6130:S 0.000104646
6 *5999:A1 *428:75 0.000818256
*RES
1 *5998:X *5999:A1 38.35 
*END

*D_NET *295 0.015457
*CONN
*I *6000:A0 I *D sky130_fd_sc_hd__mux2_1
*I *5999:X O *D sky130_fd_sc_hd__mux2_1
*CAP
1 *6000:A0 0.00109883
2 *5999:X 0.000842926
3 *295:28 0.00247222
4 *295:20 0.00221632
5 *6000:A0 *6118:S 2.14658e-05
6 *6000:A0 *362:61 0.000383946
7 *6000:A0 *658:10 0.00367108
8 *6000:A0 *735:105 0.000178847
9 *295:20 *5967:A0 5.33334e-05
10 *295:20 *5967:A1 3.48705e-05
11 *295:20 *6142:A0 0.000271345
12 *295:20 *6148:A0 8.00806e-05
13 *295:20 *6148:S 0.000312029
14 *295:20 *6195:A0 0.000362979
15 *295:20 *6543:A 0.000227539
16 *295:20 *372:74 7.65804e-05
17 *295:20 *428:75 1.70278e-05
18 *295:20 *636:111 2.15154e-05
19 *295:20 *768:85 2.14757e-05
20 *295:28 *5967:A0 0.00029262
21 *295:28 *6124:A0 0.000530254
22 *295:28 *6125:A 0.000232399
23 *295:28 *6136:A0 0.000659769
24 *295:28 *6137:A 0.000185643
25 *295:28 *6195:A0 0.00027032
26 *295:28 *362:61 0.000620947
27 *295:28 *572:8 5.52238e-05
28 *5967:S0 *295:20 4.25716e-05
29 *5995:A1 *295:20 0.000202891
*RES
1 *5999:X *295:20 48.2821 
2 *295:20 *295:28 32.8973 
3 *295:28 *6000:A0 44.4741 
*END

*D_NET *296 0.000809135
*CONN
*I *6001:A I *D sky130_fd_sc_hd__clkbuf_1
*I *6000:X O *D sky130_fd_sc_hd__mux2_1
*CAP
1 *6001:A 0.000271971
2 *6000:X 0.000271971
3 *6001:A *658:10 0.00010096
4 *6001:A *703:27 7.6644e-05
5 *6001:A *712:72 0
6 *6000:S *6001:A 0
7 *6337:D *6001:A 8.7589e-05
8 *239:206 *6001:A 0
*RES
1 *6000:X *6001:A 32.9214 
*END

*D_NET *297 0.00150468
*CONN
*I *6003:B1 I *D sky130_fd_sc_hd__o211a_4
*I *6002:X O *D sky130_fd_sc_hd__and4b_1
*CAP
1 *6003:B1 0.000200033
2 *6002:X 0.000200033
3 *6003:B1 *6002:B 0.000144773
4 *6003:B1 *6185:B 5.52238e-05
5 *6003:B1 *401:79 1.76135e-05
6 *6003:B1 *810:81 6.74911e-05
7 *6003:B1 *810:83 1.52978e-05
8 *6003:B1 *810:107 0.000339745
9 *6003:B1 *811:76 0.000312209
10 *182:44 *6003:B1 4.06782e-05
11 *182:102 *6003:B1 0.000111579
*RES
1 *6002:X *6003:B1 35.0107 
*END

*D_NET *298 0.0245534
*CONN
*I *6014:S I *D sky130_fd_sc_hd__mux2_1
*I *6010:S I *D sky130_fd_sc_hd__mux2_1
*I *6004:S I *D sky130_fd_sc_hd__mux2_1
*I *6006:S I *D sky130_fd_sc_hd__mux2_1
*I *6016:S I *D sky130_fd_sc_hd__mux2_1
*I *6008:S I *D sky130_fd_sc_hd__mux2_1
*I *6012:S I *D sky130_fd_sc_hd__mux2_1
*I *6018:S I *D sky130_fd_sc_hd__mux2_1
*I *6003:X O *D sky130_fd_sc_hd__o211a_4
*CAP
1 *6014:S 0.000323546
2 *6010:S 0.000329248
3 *6004:S 2.76349e-05
4 *6006:S 0.000678773
5 *6016:S 0
6 *6008:S 5.32599e-05
7 *6012:S 3.82418e-05
8 *6018:S 0
9 *6003:X 0.00120428
10 *298:77 0.00178511
11 *298:73 0.00181095
12 *298:67 0.00141779
13 *298:52 0.00197893
14 *298:37 0.00277915
15 *298:33 0.00258706
16 *298:18 0.00224099
17 *6004:S *6004:A0 2.89114e-05
18 *6006:S *6016:A0 0.00014285
19 *6006:S *6291:A 0.000226513
20 *6006:S *6301:A 2.89016e-05
21 *6006:S *579:14 0
22 *6006:S *724:124 0.000215208
23 *6008:S *6008:A0 0.000232399
24 *6008:S *329:62 0.000122159
25 *6010:S *757:33 2.78584e-05
26 *6010:S *757:56 0.000665667
27 *6014:S *6571:A 4.62632e-05
28 *6014:S *460:31 0
29 *6014:S *493:10 0
30 *6014:S *493:56 0
31 *298:18 *5996:A0 0
32 *298:18 *6018:A1 5.80706e-06
33 *298:18 *6076:B1 0.000107267
34 *298:18 *6606:A 0.000119684
35 *298:18 *319:12 0
36 *298:18 *810:79 0
37 *298:18 *810:81 0
38 *298:18 *811:8 3.5707e-05
39 *298:18 *811:12 8.36642e-05
40 *298:33 *5996:A0 4.22505e-05
41 *298:33 *5996:A3 0.000602333
42 *298:33 *6018:A0 0.000212324
43 *298:33 *6369:CLK 2.89016e-05
44 *298:33 *493:10 0
45 *298:33 *527:6 2.38671e-05
46 *298:37 *6012:A0 5.19842e-06
47 *298:37 *6012:A1 3.05446e-05
48 *298:37 *6013:A 6.78055e-06
49 *298:37 *6073:A0 1.92905e-05
50 *298:37 *6367:CLK 9.28684e-05
51 *298:37 *460:31 7.54972e-05
52 *298:37 *525:10 1.71774e-05
53 *298:52 *5951:A1 5.52238e-05
54 *298:52 *6008:A0 9.91086e-05
55 *298:52 *6012:A1 8.85761e-05
56 *298:52 *484:44 0.000265155
57 *298:52 *484:48 3.14163e-05
58 *298:52 *484:96 0.000190356
59 *298:67 *6008:A0 2.14658e-05
60 *298:67 *6310:A0 1.55885e-05
61 *298:67 *6310:A1 0.000211937
62 *298:67 *6613:A 3.97677e-05
63 *298:67 *329:62 0.000484524
64 *298:67 *329:81 0.000774937
65 *298:67 *470:151 0.000485543
66 *298:67 *486:57 7.5425e-05
67 *298:67 *486:72 1.65558e-05
68 *298:73 *6156:A0 2.34204e-05
69 *298:73 *6157:A 0
70 *298:73 *6404:CLK 0
71 *298:73 *486:57 7.22762e-05
72 *298:77 *6004:A1 4.72164e-05
73 *298:77 *6005:A 0
74 *298:77 *6017:A 0
75 *298:77 *6289:A 0
76 *298:77 *6389:CLK 0
77 *298:77 *485:30 0
78 *298:77 *724:124 0
79 *5978:S0 *6014:S 0
80 *5978:S0 *298:33 0
81 *6003:A2 *298:18 3.99614e-06
82 *6003:C1 *298:18 5.86661e-05
83 *6340:D *298:52 9.09664e-06
84 *6341:D *298:67 3.79467e-05
85 *6366:D *298:52 7.01199e-06
86 *6367:D *298:37 0.000153829
87 *6369:D *298:33 1.64343e-05
88 *6486:D *298:77 0
89 *182:12 *298:18 0
90 *182:40 *298:18 0.000356417
91 *182:42 *298:18 0.000239243
92 *182:44 *298:18 0.000171375
93 *230:111 *298:73 0
94 *230:111 *298:77 0
*RES
1 *6003:X *298:18 44.5679 
2 *298:18 *6018:S 9.3 
3 *298:18 *298:33 21.4821 
4 *298:33 *298:37 20.2321 
5 *298:37 *6012:S 10.0321 
6 *298:37 *298:52 29.3571 
7 *298:52 *6008:S 11.9071 
8 *298:52 *298:67 20 
9 *298:67 *298:73 12.3214 
10 *298:73 *298:77 24.0536 
11 *298:77 *6016:S 9.3 
12 *298:77 *6006:S 32.55 
13 *298:73 *6004:S 14.3357 
14 *298:67 *6010:S 20.925 
15 *298:33 *6014:S 19.3893 
*END

*D_NET *299 0.000647646
*CONN
*I *6005:A I *D sky130_fd_sc_hd__clkbuf_1
*I *6004:X O *D sky130_fd_sc_hd__mux2_1
*CAP
1 *6005:A 0.000221225
2 *6004:X 0.000221225
3 *6005:A *6480:CLK 0.000178593
4 *6338:D *6005:A 9.33978e-07
5 *230:111 *6005:A 2.56694e-05
6 *298:77 *6005:A 0
*RES
1 *6004:X *6005:A 31.1357 
*END

*D_NET *300 0.000859728
*CONN
*I *6007:A I *D sky130_fd_sc_hd__clkbuf_1
*I *6006:X O *D sky130_fd_sc_hd__mux2_1
*CAP
1 *6007:A 0.000384106
2 *6006:X 0.000384106
3 *6007:A *6481:CLK 4.01768e-05
4 *6007:A *625:122 2.56694e-05
5 *6007:A *724:124 2.56694e-05
*RES
1 *6006:X *6007:A 33.0821 
*END

*D_NET *301 0.000702178
*CONN
*I *6009:A I *D sky130_fd_sc_hd__clkbuf_1
*I *6008:X O *D sky130_fd_sc_hd__mux2_1
*CAP
1 *6009:A 0.000223097
2 *6008:X 0.000223097
3 *6009:A *329:62 5.71472e-05
4 *6009:A *484:34 7.4826e-05
5 *6009:A *484:118 0
6 *6009:A *746:14 0
7 *6340:D *6009:A 0.00012401
*RES
1 *6008:X *6009:A 32.2071 
*END

*D_NET *302 0.000471811
*CONN
*I *6011:A I *D sky130_fd_sc_hd__clkbuf_1
*I *6010:X O *D sky130_fd_sc_hd__mux2_1
*CAP
1 *6011:A 0.000119706
2 *6010:X 0.000119706
3 *6011:A *757:33 0
4 *6011:A *757:56 0.000232399
*RES
1 *6010:X *6011:A 21.5107 
*END

*D_NET *303 0.000646564
*CONN
*I *6013:A I *D sky130_fd_sc_hd__clkbuf_1
*I *6012:X O *D sky130_fd_sc_hd__mux2_1
*CAP
1 *6013:A 0.000280723
2 *6012:X 0.000280723
3 *6013:A *5969:A1 0
4 *6013:A *6612:A 0
5 *6013:A *6616:A 0
6 *6013:A *329:50 0
7 *6013:A *493:71 0
8 *6013:A *525:10 0
9 *6342:D *6013:A 7.83366e-05
10 *298:37 *6013:A 6.78055e-06
*RES
1 *6012:X *6013:A 32.5107 
*END

*D_NET *304 0.000152141
*CONN
*I *6015:A I *D sky130_fd_sc_hd__clkbuf_1
*I *6014:X O *D sky130_fd_sc_hd__mux2_1
*CAP
1 *6015:A 6.41856e-05
2 *6014:X 6.41856e-05
3 *6015:A *319:51 1.77179e-05
4 *6015:A *329:29 6.05161e-06
*RES
1 *6014:X *6015:A 19.8679 
*END

*D_NET *305 0.0005895
*CONN
*I *6017:A I *D sky130_fd_sc_hd__clkbuf_1
*I *6016:X O *D sky130_fd_sc_hd__mux2_1
*CAP
1 *6017:A 0.000268051
2 *6016:X 0.000268051
3 *6017:A *6389:CLK 0
4 *6017:A *485:28 0
5 *6017:A *485:30 0
6 *6344:D *6017:A 5.33978e-05
7 *298:77 *6017:A 0
*RES
1 *6016:X *6017:A 32.2071 
*END

*D_NET *306 0.000868081
*CONN
*I *6019:A I *D sky130_fd_sc_hd__clkbuf_1
*I *6018:X O *D sky130_fd_sc_hd__mux2_1
*CAP
1 *6019:A 0.000300984
2 *6018:X 0.000300984
3 *6019:A *6303:A 8.94671e-05
4 *6019:A *6345:CLK 6.10501e-05
5 *6019:A *460:8 3.5707e-05
6 *6019:A *551:6 2.27416e-05
7 *6345:D *6019:A 5.71472e-05
*RES
1 *6018:X *6019:A 33.6357 
*END

*D_NET *307 0.00137083
*CONN
*I *6021:B I *D sky130_fd_sc_hd__nor2_1
*I *6114:A I *D sky130_fd_sc_hd__nor2_1
*I *6132:B I *D sky130_fd_sc_hd__nor2_1
*I *6020:X O *D sky130_fd_sc_hd__or2_1
*CAP
1 *6021:B 0.000137513
2 *6114:A 0
3 *6132:B 1.79444e-05
4 *6020:X 6.34747e-05
5 *307:17 0.00022078
6 *307:6 0.000164686
7 *6021:B *6132:A 9.7049e-06
8 *6132:B *6132:A 1.61893e-05
9 *307:6 *6132:A 2.89114e-05
10 *307:6 *360:25 0.00018825
11 *307:17 *6115:B1 0.00010096
12 *307:17 *6132:A 5.57575e-05
13 *307:17 *360:25 8.27532e-05
14 *5901:A *6021:B 0
15 *5901:A *307:6 4.27935e-05
16 *5901:B *307:6 1.02821e-05
17 *182:56 *6132:B 0
18 *182:56 *307:6 0.000140933
19 *212:14 *6021:B 2.56601e-05
20 *292:12 *6021:B 6.42338e-05
*RES
1 *6020:X *307:6 11.8893 
2 *307:6 *6132:B 9.72857 
3 *307:6 *307:17 2.60714 
4 *307:17 *6114:A 9.3 
5 *307:17 *6021:B 21.2107 
*END

*D_NET *308 0.000926647
*CONN
*I *6022:B1 I *D sky130_fd_sc_hd__o211a_4
*I *6021:Y O *D sky130_fd_sc_hd__nor2_1
*CAP
1 *6022:B1 0.000141833
2 *6021:Y 0.000141833
3 *6022:B1 *309:10 4.43256e-05
4 *6022:B1 *401:79 0.000120587
5 *6021:A *6022:B1 2.89016e-05
6 *6022:C1 *6022:B1 0.000186669
7 *215:174 *6022:B1 0.000262498
*RES
1 *6021:Y *6022:B1 23.2429 
*END

*D_NET *309 0.0276528
*CONN
*I *6033:S I *D sky130_fd_sc_hd__mux2_1
*I *6023:S I *D sky130_fd_sc_hd__mux2_1
*I *6025:S I *D sky130_fd_sc_hd__mux2_1
*I *6029:S I *D sky130_fd_sc_hd__mux2_1
*I *6027:S I *D sky130_fd_sc_hd__mux2_1
*I *6035:S I *D sky130_fd_sc_hd__mux2_1
*I *6031:S I *D sky130_fd_sc_hd__mux2_1
*I *6037:S I *D sky130_fd_sc_hd__mux2_1
*I *6022:X O *D sky130_fd_sc_hd__o211a_4
*CAP
1 *6033:S 0.000663659
2 *6023:S 0
3 *6025:S 0.000204631
4 *6029:S 0.00155812
5 *6027:S 0
6 *6035:S 0
7 *6031:S 0.000142647
8 *6037:S 4.49666e-05
9 *6022:X 0.000331192
10 *309:101 0.000984096
11 *309:69 0.00166869
12 *309:65 0.00146221
13 *309:52 0.00133844
14 *309:31 0.00135962
15 *309:16 0.00049567
16 *309:14 0.00183016
17 *309:10 0.00282501
18 *6025:S *6023:A0 2.56694e-05
19 *6025:S *479:132 1.94879e-05
20 *6029:S *5949:A1 7.8327e-05
21 *6029:S *5949:A2 0.00012116
22 *6029:S *6029:A0 2.44318e-05
23 *6029:S *6029:A1 0.000142856
24 *6029:S *6030:A 1.24368e-05
25 *6029:S *6140:S 0
26 *6029:S *6175:A0 0
27 *6029:S *6193:A0 0.000148903
28 *6029:S *6565:A 1.00375e-05
29 *6029:S *6611:A 0
30 *6029:S *6632:A 0
31 *6029:S *401:87 0
32 *6029:S *483:63 0
33 *6029:S *495:88 0
34 *6029:S *757:75 9.41642e-05
35 *6029:S *757:79 0
36 *6031:S *6031:A0 4.72818e-05
37 *6031:S *6392:CLK 0.000175519
38 *6031:S *6595:A 0.000268403
39 *6031:S *625:51 9.24395e-05
40 *6033:S *5976:A0 0.0002671
41 *6033:S *401:79 0.000328363
42 *6037:S *6195:S 5.33433e-05
43 *309:10 *401:79 0.000127618
44 *309:14 *6180:A 0.000167022
45 *309:14 *6215:A1 0.000197984
46 *309:14 *6216:A 0
47 *309:14 *6321:A 0
48 *309:14 *6327:CLK 0.00021192
49 *309:14 *6353:CLK 0.000243207
50 *309:14 *6415:CLK 0
51 *309:14 *372:74 6.63383e-05
52 *309:14 *470:18 0
53 *309:14 *470:100 0
54 *309:14 *489:34 0.000769952
55 *309:14 *489:95 0.000514435
56 *309:14 *492:68 0.000227905
57 *309:14 *658:30 0
58 *309:31 *6195:S 0.000134539
59 *309:52 *5985:A3 0.000276027
60 *309:52 *6146:A0 0.000137262
61 *309:52 *6199:A1 7.64153e-05
62 *309:52 *6392:CLK 0.00019484
63 *309:52 *6630:A 0.000265453
64 *309:52 *625:51 6.9253e-05
65 *309:52 *625:66 2.16719e-05
66 *309:52 *768:44 0
67 *309:65 *6035:A0 0.000160679
68 *309:65 *6630:A 8.76257e-05
69 *309:65 *625:114 0.000798551
70 *309:69 *5949:A1 4.93999e-05
71 *309:69 *6525:A 4.20719e-05
72 *309:101 *5925:A3 8.08285e-05
73 *309:101 *625:114 0.000155926
74 *5925:S0 *6025:S 0
75 *5949:S0 *6029:S 0
76 *5949:S1 *6029:S 6.19965e-06
77 *5950:S *309:101 0.000170898
78 *5958:S0 *6029:S 0.000615492
79 *5988:S0 *309:52 0.00018077
80 *5998:A1 *309:14 0
81 *6022:A1 *309:10 0.000152215
82 *6022:A2 *309:10 9.60939e-05
83 *6022:B1 *309:10 4.43256e-05
84 *6022:C1 *309:10 0.000230482
85 *6305:A1 *309:14 0
86 *6325:D *6029:S 0.00033678
87 *6348:D *6029:S 0.000184436
88 *6348:D *309:65 0.000362975
89 *6348:D *309:69 9.14718e-05
90 *6349:D *6029:S 0.00012711
91 *6353:D *309:14 6.94775e-05
92 *6399:D *309:14 0
93 *6415:D *309:14 0
94 *215:10 *309:14 0
95 *225:160 *309:14 0
96 *225:181 *6029:S 0.000217143
97 *226:183 *6025:S 9.46128e-05
98 *226:204 *6029:S 0
99 *226:219 *6029:S 0
100 *230:66 *309:52 0
101 *230:81 *6033:S 0
102 *233:66 *6033:S 0.000175519
103 *237:97 *6031:S 0.000190838
104 *237:124 *6025:S 0.000267814
105 *237:124 *309:101 0.00037693
106 *255:14 *309:101 0.000289419
107 *279:18 *309:14 6.95205e-05
108 *287:22 *6037:S 9.71197e-05
109 *287:22 *309:31 0.00130915
*RES
1 *6022:X *309:10 16.8536 
2 *309:10 *309:14 45.9107 
3 *309:14 *309:16 4.5 
4 *309:16 *6037:S 10.675 
5 *309:16 *309:31 17.375 
6 *309:31 *6031:S 19.4607 
7 *309:31 *309:52 20.7321 
8 *309:52 *6035:S 9.3 
9 *309:52 *309:65 15.375 
10 *309:65 *309:69 7.05357 
11 *309:69 *6027:S 13.8 
12 *309:69 *6029:S 49.05 
13 *309:65 *309:101 23.4464 
14 *309:101 *6025:S 18.7821 
15 *309:101 *6023:S 13.8 
16 *309:10 *6033:S 32.5857 
*END

*D_NET *310 0.00100467
*CONN
*I *6024:A I *D sky130_fd_sc_hd__clkbuf_1
*I *6023:X O *D sky130_fd_sc_hd__mux2_1
*CAP
1 *6024:A 0.00024831
2 *6023:X 0.00024831
3 *6024:A *5925:A3 0.000145019
4 *6024:A *6187:A0 5.52238e-05
5 *6024:A *6545:A 0.000153047
6 *6024:A *6548:A 0.000154762
*RES
1 *6023:X *6024:A 32.5464 
*END

*D_NET *311 0.0010114
*CONN
*I *6026:A I *D sky130_fd_sc_hd__clkbuf_1
*I *6025:X O *D sky130_fd_sc_hd__mux2_1
*CAP
1 *6026:A 0.000324236
2 *6025:X 0.000324236
3 *6026:A *5940:A0 4.48206e-05
4 *6026:A *6025:A1 0.000318107
5 *6026:A *6645:A 0
6 *5925:S0 *6026:A 0
*RES
1 *6025:X *6026:A 33.4571 
*END

*D_NET *312 0.0021798
*CONN
*I *6028:A I *D sky130_fd_sc_hd__clkbuf_1
*I *6027:X O *D sky130_fd_sc_hd__mux2_1
*CAP
1 *6028:A 0.000633615
2 *6027:X 0.000633615
3 *6028:A *6027:A0 0.000127503
4 *6028:A *6120:A1 0
5 *6028:A *6388:CLK 0.000397924
6 *5950:A1 *6028:A 2.28428e-05
7 *5954:A0 *6028:A 2.79421e-05
8 *226:204 *6028:A 0.00027332
9 *226:219 *6028:A 6.30409e-05
*RES
1 *6027:X *6028:A 39.2071 
*END

*D_NET *313 0.000165453
*CONN
*I *6030:A I *D sky130_fd_sc_hd__clkbuf_1
*I *6029:X O *D sky130_fd_sc_hd__mux2_1
*CAP
1 *6030:A 6.50832e-05
2 *6029:X 6.50832e-05
3 *6030:A *757:75 2.28499e-05
4 *6029:S *6030:A 1.24368e-05
*RES
1 *6029:X *6030:A 19.8679 
*END

*D_NET *314 0.000885011
*CONN
*I *6032:A I *D sky130_fd_sc_hd__clkbuf_1
*I *6031:X O *D sky130_fd_sc_hd__mux2_1
*CAP
1 *6032:A 0.000319898
2 *6031:X 0.000319898
3 *6032:A *6195:S 0
4 *6032:A *6350:CLK 5.71472e-05
5 *6032:A *768:69 8.90314e-05
6 *239:168 *6032:A 9.90367e-05
*RES
1 *6031:X *6032:A 32.3679 
*END

*D_NET *315 0.000173695
*CONN
*I *6034:A I *D sky130_fd_sc_hd__clkbuf_1
*I *6033:X O *D sky130_fd_sc_hd__mux2_1
*CAP
1 *6034:A 4.69032e-05
2 *6033:X 4.69032e-05
3 *6034:A *401:83 2.27416e-05
4 *6034:A *779:141 5.71472e-05
*RES
1 *6033:X *6034:A 19.8679 
*END

*D_NET *316 0.000395627
*CONN
*I *6036:A I *D sky130_fd_sc_hd__clkbuf_1
*I *6035:X O *D sky130_fd_sc_hd__mux2_1
*CAP
1 *6036:A 0.000109813
2 *6035:X 0.000109813
3 *6036:A *6199:A1 5.26184e-05
4 *5988:S0 *6036:A 5.71472e-05
5 *6352:D *6036:A 3.92854e-05
6 *230:66 *6036:A 2.6949e-05
*RES
1 *6035:X *6036:A 30.0821 
*END

*D_NET *317 0.00145301
*CONN
*I *6038:A I *D sky130_fd_sc_hd__clkbuf_1
*I *6037:X O *D sky130_fd_sc_hd__mux2_1
*CAP
1 *6038:A 0.000398708
2 *6037:X 0.000398708
3 *6038:A *6195:S 0.000227532
4 *6038:A *6350:CLK 1.24368e-05
5 *6038:A *658:30 0.000100671
6 *6353:D *6038:A 0.00013021
7 *239:168 *6038:A 0.000184745
*RES
1 *6037:X *6038:A 35.6179 
*END

*D_NET *318 0.000873308
*CONN
*I *6040:B1 I *D sky130_fd_sc_hd__o211a_4
*I *6039:X O *D sky130_fd_sc_hd__and4_1
*CAP
1 *6040:B1 0.000365744
2 *6039:X 0.000365744
3 *6040:B1 *319:12 0.000116103
4 *6040:C1 *6040:B1 1.99099e-05
5 *190:207 *6040:B1 5.80706e-06
6 *292:12 *6040:B1 0
*RES
1 *6039:X *6040:B1 33.7429 
*END

*D_NET *319 0.0262103
*CONN
*I *6051:S I *D sky130_fd_sc_hd__mux2_1
*I *6047:S I *D sky130_fd_sc_hd__mux2_1
*I *6041:S I *D sky130_fd_sc_hd__mux2_1
*I *6043:S I *D sky130_fd_sc_hd__mux2_1
*I *6053:S I *D sky130_fd_sc_hd__mux2_1
*I *6045:S I *D sky130_fd_sc_hd__mux2_1
*I *6049:S I *D sky130_fd_sc_hd__mux2_1
*I *6055:S I *D sky130_fd_sc_hd__mux2_1
*I *6040:X O *D sky130_fd_sc_hd__o211a_4
*CAP
1 *6051:S 0.000238109
2 *6047:S 0.000202593
3 *6041:S 0
4 *6043:S 0.000716107
5 *6053:S 3.82418e-05
6 *6045:S 0
7 *6049:S 0
8 *6055:S 5.71074e-05
9 *6040:X 0.00138492
10 *319:109 0.00117769
11 *319:105 0.00147861
12 *319:95 0.00213241
13 *319:84 0.00215945
14 *319:59 0.00206786
15 *319:51 0.00249147
16 *319:12 0.00291243
17 *6043:S *5942:A2 9.80173e-05
18 *6043:S *5987:A0 8.27441e-05
19 *6043:S *6044:A 4.87953e-05
20 *6043:S *6053:A0 9.60939e-05
21 *6043:S *6072:A 8.00806e-05
22 *6043:S *6368:CLK 5.33433e-05
23 *6043:S *6539:A 8.32242e-05
24 *6043:S *329:87 0
25 *6043:S *485:90 0.000175404
26 *6043:S *485:118 7.99044e-05
27 *6043:S *526:6 1.07719e-05
28 *6047:S *6047:A0 6.2198e-05
29 *6047:S *6047:A1 0.000290226
30 *6047:S *6048:A 0.000186669
31 *6047:S *6294:A0 8.86512e-05
32 *6051:S *6051:A0 6.96499e-06
33 *6051:S *6298:A1 2.12801e-05
34 *6051:S *779:181 0.000125351
35 *6055:S *6055:A1 2.08464e-05
36 *6055:S *460:31 0.000160569
37 *6055:S *636:38 6.54721e-05
38 *6055:S *636:47 3.18676e-05
39 *319:12 *5996:A0 0
40 *319:12 *5996:A1 0
41 *319:12 *5996:A3 0
42 *319:12 *6039:C 0
43 *319:12 *6074:A 0
44 *319:12 *6383:CLK 0
45 *319:12 *6606:A 0
46 *319:51 *5978:A1 0.00011623
47 *319:51 *5978:A3 8.07951e-05
48 *319:51 *5996:A1 0
49 *319:51 *6014:A1 0.000181796
50 *319:51 *6583:A 5.52238e-05
51 *319:51 *329:29 0.000881058
52 *319:51 *779:33 3.17148e-05
53 *319:51 *779:181 0.000161411
54 *319:59 *6049:A0 1.54142e-05
55 *319:59 *6049:A1 0.00018372
56 *319:59 *6050:A 0.000268396
57 *319:59 *6297:A 0.000126629
58 *319:59 *493:69 0.00016344
59 *319:84 *5951:A1 2.59355e-05
60 *319:84 *5951:A3 0.000215348
61 *319:84 *6045:A0 1.62025e-05
62 *319:84 *6045:A1 0.000166299
63 *319:84 *6046:A 0.000266646
64 *319:84 *6049:A0 0.000228558
65 *319:84 *6050:A 0.000189345
66 *319:84 *6593:A 1.04232e-05
67 *319:84 *6653:A 3.29297e-05
68 *319:84 *546:8 4.39965e-05
69 *319:95 *6045:A0 5.35386e-05
70 *319:105 *5960:A0 3.34783e-05
71 *319:105 *5960:A3 1.37292e-05
72 *319:105 *6010:A0 2.56694e-05
73 *319:105 *6042:A 1.78353e-05
74 *319:105 *6047:A1 0
75 *319:105 *6048:A 7.38748e-05
76 *319:105 *6288:A0 6.62243e-05
77 *319:105 *6294:A0 0.000136744
78 *319:105 *6602:A 3.19058e-05
79 *319:105 *460:78 0
80 *319:105 *486:34 0.000383432
81 *319:105 *486:93 0.000148189
82 *319:105 *757:154 0
83 *319:109 *6288:A0 0.000157455
84 *319:109 *6502:A 0.000127439
85 *319:109 *479:238 0.000212517
86 *319:109 *485:10 0.000342495
87 *319:109 *486:10 0.000250201
88 *319:109 *486:34 0.000350859
89 *5996:S0 *319:12 6.65302e-05
90 *6015:A *319:51 1.77179e-05
91 *6040:B1 *319:12 0.000116103
92 *6354:D *319:105 0
93 *6356:D *319:84 0
94 *6359:D *6051:S 0
95 *6359:D *319:51 0
96 *6361:D *319:51 0
97 *6368:D *6043:S 1.64343e-05
98 *6383:D *319:12 0
99 *6482:D *319:84 1.64343e-05
100 *6484:D *319:59 0.000188586
101 *16:5 *319:84 0
102 *182:12 *319:12 6.75007e-05
103 *182:40 *319:12 0
104 *190:207 *319:12 1.02504e-05
105 *211:23 *319:12 0
106 *211:25 *319:12 0
107 *211:31 *319:12 0
108 *230:128 *6043:S 0.000419575
109 *232:141 *319:105 0
110 *232:143 *319:105 6.34196e-05
111 *232:157 *319:109 0.000169158
112 *232:167 *6043:S 0.000246064
113 *233:181 *319:109 0
114 *298:18 *319:12 0
*RES
1 *6040:X *319:12 39.2821 
2 *319:12 *6055:S 16.55 
3 *319:12 *319:51 42.8036 
4 *319:51 *319:59 19.8571 
5 *319:59 *6049:S 9.3 
6 *319:59 *319:84 35.7321 
7 *319:84 *6045:S 9.3 
8 *319:84 *319:95 19.875 
9 *319:95 *319:105 21.2857 
10 *319:105 *319:109 18.5893 
11 *319:109 *6053:S 10.0321 
12 *319:109 *6043:S 36.5857 
13 *319:105 *6041:S 13.8 
14 *319:95 *6047:S 20.6571 
15 *319:51 *6051:S 17.5321 
*END

*D_NET *320 0.00119973
*CONN
*I *6042:A I *D sky130_fd_sc_hd__clkbuf_1
*I *6041:X O *D sky130_fd_sc_hd__mux2_1
*CAP
1 *6042:A 0.000197835
2 *6041:X 0.000197835
3 *6042:A *5931:A1 0.000403817
4 *6042:A *6288:A0 0.000172233
5 *6042:A *339:65 0.000139913
6 *6042:A *724:151 7.02611e-05
7 *319:105 *6042:A 1.78353e-05
*RES
1 *6041:X *6042:A 33.5821 
*END

*D_NET *321 0.00119476
*CONN
*I *6044:A I *D sky130_fd_sc_hd__clkbuf_1
*I *6043:X O *D sky130_fd_sc_hd__mux2_1
*CAP
1 *6044:A 0.000378953
2 *6043:X 0.000378953
3 *6044:A *5942:A2 7.12625e-05
4 *6044:A *6355:CLK 0.000174671
5 *6044:A *6363:CLK 5.52302e-05
6 *6044:A *485:90 1.02504e-05
7 *6043:S *6044:A 4.87953e-05
8 *6355:D *6044:A 7.6644e-05
*RES
1 *6043:X *6044:A 33.4929 
*END

*D_NET *322 0.000769255
*CONN
*I *6046:A I *D sky130_fd_sc_hd__clkbuf_1
*I *6045:X O *D sky130_fd_sc_hd__mux2_1
*CAP
1 *6046:A 0.000226866
2 *6045:X 0.000226866
3 *6046:A *5951:A3 1.33343e-05
4 *6046:A *6653:A 9.15842e-06
5 *16:5 *6046:A 2.63844e-05
6 *319:84 *6046:A 0.000266646
*RES
1 *6045:X *6046:A 32.6714 
*END

*D_NET *323 0.000910978
*CONN
*I *6048:A I *D sky130_fd_sc_hd__clkbuf_1
*I *6047:X O *D sky130_fd_sc_hd__mux2_1
*CAP
1 *6048:A 0.000207048
2 *6047:X 0.000207048
3 *6048:A *6294:A0 5.52302e-05
4 *6048:A *486:83 5.33005e-05
5 *6048:A *486:93 3.17148e-05
6 *6047:S *6048:A 0.000186669
7 *6357:D *6048:A 9.60939e-05
8 *319:105 *6048:A 7.38748e-05
*RES
1 *6047:X *6048:A 32.5643 
*END

*D_NET *324 0.00179431
*CONN
*I *6050:A I *D sky130_fd_sc_hd__clkbuf_1
*I *6049:X O *D sky130_fd_sc_hd__mux2_1
*CAP
1 *6050:A 0.000616515
2 *6049:X 0.000616515
3 *6050:A *6049:A0 5.25361e-05
4 *6050:A *6356:CLK 0
5 *6358:D *6050:A 5.09999e-05
6 *319:59 *6050:A 0.000268396
7 *319:84 *6050:A 0.000189345
*RES
1 *6049:X *6050:A 37.5464 
*END

*D_NET *325 0.00039802
*CONN
*I *6052:A I *D sky130_fd_sc_hd__clkbuf_1
*I *6051:X O *D sky130_fd_sc_hd__mux2_1
*CAP
1 *6052:A 0.000154021
2 *6051:X 0.000154021
3 *6052:A *6298:A1 5.23822e-05
4 *6359:D *6052:A 3.75959e-05
*RES
1 *6051:X *6052:A 30.1893 
*END

*D_NET *326 0.00168631
*CONN
*I *6054:A I *D sky130_fd_sc_hd__clkbuf_1
*I *6053:X O *D sky130_fd_sc_hd__mux2_1
*CAP
1 *6054:A 0.000617718
2 *6053:X 0.000617718
3 *6054:A *6651:A 7.83659e-05
4 *6054:A *460:80 8.00806e-05
5 *6054:A *485:16 0.000102676
6 *6054:A *485:86 8.29316e-05
7 *6054:A *534:16 0.000106822
*RES
1 *6053:X *6054:A 36.3679 
*END

*D_NET *327 0.00017045
*CONN
*I *6056:A I *D sky130_fd_sc_hd__clkbuf_1
*I *6055:X O *D sky130_fd_sc_hd__mux2_1
*CAP
1 *6056:A 5.14227e-05
2 *6055:X 5.14227e-05
3 *6056:A *460:31 6.76043e-05
*RES
1 *6055:X *6056:A 19.8679 
*END

*D_NET *328 0.00110378
*CONN
*I *6058:B1 I *D sky130_fd_sc_hd__o211a_4
*I *6057:X O *D sky130_fd_sc_hd__and4b_1
*CAP
1 *6058:B1 0.000503848
2 *6057:X 0.000503848
3 *6058:B1 *329:10 9.60875e-05
*RES
1 *6057:X *6058:B1 26.1357 
*END

*D_NET *329 0.0263363
*CONN
*I *6067:S I *D sky130_fd_sc_hd__mux2_1
*I *6065:S I *D sky130_fd_sc_hd__mux2_1
*I *6059:S I *D sky130_fd_sc_hd__mux2_1
*I *6071:S I *D sky130_fd_sc_hd__mux2_1
*I *6061:S I *D sky130_fd_sc_hd__mux2_1
*I *6063:S I *D sky130_fd_sc_hd__mux2_1
*I *6069:S I *D sky130_fd_sc_hd__mux2_1
*I *6073:S I *D sky130_fd_sc_hd__mux2_1
*I *6058:X O *D sky130_fd_sc_hd__o211a_4
*CAP
1 *6067:S 0
2 *6065:S 0.00010861
3 *6059:S 0
4 *6071:S 0
5 *6061:S 0.000377852
6 *6063:S 0.000296944
7 *6069:S 2.23854e-05
8 *6073:S 0
9 *6058:X 0.000563821
10 *329:87 0.000743569
11 *329:85 0.00107714
12 *329:81 0.00242502
13 *329:62 0.00289834
14 *329:50 0.00219652
15 *329:29 0.00186445
16 *329:10 0.00120577
17 *6061:S *6061:A0 5.62995e-05
18 *6061:S *485:90 9.56968e-05
19 *6063:S *5951:A1 0
20 *6063:S *5951:A2 5.66157e-05
21 *6063:S *5951:A3 7.79428e-05
22 *6063:S *6063:A0 0.00010096
23 *6063:S *6063:A1 7.03393e-05
24 *6063:S *6064:A 0.000148196
25 *6063:S *460:76 0.000230482
26 *6065:S *6065:A0 0.00010096
27 *6065:S *6066:A 5.62995e-05
28 *6065:S *470:151 0.000108613
29 *329:10 *6555:A 6.1684e-05
30 *329:10 *351:31 0.000947865
31 *329:10 *493:10 0.000231091
32 *329:10 *493:27 0
33 *329:10 *636:53 0.00166314
34 *329:29 *6014:A0 0.000287004
35 *329:29 *6014:A1 3.63805e-05
36 *329:29 *6055:A0 0
37 *329:29 *6069:A0 5.62995e-05
38 *329:29 *6555:A 1.02504e-05
39 *329:29 *493:10 9.74684e-05
40 *329:29 *493:27 0
41 *329:29 *493:56 0.000107893
42 *329:29 *779:22 1.02936e-05
43 *329:50 *5969:A1 0.000148189
44 *329:50 *6012:A0 9.32873e-05
45 *329:50 *6067:A0 1.21289e-05
46 *329:50 *6067:A1 0.000440705
47 *329:50 *6068:A 0.00010096
48 *329:50 *6069:A0 0.000242668
49 *329:50 *6553:A 2.70354e-05
50 *329:50 *768:18 0
51 *329:50 *768:20 0
52 *329:50 *768:26 0
53 *329:50 *779:20 0.000189855
54 *329:62 *6008:A0 3.47255e-05
55 *329:62 *6008:A1 5.52238e-05
56 *329:62 *6067:A0 0.00044852
57 *329:62 *6553:A 5.63018e-05
58 *329:81 *5960:A2 0.000354435
59 *329:81 *470:151 0.000341516
60 *329:81 *539:8 5.52302e-05
61 *329:85 *6041:A0 0
62 *329:85 *6065:A1 5.33978e-05
63 *329:85 *6103:S 9.40388e-05
64 *329:85 *6104:A 0.000199613
65 *329:85 *724:164 0.000738644
66 *329:87 *6539:A 0
67 *329:87 *485:90 8.56716e-05
68 *329:87 *485:118 0.000118339
69 *5935:A1 *329:85 0.000129868
70 *5960:S1 *329:85 6.45111e-05
71 *5962:A0 *329:85 0
72 *5963:A1 *329:85 0.000699657
73 *5963:S *329:85 0
74 *6008:S *329:62 0.000122159
75 *6009:A *329:62 5.71472e-05
76 *6013:A *329:50 0
77 *6015:A *329:29 6.05161e-06
78 *6043:S *329:87 0
79 *6058:B1 *329:10 9.60875e-05
80 *6343:D *329:29 9.04068e-05
81 *16:5 *6063:S 0
82 *230:128 *329:87 0
83 *230:211 *329:85 1.5942e-05
84 *230:211 *329:87 1.19402e-05
85 *233:139 *6063:S 0.000125684
86 *233:150 *6063:S 7.50697e-05
87 *233:171 *329:85 0
88 *237:169 *6061:S 6.58289e-05
89 *237:169 *329:85 6.85873e-05
90 *237:169 *329:87 0.000284151
91 *298:67 *329:62 0.000484524
92 *298:67 *329:81 0.000774937
93 *319:51 *329:29 0.000881058
*RES
1 *6058:X *329:10 36.425 
2 *329:10 *6073:S 13.8 
3 *329:10 *329:29 21.1786 
4 *329:29 *6069:S 9.72857 
5 *329:29 *329:50 32.1071 
6 *329:50 *329:62 17.9821 
7 *329:62 *6063:S 26.9786 
8 *329:62 *329:81 23.5714 
9 *329:81 *329:85 26.7857 
10 *329:85 *329:87 9.83929 
11 *329:87 *6061:S 21.1036 
12 *329:87 *6071:S 13.8 
13 *329:85 *6059:S 13.8 
14 *329:81 *6065:S 12.3 
15 *329:50 *6067:S 9.3 
*END

*D_NET *330 0.000440812
*CONN
*I *6060:A I *D sky130_fd_sc_hd__clkbuf_1
*I *6059:X O *D sky130_fd_sc_hd__mux2_1
*CAP
1 *6060:A 0.000142268
2 *6059:X 0.000142268
3 *230:211 *6060:A 0.000156276
4 *259:18 *6060:A 0
*RES
1 *6059:X *6060:A 30.1893 
*END

*D_NET *331 0.00026974
*CONN
*I *6062:A I *D sky130_fd_sc_hd__clkbuf_1
*I *6061:X O *D sky130_fd_sc_hd__mux2_1
*CAP
1 *6062:A 4.87364e-05
2 *6061:X 4.87364e-05
3 *6062:A *351:119 4.48206e-05
4 *231:22 *6062:A 0.000127446
*RES
1 *6061:X *6062:A 29.2429 
*END

*D_NET *332 0.0005378
*CONN
*I *6064:A I *D sky130_fd_sc_hd__clkbuf_1
*I *6063:X O *D sky130_fd_sc_hd__mux2_1
*CAP
1 *6064:A 6.64386e-05
2 *6063:X 6.64386e-05
3 *6064:A *5951:A3 0.000148196
4 *6064:A *6364:CLK 5.33005e-05
5 *6063:S *6064:A 0.000148196
6 *6364:D *6064:A 5.52302e-05
*RES
1 *6063:X *6064:A 30.0821 
*END

*D_NET *333 0.000730338
*CONN
*I *6066:A I *D sky130_fd_sc_hd__clkbuf_1
*I *6065:X O *D sky130_fd_sc_hd__mux2_1
*CAP
1 *6066:A 0.000276555
2 *6065:X 0.000276555
3 *6066:A *5960:A1 0
4 *6066:A *6521:A 0
5 *6066:A *486:106 0
6 *5960:S1 *6066:A 0
7 *5962:A0 *6066:A 7.83659e-05
8 *6065:S *6066:A 5.62995e-05
9 *6365:D *6066:A 4.25622e-05
*RES
1 *6065:X *6066:A 32.6179 
*END

*D_NET *334 0.00130348
*CONN
*I *6068:A I *D sky130_fd_sc_hd__clkbuf_1
*I *6067:X O *D sky130_fd_sc_hd__mux2_1
*CAP
1 *6068:A 0.000304365
2 *6067:X 0.000304365
3 *6068:A *5969:A3 4.13573e-05
4 *5969:S0 *6068:A 0
5 *6366:D *6068:A 0.000311028
6 *233:81 *6068:A 0.000158192
7 *233:92 *6068:A 8.32171e-05
8 *329:50 *6068:A 0.00010096
*RES
1 *6067:X *6068:A 35.35 
*END

*D_NET *335 0.00100395
*CONN
*I *6070:A I *D sky130_fd_sc_hd__clkbuf_1
*I *6069:X O *D sky130_fd_sc_hd__mux2_1
*CAP
1 *6070:A 0.000274751
2 *6069:X 0.000274751
3 *6070:A *5978:A1 7.83659e-05
4 *6070:A *5978:A3 2.60158e-05
5 *6070:A *6367:CLK 0.00012073
6 *6070:A *779:33 4.38511e-05
7 *5978:S0 *6070:A 0
8 *6367:D *6070:A 3.48705e-05
9 *233:106 *6070:A 0.000150618
*RES
1 *6069:X *6070:A 33.5643 
*END

*D_NET *336 0.000509242
*CONN
*I *6072:A I *D sky130_fd_sc_hd__clkbuf_1
*I *6071:X O *D sky130_fd_sc_hd__mux2_1
*CAP
1 *6072:A 0.000175402
2 *6071:X 0.000175402
3 *6043:S *6072:A 8.00806e-05
4 *230:128 *6072:A 7.83587e-05
*RES
1 *6071:X *6072:A 31.0286 
*END

*D_NET *337 0.00112556
*CONN
*I *6074:A I *D sky130_fd_sc_hd__clkbuf_1
*I *6073:X O *D sky130_fd_sc_hd__mux2_1
*CAP
1 *6074:A 0.000244175
2 *6073:X 0.000244175
3 *6074:A *5996:A1 4.38604e-05
4 *6074:A *6345:CLK 0.00012401
5 *6074:A *493:27 0.000150625
6 *6074:A *636:53 0
7 *5996:S0 *6074:A 0
8 *6369:D *6074:A 0.000292708
9 *292:12 *6074:A 2.60064e-05
10 *319:12 *6074:A 0
*RES
1 *6073:X *6074:A 34.4036 
*END

*D_NET *338 0.00267617
*CONN
*I *6076:B1 I *D sky130_fd_sc_hd__o211a_4
*I *6075:X O *D sky130_fd_sc_hd__and4b_1
*CAP
1 *6076:B1 0.00094845
2 *6075:X 0.00094845
3 *6076:B1 *339:8 2.22891e-05
4 *6076:B1 *339:31 7.83346e-05
5 *6076:B1 *810:81 2.79092e-05
6 *6003:A1 *6076:B1 0.000117621
7 *6003:A2 *6076:B1 1.82657e-05
8 *6003:C1 *6076:B1 2.87555e-06
9 *6040:A1 *6076:B1 0.000404707
10 *298:18 *6076:B1 0.000107267
*RES
1 *6075:X *6076:B1 40.8857 
*END

*D_NET *339 0.0305163
*CONN
*I *6087:S I *D sky130_fd_sc_hd__mux2_1
*I *6083:S I *D sky130_fd_sc_hd__mux2_1
*I *6077:S I *D sky130_fd_sc_hd__mux2_1
*I *6079:S I *D sky130_fd_sc_hd__mux2_1
*I *6089:S I *D sky130_fd_sc_hd__mux2_1
*I *6081:S I *D sky130_fd_sc_hd__mux2_1
*I *6085:S I *D sky130_fd_sc_hd__mux2_1
*I *6091:S I *D sky130_fd_sc_hd__mux2_1
*I *6076:X O *D sky130_fd_sc_hd__o211a_4
*CAP
1 *6087:S 0.00037742
2 *6083:S 0.000290324
3 *6077:S 5.61018e-05
4 *6079:S 0
5 *6089:S 0.00085653
6 *6081:S 0
7 *6085:S 2.23854e-05
8 *6091:S 0.000673762
9 *6076:X 8.6847e-05
10 *339:81 0.00184037
11 *339:71 0.00148908
12 *339:65 0.00340158
13 *339:50 0.00368324
14 *339:37 0.00151595
15 *339:31 0.00177533
16 *339:8 0.00168608
17 *6077:S *6077:A0 1.74352e-05
18 *6077:S *6077:A1 5.33433e-05
19 *6083:S *5961:A0 0
20 *6083:S *6084:A 0
21 *6083:S *6531:A 8.14438e-05
22 *6083:S *515:10 7.8327e-05
23 *6087:S *6087:A0 4.87953e-05
24 *6087:S *6087:A1 2.95726e-05
25 *6087:S *470:100 2.6949e-05
26 *6087:S *492:8 0
27 *6087:S *492:64 0
28 *6087:S *779:62 0.000322453
29 *6089:S *5988:A3 2.89016e-05
30 *6089:S *6079:A0 2.79092e-05
31 *6089:S *6089:A0 8.00315e-05
32 *6089:S *6306:S 0.000335929
33 *6089:S *6570:A 8.86413e-05
34 *6089:S *518:12 0.00010986
35 *6091:S *6091:A0 9.41642e-05
36 *6091:S *6096:B1 0.000195562
37 *6091:S *6166:S 0.00028147
38 *6091:S *6635:A 9.41642e-05
39 *6091:S *351:31 0.000692354
40 *6091:S *362:12 4.23086e-05
41 *6091:S *511:10 6.05161e-06
42 *6091:S *519:10 0.000150625
43 *6091:S *636:53 0.00180414
44 *6091:S *636:57 1.21258e-05
45 *339:31 *470:100 0.000110803
46 *339:31 *492:64 0
47 *339:31 *492:68 0
48 *339:37 *6085:A0 2.44318e-05
49 *339:37 *6085:A1 5.52238e-05
50 *339:37 *6086:A 3.18676e-05
51 *339:37 *6162:A0 0.000193883
52 *339:37 *6163:A 1.04232e-05
53 *339:37 *6572:A 5.52238e-05
54 *339:37 *382:24 0.00058514
55 *339:37 *779:62 0.0001399
56 *339:37 *779:73 0.000128496
57 *339:50 *6085:A0 0.000448243
58 *339:50 *6085:A1 1.24368e-05
59 *339:50 *6501:A 0
60 *339:50 *6538:A 0
61 *339:50 *6632:A 5.52238e-05
62 *339:50 *382:24 0.000264212
63 *339:50 *483:53 5.35516e-05
64 *339:50 *746:45 9.01334e-05
65 *339:65 *6156:A0 1.03968e-05
66 *339:65 *6156:A1 0.00018796
67 *339:65 *6157:A 0.000527311
68 *339:65 *6538:A 0
69 *339:65 *724:151 2.95726e-05
70 *339:65 *724:164 0.000130408
71 *339:65 *746:37 0
72 *339:71 *5932:A3 0
73 *339:71 *6059:A0 4.66203e-05
74 *339:71 *6077:A1 5.03772e-05
75 *339:71 *6078:A 0.000344917
76 *339:71 *6084:A 0
77 *339:71 *351:111 0
78 *339:81 *5932:A0 0.000109659
79 *339:81 *5932:A2 0
80 *339:81 *5932:A3 0
81 *339:81 *6152:A1 0
82 *339:81 *6306:A1 7.17932e-05
83 *339:81 *6306:S 0.00124963
84 *339:81 *351:111 0
85 *339:81 *735:162 2.79421e-05
86 *5932:S0 *6089:S 0
87 *5932:S0 *339:81 0
88 *5943:S0 *6089:S 0.000195731
89 *5944:S *6089:S 0.00064246
90 *5961:S1 *6083:S 0
91 *5962:A1 *6083:S 0
92 *5964:A0 *6083:S 0
93 *5964:A0 *339:65 8.55687e-05
94 *5964:A0 *339:71 0
95 *6040:A2 *339:8 0
96 *6042:A *339:65 0.000139913
97 *6076:A1 *339:31 1.21258e-05
98 *6076:A2 *339:31 0.000102197
99 *6076:B1 *339:8 2.22891e-05
100 *6076:B1 *339:31 7.83346e-05
101 *6370:D *339:71 0.000175519
102 *6402:D *339:81 0
103 *6407:D *6087:S 0
104 *6423:D *339:31 0.000101545
105 *203:101 *6091:S 0
106 *203:112 *6091:S 0
107 *230:140 *6089:S 0.000318107
108 *232:184 *6089:S 0.000661827
109 *233:247 *339:65 0.000454894
110 *237:150 *6089:S 2.24763e-05
*RES
1 *6076:X *339:8 10.675 
2 *339:8 *6091:S 43.7643 
3 *339:8 *339:31 18.7857 
4 *339:31 *339:37 17.7857 
5 *339:37 *6085:S 9.72857 
6 *339:37 *339:50 26.0714 
7 *339:50 *6081:S 13.8 
8 *339:50 *339:65 43.625 
9 *339:65 *339:71 14.6786 
10 *339:71 *339:81 31.75 
11 *339:81 *6089:S 39.5143 
12 *339:81 *6079:S 9.3 
13 *339:71 *6077:S 10.6571 
14 *339:65 *6083:S 19.3893 
15 *339:31 *6087:S 20.9607 
*END

*D_NET *340 0.000921171
*CONN
*I *6078:A I *D sky130_fd_sc_hd__clkbuf_1
*I *6077:X O *D sky130_fd_sc_hd__mux2_1
*CAP
1 *6078:A 0.000239118
2 *6077:X 0.000239118
3 *6078:A *5932:A3 0
4 *6078:A *6077:A1 9.80173e-05
5 *339:71 *6078:A 0.000344917
*RES
1 *6077:X *6078:A 32.9214 
*END

*D_NET *341 0.00141962
*CONN
*I *6080:A I *D sky130_fd_sc_hd__clkbuf_1
*I *6079:X O *D sky130_fd_sc_hd__mux2_1
*CAP
1 *6080:A 0.000256239
2 *6079:X 0.000256239
3 *6080:A *6079:A0 0.000486435
4 *6080:A *351:119 2.79092e-05
5 *5932:S0 *6080:A 4.15914e-05
6 *247:14 *6080:A 0.000351203
*RES
1 *6079:X *6080:A 35.6536 
*END

*D_NET *342 0.00195478
*CONN
*I *6082:A I *D sky130_fd_sc_hd__clkbuf_1
*I *6081:X O *D sky130_fd_sc_hd__mux2_1
*CAP
1 *6082:A 0.000493397
2 *6081:X 0.000493397
3 *6082:A *6380:CLK 0
4 *6082:A *382:53 0.000533203
5 *6082:A *479:218 0.00011365
6 *6082:A *484:19 0.000150632
7 *6380:D *6082:A 0.000170503
*RES
1 *6081:X *6082:A 36.725 
*END

*D_NET *343 0.00136999
*CONN
*I *6084:A I *D sky130_fd_sc_hd__clkbuf_1
*I *6083:X O *D sky130_fd_sc_hd__mux2_1
*CAP
1 *6084:A 0.00029523
2 *6083:X 0.00029523
3 *6084:A *6373:CLK 6.98762e-05
4 *6084:A *351:111 0.000332887
5 *5962:A1 *6084:A 0.000199698
6 *5964:A0 *6084:A 0.000177064
7 *6083:S *6084:A 0
8 *339:71 *6084:A 0
*RES
1 *6083:X *6084:A 34.9393 
*END

*D_NET *344 0.000327425
*CONN
*I *6086:A I *D sky130_fd_sc_hd__clkbuf_1
*I *6085:X O *D sky130_fd_sc_hd__mux2_1
*CAP
1 *6086:A 9.16695e-05
2 *6085:X 9.16695e-05
3 *230:81 *6086:A 4.79842e-05
4 *233:66 *6086:A 6.42338e-05
5 *339:37 *6086:A 3.18676e-05
*RES
1 *6085:X *6086:A 29.7786 
*END

*D_NET *345 0.00297081
*CONN
*I *6088:A I *D sky130_fd_sc_hd__clkbuf_1
*I *6087:X O *D sky130_fd_sc_hd__mux2_1
*CAP
1 *6088:A 0.000910264
2 *6087:X 0.000910264
3 *6088:A *479:188 0.000534229
4 *6088:A *492:8 0
5 *6088:A *492:16 0.000246758
6 *6088:A *509:12 0.000148189
7 *6375:D *6088:A 0.000221103
*RES
1 *6087:X *6088:A 43.2786 
*END

*D_NET *346 0.0011686
*CONN
*I *6090:A I *D sky130_fd_sc_hd__clkbuf_1
*I *6089:X O *D sky130_fd_sc_hd__mux2_1
*CAP
1 *6090:A 0.000399317
2 *6089:X 0.000399317
3 *6090:A *6376:CLK 5.03772e-05
4 *6090:A *6481:CLK 0.000213776
5 *6090:A *482:42 6.42242e-05
6 *6376:D *6090:A 4.15914e-05
*RES
1 *6089:X *6090:A 33.8857 
*END

*D_NET *347 0.000844756
*CONN
*I *6092:A I *D sky130_fd_sc_hd__clkbuf_1
*I *6091:X O *D sky130_fd_sc_hd__mux2_1
*CAP
1 *6092:A 0.000324703
2 *6091:X 0.000324703
3 *6092:A *6112:A 0.000125724
4 *6092:A *6377:CLK 6.42338e-05
5 *6092:A *511:10 5.39166e-06
*RES
1 *6091:X *6092:A 32.2429 
*END

*D_NET *348 0.00235052
*CONN
*I *6132:A I *D sky130_fd_sc_hd__nor2_1
*I *6095:A I *D sky130_fd_sc_hd__nor2_1
*I *6203:A I *D sky130_fd_sc_hd__nor2_1
*I *6093:X O *D sky130_fd_sc_hd__or2_1
*CAP
1 *6132:A 0.000124325
2 *6095:A 0.000245574
3 *6203:A 0.000102547
4 *6093:X 0
5 *348:10 0.00044271
6 *348:6 0.000218915
7 *6095:A *6111:S 0.000102324
8 *6095:A *6150:A 8.25512e-05
9 *6095:A *6150:B 8.46829e-05
10 *6095:A *6151:B1 5.24274e-05
11 *6095:A *6305:B1 9.22103e-06
12 *6132:A *6133:B1 1.02504e-05
13 *6203:A *6150:B 9.09669e-05
14 *6203:A *6234:B1 1.21258e-05
15 *348:10 *6133:B1 8.00806e-05
16 *348:10 *349:10 9.91086e-05
17 *5901:A *6132:A 9.25014e-06
18 *5901:B *6132:A 5.71472e-05
19 *5903:A *6095:A 4.28909e-05
20 *6021:B *6132:A 9.7049e-06
21 *6093:B *6132:A 0
22 *6132:B *6132:A 1.61893e-05
23 *182:56 *6132:A 0
24 *203:184 *6132:A 3.13225e-05
25 *203:184 *348:10 8.89289e-05
26 *212:14 *6132:A 3.57844e-05
27 *212:14 *348:10 0.000178412
28 *213:29 *6203:A 1.3701e-05
29 *292:12 *6095:A 2.47093e-05
30 *307:6 *6132:A 2.89114e-05
31 *307:17 *6132:A 5.57575e-05
*RES
1 *6093:X *348:6 13.8 
2 *348:6 *348:10 7.96429 
3 *348:10 *6203:A 10.9786 
4 *348:10 *6095:A 23.5321 
5 *348:6 *6132:A 17.05 
*END

*D_NET *349 0.00212332
*CONN
*I *6150:B I *D sky130_fd_sc_hd__nor2_1
*I *6304:B I *D sky130_fd_sc_hd__nor2_1
*I *6095:B I *D sky130_fd_sc_hd__nor2_1
*I *6094:X O *D sky130_fd_sc_hd__or2_1
*CAP
1 *6150:B 6.31787e-05
2 *6304:B 0
3 *6095:B 0.000157443
4 *6094:X 0.000254139
5 *349:27 6.31787e-05
6 *349:10 0.000411581
7 *6095:B *6096:B1 0
8 *6095:B *6151:B1 7.43578e-06
9 *6095:B *6234:B1 0.000195555
10 *6150:B *6234:B1 2.59355e-05
11 *6150:B *6305:B1 2.77258e-05
12 *6150:B *351:31 0
13 *5903:A *6095:B 0.000109239
14 *5903:A *349:10 5.80706e-06
15 *5905:A1 *6095:B 2.89016e-05
16 *6095:A *6150:B 8.46829e-05
17 *6203:A *6150:B 9.09669e-05
18 *203:175 *6095:B 1.02504e-05
19 *203:184 *6095:B 0.00022217
20 *203:184 *349:10 0.000137931
21 *212:14 *349:10 1.81709e-05
22 *216:116 *6095:B 1.57523e-05
23 *279:18 *349:10 9.41642e-05
24 *348:10 *349:10 9.91086e-05
*RES
1 *6094:X *349:10 18.7464 
2 *349:10 *6095:B 18.8714 
3 *349:10 *349:27 4.5 
4 *349:27 *6304:B 9.3 
5 *349:27 *6150:B 11.5143 
*END

*D_NET *350 0.00114832
*CONN
*I *6096:B1 I *D sky130_fd_sc_hd__o211a_4
*I *6095:Y O *D sky130_fd_sc_hd__nor2_1
*CAP
1 *6096:B1 0.000281842
2 *6095:Y 0.000281842
3 *6096:B1 *6151:B1 0.000267489
4 *6096:B1 *382:6 5.52302e-05
5 *6096:B1 *382:16 0
6 *6091:S *6096:B1 0.000195562
7 *6095:B *6096:B1 0
8 *203:101 *6096:B1 6.63569e-05
*RES
1 *6095:Y *6096:B1 34.1179 
*END

*D_NET *351 0.0316031
*CONN
*I *6101:S I *D sky130_fd_sc_hd__mux2_1
*I *6103:S I *D sky130_fd_sc_hd__mux2_1
*I *6097:S I *D sky130_fd_sc_hd__mux2_1
*I *6099:S I *D sky130_fd_sc_hd__mux2_1
*I *6109:S I *D sky130_fd_sc_hd__mux2_1
*I *6105:S I *D sky130_fd_sc_hd__mux2_1
*I *6107:S I *D sky130_fd_sc_hd__mux2_1
*I *6111:S I *D sky130_fd_sc_hd__mux2_1
*I *6096:X O *D sky130_fd_sc_hd__o211a_4
*CAP
1 *6101:S 0
2 *6103:S 0.000167083
3 *6097:S 0
4 *6099:S 2.70145e-05
5 *6109:S 0.000666662
6 *6105:S 0
7 *6107:S 2.52056e-05
8 *6111:S 0.000790298
9 *6096:X 0
10 *351:119 0.00191584
11 *351:111 0.00242302
12 *351:101 0.0037352
13 *351:79 0.00376642
14 *351:52 0.0026857
15 *351:31 0.0021819
16 *351:4 0.00166044
17 *6099:S *6099:A0 4.18895e-05
18 *6103:S *6556:A 0
19 *6107:S *6107:A0 5.52302e-05
20 *6109:S *6099:A0 5.71472e-05
21 *6109:S *6100:A 6.05161e-06
22 *6109:S *470:40 0.000532224
23 *6109:S *669:14 0
24 *6109:S *735:129 0.00106058
25 *6109:S *735:192 0.00015384
26 *6111:S *6130:S 0.00017335
27 *6111:S *6199:S 0.000183547
28 *6111:S *6234:B1 0
29 *6111:S *6377:CLK 0.000180408
30 *6111:S *428:52 0
31 *351:31 *6305:B1 6.43196e-05
32 *351:31 *6509:A 8.81343e-05
33 *351:31 *492:8 0
34 *351:31 *493:10 0.000176721
35 *351:31 *509:12 0
36 *351:31 *636:53 0.000123518
37 *351:52 *479:188 0
38 *351:79 *5970:A0 5.81317e-05
39 *351:79 *5970:A1 2.21972e-05
40 *351:79 *5970:A2 1.14548e-05
41 *351:79 *6101:A0 1.74352e-05
42 *351:79 *6102:A 6.48134e-05
43 *351:79 *6105:A0 4.46186e-06
44 *351:79 *6105:A1 0.000176998
45 *351:79 *746:31 5.62995e-05
46 *351:101 *5952:A1 8.98423e-06
47 *351:101 *5952:A2 0.000530078
48 *351:101 *6381:CLK 0.00023259
49 *351:101 *486:38 0.000109409
50 *351:101 *486:42 0.000168118
51 *351:101 *528:12 9.60939e-05
52 *351:101 *746:31 7.48301e-06
53 *351:111 *6059:A0 0
54 *351:111 *6071:A0 0
55 *351:111 *6098:A 0.000320031
56 *351:111 *6373:CLK 3.56566e-05
57 *351:111 *724:179 0.000143034
58 *351:119 *5943:A1 0
59 *351:119 *6061:A1 0.000322257
60 *351:119 *6071:A0 0.000101545
61 *351:119 *6100:A 0
62 *351:119 *470:52 0.000126439
63 *351:119 *529:16 0.000100831
64 *5903:A *6111:S 0
65 *5932:S0 *351:111 0.00021189
66 *5932:S0 *351:119 2.84494e-05
67 *5944:A0 *351:119 0.000272665
68 *5944:A1 *351:119 0.000147311
69 *5944:S *351:119 0.000125731
70 *5952:S0 *351:101 0.00010096
71 *5953:A1 *351:101 4.17509e-05
72 *5961:S0 *351:111 0.000212324
73 *5962:A0 *6103:S 0.000229443
74 *5962:S *6103:S 0
75 *5962:S *351:111 0
76 *5963:A1 *6103:S 0.000105347
77 *5963:A1 *351:111 0.000106533
78 *5963:S *351:111 0
79 *5980:S *351:52 1.94879e-05
80 *6058:C1 *351:31 0.000166976
81 *6062:A *351:119 4.48206e-05
82 *6080:A *351:119 2.79092e-05
83 *6084:A *351:111 0.000332887
84 *6091:S *351:31 0.000692354
85 *6095:A *6111:S 0.000102324
86 *6096:C1 *351:31 0
87 *6150:B *351:31 0
88 *6354:D *351:101 5.05572e-05
89 *6373:D *351:111 8.50804e-05
90 *6381:D *351:101 4.87669e-06
91 *190:59 *6111:S 0.000146474
92 *203:54 *6111:S 0
93 *203:64 *6111:S 7.83659e-05
94 *215:146 *351:31 7.50697e-05
95 *215:155 *351:31 0.000113887
96 *215:166 *351:31 8.31314e-05
97 *215:170 *351:31 5.58941e-05
98 *215:213 *351:31 0.00016384
99 *231:22 *6109:S 2.11419e-05
100 *231:22 *351:111 0
101 *231:22 *351:119 0
102 *232:81 *351:79 5.06983e-05
103 *232:85 *351:79 1.69497e-05
104 *232:278 *351:52 0.00033124
105 *237:169 *351:111 0
106 *284:16 *6109:S 6.80338e-05
107 *292:12 *6111:S 0.000590648
108 *329:10 *351:31 0.000947865
109 *329:85 *6103:S 9.40388e-05
110 *339:71 *351:111 0
111 *339:81 *351:111 0
*RES
1 *6096:X *351:4 9.3 
2 *351:4 *6111:S 38.0857 
3 *351:4 *351:31 31.2143 
4 *351:31 *6107:S 14.3357 
5 *351:31 *351:52 14.6706 
6 *351:52 *6105:S 9.3 
7 *351:52 *351:79 30.8393 
8 *351:79 *351:101 37.5536 
9 *351:101 *351:111 34.0179 
10 *351:111 *351:119 30.3929 
11 *351:119 *6109:S 31.1836 
12 *351:119 *6099:S 9.83571 
13 *351:111 *6097:S 13.8 
14 *351:101 *6103:S 19.3893 
15 *351:79 *6101:S 9.3 
*END

*D_NET *352 0.00127075
*CONN
*I *6098:A I *D sky130_fd_sc_hd__clkbuf_1
*I *6097:X O *D sky130_fd_sc_hd__mux2_1
*CAP
1 *6098:A 0.000259544
2 *6097:X 0.000259544
3 *6098:A *6402:CLK 4.30382e-05
4 *6098:A *724:179 0.000375261
5 *6098:A *724:188 1.33343e-05
6 *351:111 *6098:A 0.000320031
*RES
1 *6097:X *6098:A 33.85 
*END

*D_NET *353 0.000771358
*CONN
*I *6100:A I *D sky130_fd_sc_hd__clkbuf_1
*I *6099:X O *D sky130_fd_sc_hd__mux2_1
*CAP
1 *6100:A 0.000220304
2 *6099:X 0.000220304
3 *6100:A *735:129 1.00073e-05
4 *6109:S *6100:A 6.05161e-06
5 *231:22 *6100:A 0.000314692
6 *351:119 *6100:A 0
*RES
1 *6099:X *6100:A 32.2071 
*END

*D_NET *354 0.000182866
*CONN
*I *6102:A I *D sky130_fd_sc_hd__clkbuf_1
*I *6101:X O *D sky130_fd_sc_hd__mux2_1
*CAP
1 *6102:A 5.90262e-05
2 *6101:X 5.90262e-05
3 *351:79 *6102:A 6.48134e-05
*RES
1 *6101:X *6102:A 19.8679 
*END

*D_NET *355 0.000831452
*CONN
*I *6104:A I *D sky130_fd_sc_hd__clkbuf_1
*I *6103:X O *D sky130_fd_sc_hd__mux2_1
*CAP
1 *6104:A 0.0002436
2 *6103:X 0.0002436
3 *5960:S1 *6104:A 9.42698e-05
4 *6381:D *6104:A 5.03694e-05
5 *233:171 *6104:A 0
6 *329:85 *6104:A 0.000199613
*RES
1 *6103:X *6104:A 34.4036 
*END

*D_NET *356 0.000708661
*CONN
*I *6106:A I *D sky130_fd_sc_hd__clkbuf_1
*I *6105:X O *D sky130_fd_sc_hd__mux2_1
*CAP
1 *6106:A 0.00029344
2 *6105:X 0.00029344
3 *6106:A *5970:A1 0
4 *6106:A *6382:CLK 0
5 *6106:A *508:14 0
6 *5980:A0 *6106:A 0
7 *5980:S *6106:A 4.01768e-05
8 *6382:D *6106:A 8.16036e-05
*RES
1 *6105:X *6106:A 32.9214 
*END

*D_NET *357 0.00014024
*CONN
*I *6108:A I *D sky130_fd_sc_hd__clkbuf_1
*I *6107:X O *D sky130_fd_sc_hd__mux2_1
*CAP
1 *6108:A 7.01202e-05
2 *6107:X 7.01202e-05
*RES
1 *6107:X *6108:A 19.8679 
*END

*D_NET *358 0.00119641
*CONN
*I *6110:A I *D sky130_fd_sc_hd__clkbuf_1
*I *6109:X O *D sky130_fd_sc_hd__mux2_1
*CAP
1 *6110:A 0.000419242
2 *6109:X 0.000419242
3 *6110:A *5988:A1 4.58101e-05
4 *6110:A *6617:A 7.29712e-05
5 *6110:A *724:120 0
6 *6110:A *735:117 0
7 *6110:A *735:192 0
8 *230:155 *6110:A 0.000239146
*RES
1 *6109:X *6110:A 35.6179 
*END

*D_NET *359 0.00111366
*CONN
*I *6112:A I *D sky130_fd_sc_hd__clkbuf_1
*I *6111:X O *D sky130_fd_sc_hd__mux2_1
*CAP
1 *6112:A 0.000256156
2 *6111:X 0.000256156
3 *6112:A *6199:S 7.77652e-05
4 *6112:A *6377:CLK 7.1724e-05
5 *6112:A *411:77 9.71197e-05
6 *6112:A *428:52 0.00017379
7 *6092:A *6112:A 0.000125724
8 *6377:D *6112:A 5.52238e-05
*RES
1 *6111:X *6112:A 33.975 
*END

*D_NET *360 0.00301609
*CONN
*I *6114:B I *D sky130_fd_sc_hd__nor2_1
*I *6150:A I *D sky130_fd_sc_hd__nor2_1
*I *6233:B I *D sky130_fd_sc_hd__nor2_1
*I *6113:X O *D sky130_fd_sc_hd__or2_1
*CAP
1 *6114:B 6.32915e-05
2 *6150:A 0.000213528
3 *6233:B 0.000223652
4 *6113:X 0
5 *360:25 0.000671313
6 *360:4 0.000618146
7 *6150:A *6305:B1 2.89016e-05
8 *6233:B *401:12 0.000133702
9 *5903:A *6150:A 5.80706e-06
10 *6095:A *6150:A 8.25512e-05
11 *6287:A1 *6233:B 8.07313e-05
12 *182:56 *360:25 0.00019437
13 *190:192 *6233:B 0
14 *212:14 *6114:B 2.98019e-05
15 *212:14 *6150:A 0.000241062
16 *213:29 *6233:B 0.000142856
17 *292:12 *6114:B 1.53725e-05
18 *292:12 *6150:A 0
19 *307:6 *360:25 0.00018825
20 *307:17 *360:25 8.27532e-05
*RES
1 *6113:X *360:4 9.3 
2 *360:4 *6233:B 23.7286 
3 *360:4 *360:25 10.5179 
4 *360:25 *6150:A 18.7107 
5 *360:25 *6114:B 15.1929 
*END

*D_NET *361 0.000884124
*CONN
*I *6115:B1 I *D sky130_fd_sc_hd__o211a_4
*I *6114:Y O *D sky130_fd_sc_hd__nor2_1
*CAP
1 *6115:B1 0.000310645
2 *6114:Y 0.000310645
3 *6115:B1 *362:12 5.33005e-05
4 *6115:C1 *6115:B1 5.33433e-05
5 *203:129 *6115:B1 5.52302e-05
6 *307:17 *6115:B1 0.00010096
*RES
1 *6114:Y *6115:B1 23.6714 
*END

*D_NET *362 0.0345672
*CONN
*I *6126:S I *D sky130_fd_sc_hd__mux2_1
*I *6122:S I *D sky130_fd_sc_hd__mux2_1
*I *6120:S I *D sky130_fd_sc_hd__mux2_1
*I *6128:S I *D sky130_fd_sc_hd__mux2_1
*I *6124:S I *D sky130_fd_sc_hd__mux2_1
*I *6118:S I *D sky130_fd_sc_hd__mux2_1
*I *6116:S I *D sky130_fd_sc_hd__mux2_1
*I *6130:S I *D sky130_fd_sc_hd__mux2_1
*I *6115:X O *D sky130_fd_sc_hd__o211a_4
*CAP
1 *6126:S 4.05263e-05
2 *6122:S 0.000114271
3 *6120:S 0.000836057
4 *6128:S 0
5 *6124:S 0
6 *6118:S 6.8984e-05
7 *6116:S 0.000273687
8 *6130:S 0.00100985
9 *6115:X 0.000512846
10 *362:101 0.00234595
11 *362:95 0.00243466
12 *362:61 0.00214802
13 *362:51 0.00250088
14 *362:45 0.00121492
15 *362:37 0.00327198
16 *362:12 0.0032768
17 *6116:S *481:29 6.44542e-05
18 *6116:S *724:107 5.92066e-05
19 *6116:S *735:117 0.0002644
20 *6118:S *735:105 5.52302e-05
21 *6120:S *6120:A0 0.000103267
22 *6120:S *6120:A1 9.60875e-05
23 *6120:S *6242:A 0
24 *6120:S *6561:A 0.000103902
25 *6120:S *498:10 0.000150618
26 *6120:S *746:45 0
27 *6122:S *499:12 3.34366e-05
28 *6122:S *746:45 0
29 *6126:S *768:42 0
30 *6130:S *5994:A2 0.000392988
31 *6130:S *5994:A3 0.000126711
32 *6130:S *5997:A0 0.000368834
33 *6130:S *5997:S0 5.58087e-05
34 *6130:S *6130:A1 0.000188586
35 *6130:S *6377:CLK 6.9128e-05
36 *6130:S *6542:A 2.44318e-05
37 *6130:S *6543:A 2.8266e-06
38 *6130:S *428:52 0
39 *6130:S *428:75 0.000136276
40 *6130:S *636:84 0
41 *6130:S *636:90 0
42 *362:12 *5997:A3 9.11365e-06
43 *362:12 *511:10 3.69697e-05
44 *362:12 *519:10 5.90443e-06
45 *362:12 *636:53 0.00145186
46 *362:37 *6166:S 0.000175892
47 *362:37 *6199:A0 0.000265575
48 *362:37 *6199:S 0.000928381
49 *362:37 *6396:CLK 1.56e-05
50 *362:45 *372:30 0.000393893
51 *362:45 *768:44 0
52 *362:51 *6124:A1 0.00051202
53 *362:51 *6128:A0 2.44318e-05
54 *362:51 *6128:A1 9.90431e-05
55 *362:51 *6129:A 0.000140933
56 *362:51 *372:30 0
57 *362:51 *372:36 0
58 *362:51 *500:12 7.73758e-05
59 *362:51 *768:44 0.000835166
60 *362:61 *5967:A0 9.90431e-05
61 *362:61 *6124:A0 0.000122047
62 *362:61 *6124:A1 9.25014e-06
63 *362:61 *500:12 5.80706e-06
64 *362:61 *735:105 0.000137983
65 *362:95 *5916:A0 7.83659e-05
66 *362:95 *372:24 0
67 *362:95 *372:30 0
68 *362:95 *581:12 0.000312743
69 *362:95 *768:42 0
70 *362:101 *6126:A0 0.000274294
71 *5941:A0 *6116:S 0.000210843
72 *5941:S *6116:S 0.000216098
73 *5972:S *362:51 0
74 *5973:A0 *362:51 2.26973e-05
75 *5985:S1 *362:51 0.00012401
76 *5994:S1 *6130:S 7.72892e-05
77 *5995:S *6130:S 2.09897e-05
78 *5998:A0 *6130:S 0.000816456
79 *5999:A1 *6130:S 0.000104646
80 *6000:A0 *6118:S 2.14658e-05
81 *6000:A0 *362:61 0.000383946
82 *6091:S *362:12 4.23086e-05
83 *6111:S *6130:S 0.00017335
84 *6115:B1 *362:12 5.33005e-05
85 *6396:D *362:45 0.000105569
86 *6396:D *362:95 6.91157e-05
87 *230:16 *6130:S 0.000324335
88 *237:80 *6130:S 0.000317082
89 *237:112 *362:51 0
90 *239:168 *6130:S 2.61099e-05
91 *254:10 *6120:S 0.000717932
92 *254:10 *6122:S 0.000103041
93 *265:12 *362:61 0
94 *270:12 *6126:S 0
95 *270:12 *362:95 0
96 *292:12 *6130:S 1.9441e-05
97 *292:12 *362:12 0.00163888
98 *295:28 *362:61 0.000620947
*RES
1 *6115:X *362:12 39.9071 
2 *362:12 *6130:S 47.3536 
3 *362:12 *362:37 28.4464 
4 *362:37 *362:45 16.0179 
5 *362:45 *362:51 23.2857 
6 *362:51 *362:61 35.0714 
7 *362:61 *6116:S 26.3179 
8 *362:61 *6118:S 10.675 
9 *362:51 *6124:S 13.8 
10 *362:45 *6128:S 9.3 
11 *362:37 *362:95 18.3393 
12 *362:95 *362:101 30.0714 
13 *362:101 *6120:S 34.2286 
14 *362:101 *6122:S 16.6571 
15 *362:95 *6126:S 14.5321 
*END

*D_NET *363 0.000894219
*CONN
*I *6117:A I *D sky130_fd_sc_hd__clkbuf_1
*I *6116:X O *D sky130_fd_sc_hd__mux2_1
*CAP
1 *6117:A 0.00027674
2 *6116:X 0.00027674
3 *6117:A *5940:A0 2.55587e-05
4 *5928:A0 *6117:A 0.000315179
5 *226:183 *6117:A 0
*RES
1 *6116:X *6117:A 32.6179 
*END

*D_NET *364 0.000222077
*CONN
*I *6119:A I *D sky130_fd_sc_hd__clkbuf_1
*I *6118:X O *D sky130_fd_sc_hd__mux2_1
*CAP
1 *6119:A 5.5363e-05
2 *6118:X 5.5363e-05
3 *5928:A0 *6119:A 4.48113e-05
4 *5941:A0 *6119:A 6.65398e-05
*RES
1 *6118:X *6119:A 29.2429 
*END

*D_NET *365 0.000383296
*CONN
*I *6121:A I *D sky130_fd_sc_hd__clkbuf_1
*I *6120:X O *D sky130_fd_sc_hd__mux2_1
*CAP
1 *6121:A 0.00018046
2 *6120:X 0.00018046
3 *6121:A *6120:A1 2.23758e-05
*RES
1 *6120:X *6121:A 21.1 
*END

*D_NET *366 0.000352351
*CONN
*I *6123:A I *D sky130_fd_sc_hd__clkbuf_1
*I *6122:X O *D sky130_fd_sc_hd__mux2_1
*CAP
1 *6123:A 0.000114332
2 *6122:X 0.000114332
3 *6123:A *6122:A1 5.71472e-05
4 *6123:A *499:12 0
5 *6123:A *746:45 6.65398e-05
6 *254:10 *6123:A 0
*RES
1 *6122:X *6123:A 29.7786 
*END

*D_NET *367 0.00125046
*CONN
*I *6125:A I *D sky130_fd_sc_hd__clkbuf_1
*I *6124:X O *D sky130_fd_sc_hd__mux2_1
*CAP
1 *6125:A 0.000305988
2 *6124:X 0.000305988
3 *6125:A *6124:A1 0.000338403
4 *6125:A *6392:CLK 0
5 *6390:D *6125:A 6.76832e-05
6 *265:12 *6125:A 0
7 *295:28 *6125:A 0.000232399
*RES
1 *6124:X *6125:A 34.1536 
*END

*D_NET *368 0.000690063
*CONN
*I *6127:A I *D sky130_fd_sc_hd__clkbuf_1
*I *6126:X O *D sky130_fd_sc_hd__mux2_1
*CAP
1 *6127:A 0.000100596
2 *6126:X 0.000100596
3 *6127:A *6126:A1 0.000319309
4 *6127:A *768:42 0.000169562
*RES
1 *6126:X *6127:A 31.6714 
*END

*D_NET *369 0.000951935
*CONN
*I *6129:A I *D sky130_fd_sc_hd__clkbuf_1
*I *6128:X O *D sky130_fd_sc_hd__mux2_1
*CAP
1 *6129:A 0.000329533
2 *6128:X 0.000329533
3 *6129:A *6128:A0 7.84156e-05
4 *6129:A *6128:A1 3.97677e-05
5 *6129:A *6135:A 0
6 *6129:A *6512:A 4.85049e-06
7 *6129:A *625:66 2.89016e-05
8 *362:51 *6129:A 0.000140933
*RES
1 *6128:X *6129:A 24.3857 
*END

*D_NET *370 0.00234014
*CONN
*I *6131:A I *D sky130_fd_sc_hd__clkbuf_1
*I *6130:X O *D sky130_fd_sc_hd__mux2_1
*CAP
1 *6131:A 0.000518906
2 *6130:X 0.000518906
3 *6131:A *6037:A1 0
4 *6131:A *6393:CLK 0.000606096
5 *6131:A *6542:A 0.000148196
6 *6131:A *503:6 9.7659e-05
7 *6131:A *636:90 3.86333e-06
8 *5995:A1 *6131:A 0
9 *6393:D *6131:A 3.30352e-05
10 *237:80 *6131:A 0.000276524
11 *239:168 *6131:A 0.000136958
*RES
1 *6130:X *6131:A 39.7964 
*END

*D_NET *371 0.00103885
*CONN
*I *6133:B1 I *D sky130_fd_sc_hd__o211a_4
*I *6132:Y O *D sky130_fd_sc_hd__nor2_1
*CAP
1 *6133:B1 0.000329358
2 *6132:Y 0.000329358
3 *6133:B1 *372:16 0.000131297
4 *6132:A *6133:B1 1.02504e-05
5 *212:14 *6133:B1 8.00806e-05
6 *279:18 *6133:B1 7.84272e-05
7 *348:10 *6133:B1 8.00806e-05
*RES
1 *6132:Y *6133:B1 34.0107 
*END

*D_NET *372 0.0256162
*CONN
*I *6144:S I *D sky130_fd_sc_hd__mux2_1
*I *6140:S I *D sky130_fd_sc_hd__mux2_1
*I *6138:S I *D sky130_fd_sc_hd__mux2_1
*I *6146:S I *D sky130_fd_sc_hd__mux2_1
*I *6142:S I *D sky130_fd_sc_hd__mux2_1
*I *6148:S I *D sky130_fd_sc_hd__mux2_1
*I *6134:S I *D sky130_fd_sc_hd__mux2_1
*I *6136:S I *D sky130_fd_sc_hd__mux2_1
*I *6133:X O *D sky130_fd_sc_hd__o211a_4
*CAP
1 *6144:S 0
2 *6140:S 0.000871814
3 *6138:S 7.49313e-05
4 *6146:S 0
5 *6142:S 3.99307e-05
6 *6148:S 0.000907756
7 *6134:S 7.92794e-05
8 *6136:S 0.000262496
9 *6133:X 0.000635863
10 *372:74 0.00170375
11 *372:64 0.000987288
12 *372:36 0.000713983
13 *372:30 0.00147847
14 *372:24 0.00169813
15 *372:20 0.00248043
16 *372:16 0.00149631
17 *6134:S *6134:A0 2.44318e-05
18 *6134:S *724:64 0.000274294
19 *6136:S *6189:S 0.000150611
20 *6136:S *411:111 4.98055e-06
21 *6136:S *724:64 0.000736167
22 *6136:S *735:46 5.80706e-06
23 *6136:S *735:57 0.000292311
24 *6138:S *6138:A0 2.12005e-05
25 *6138:S *6138:A1 5.49544e-05
26 *6138:S *746:85 3.99614e-06
27 *6140:S *6582:A 9.25014e-06
28 *6140:S *401:87 0.000163569
29 *6148:S *6148:A0 0.000105037
30 *6148:S *6201:A1 4.25523e-05
31 *6148:S *6543:A 0.000268403
32 *6148:S *428:75 0
33 *6148:S *636:111 0.000135793
34 *372:16 *6399:CLK 0.000128496
35 *372:16 *6415:CLK 0.000230482
36 *372:16 *6518:A 7.26935e-05
37 *372:16 *779:79 0.000128154
38 *372:16 *779:81 8.25098e-05
39 *372:20 *6144:A0 0.000247216
40 *372:20 *6145:A 0
41 *372:24 *479:16 2.04825e-05
42 *372:30 *6128:A0 7.79781e-06
43 *372:36 *479:116 0
44 *372:36 *494:10 0.000357054
45 *372:64 *6146:A0 0.000298868
46 *372:74 *5994:A1 4.35452e-05
47 *372:74 *6146:A0 0.00010096
48 *372:74 *6619:A 5.71472e-05
49 *372:74 *488:8 7.00276e-05
50 *372:74 *488:14 2.22371e-05
51 *5972:A1 *372:30 0
52 *5972:A1 *372:36 0
53 *5985:S1 *372:30 0
54 *5985:S1 *372:64 0.000227247
55 *5985:S1 *372:74 2.44318e-05
56 *5986:A1 *372:30 8.00806e-05
57 *5986:S *372:64 0.000590925
58 *5990:A1 *6134:S 1.21258e-05
59 *5990:A1 *372:36 0.000334506
60 *5995:A1 *6148:S 0.000372272
61 *5999:A0 *6148:S 5.52302e-05
62 *6029:S *6140:S 0
63 *6133:A2 *372:16 0.000139907
64 *6133:B1 *372:16 0.000131297
65 *6353:D *372:74 0
66 *6392:D *372:30 0.000137211
67 *6392:D *372:64 0.000404121
68 *6399:D *372:16 1.64343e-05
69 *6420:D *372:24 8.59056e-05
70 *6420:D *372:30 7.86904e-05
71 *190:109 *372:16 4.88637e-05
72 *190:120 *372:16 1.54142e-05
73 *225:160 *372:74 0.000709103
74 *233:31 *372:74 0.000794157
75 *237:112 *372:36 0.000112418
76 *237:124 *6134:S 0.000346534
77 *237:124 *372:36 0.00108907
78 *270:12 *372:24 0.000336523
79 *279:18 *372:16 0.00103345
80 *295:20 *6148:S 0.000312029
81 *295:20 *372:74 7.65804e-05
82 *309:14 *372:74 6.63383e-05
83 *362:45 *372:30 0.000393893
84 *362:51 *372:30 0
85 *362:51 *372:36 0
86 *362:95 *372:24 0
87 *362:95 *372:30 0
*RES
1 *6133:X *372:16 35.4964 
2 *372:16 *372:20 13.6964 
3 *372:20 *372:24 19.1964 
4 *372:24 *372:30 18.1964 
5 *372:30 *372:36 17.4464 
6 *372:36 *6136:S 27.8357 
7 *372:36 *6134:S 13.1393 
8 *372:30 *372:64 14.1071 
9 *372:64 *372:74 28.3393 
10 *372:74 *6148:S 34.8714 
11 *372:74 *6142:S 10.0321 
12 *372:64 *6146:S 9.3 
13 *372:24 *6138:S 15.175 
14 *372:20 *6140:S 32.7821 
15 *372:16 *6144:S 9.3 
*END

*D_NET *373 0.00223166
*CONN
*I *6135:A I *D sky130_fd_sc_hd__clkbuf_1
*I *6134:X O *D sky130_fd_sc_hd__mux2_1
*CAP
1 *6135:A 0.000595533
2 *6134:X 0.000595533
3 *6135:A *6187:A0 0
4 *6135:A *6187:A1 0
5 *6135:A *6187:S 0.000128496
6 *6135:A *6188:A 3.47797e-05
7 *6135:A *6189:S 0.000207401
8 *6135:A *6512:A 8.53294e-05
9 *6135:A *401:93 0.000227532
10 *6135:A *495:8 0.000357054
11 *6135:A *724:68 0
12 *6129:A *6135:A 0
*RES
1 *6134:X *6135:A 42.1357 
*END

*D_NET *374 0.00110416
*CONN
*I *6137:A I *D sky130_fd_sc_hd__clkbuf_1
*I *6136:X O *D sky130_fd_sc_hd__mux2_1
*CAP
1 *6137:A 0.000356976
2 *6136:X 0.000356976
3 *6137:A *6190:A 9.25014e-06
4 *6137:A *494:16 6.5111e-05
5 *6137:A *494:18 6.25211e-05
6 *5986:A0 *6137:A 0
7 *6395:D *6137:A 6.76832e-05
8 *295:28 *6137:A 0.000185643
*RES
1 *6136:X *6137:A 33.7429 
*END

*D_NET *375 0.00017523
*CONN
*I *6139:A I *D sky130_fd_sc_hd__clkbuf_1
*I *6138:X O *D sky130_fd_sc_hd__mux2_1
*CAP
1 *6139:A 5.21909e-05
2 *6138:X 5.21909e-05
3 *6139:A *746:85 1.3701e-05
4 *6139:A *746:99 5.71472e-05
*RES
1 *6138:X *6139:A 19.8679 
*END

*D_NET *376 0.000238001
*CONN
*I *6141:A I *D sky130_fd_sc_hd__clkbuf_1
*I *6140:X O *D sky130_fd_sc_hd__mux2_1
*CAP
1 *6141:A 0.000119
2 *6140:X 0.000119
*RES
1 *6140:X *6141:A 20.6893 
*END

*D_NET *377 0.00029034
*CONN
*I *6143:A I *D sky130_fd_sc_hd__clkbuf_1
*I *6142:X O *D sky130_fd_sc_hd__mux2_1
*CAP
1 *6143:A 0.000121721
2 *6142:X 0.000121721
3 *6143:A *6196:A 0
4 *6143:A *658:30 4.15914e-05
5 *6422:D *6143:A 5.30637e-06
*RES
1 *6142:X *6143:A 29.9036 
*END

*D_NET *378 0.000151024
*CONN
*I *6145:A I *D sky130_fd_sc_hd__clkbuf_1
*I *6144:X O *D sky130_fd_sc_hd__mux2_1
*CAP
1 *6145:A 7.55121e-05
2 *6144:X 7.55121e-05
3 *372:20 *6145:A 0
*RES
1 *6144:X *6145:A 19.8679 
*END

*D_NET *379 0.000646609
*CONN
*I *6147:A I *D sky130_fd_sc_hd__clkbuf_1
*I *6146:X O *D sky130_fd_sc_hd__mux2_1
*CAP
1 *6147:A 0.000273935
2 *6146:X 0.000273935
3 *6400:D *6147:A 4.15914e-05
4 *233:31 *6147:A 5.71472e-05
5 *233:41 *6147:A 0
6 *237:86 *6147:A 0
*RES
1 *6146:X *6147:A 32.2071 
*END

*D_NET *380 0.0018923
*CONN
*I *6149:A I *D sky130_fd_sc_hd__clkbuf_1
*I *6148:X O *D sky130_fd_sc_hd__mux2_1
*CAP
1 *6149:A 0.000406901
2 *6148:X 0.000406901
3 *6149:A *6569:A 0.000179739
4 *6149:A *401:22 1.01075e-05
5 *6149:A *575:8 0.000376246
6 *5948:S1 *6149:A 0.000342604
7 *226:85 *6149:A 0.000169804
*RES
1 *6148:X *6149:A 37.4036 
*END

*D_NET *381 0.00138688
*CONN
*I *6151:B1 I *D sky130_fd_sc_hd__o211a_4
*I *6150:Y O *D sky130_fd_sc_hd__nor2_1
*CAP
1 *6151:B1 0.000270871
2 *6150:Y 0.000270871
3 *6151:B1 *382:6 4.58976e-05
4 *6151:B1 *382:16 3.63775e-05
5 *5903:A *6151:B1 0.000102545
6 *5905:A1 *6151:B1 0
7 *6095:A *6151:B1 5.24274e-05
8 *6095:B *6151:B1 7.43578e-06
9 *6096:B1 *6151:B1 0.000267489
10 *190:76 *6151:B1 5.33005e-05
11 *216:116 *6151:B1 0.000279668
*RES
1 *6150:Y *6151:B1 35.2429 
*END

*D_NET *382 0.0335895
*CONN
*I *6166:S I *D sky130_fd_sc_hd__mux2_1
*I *6162:S I *D sky130_fd_sc_hd__mux2_1
*I *6158:S I *D sky130_fd_sc_hd__mux2_1
*I *6152:S I *D sky130_fd_sc_hd__mux2_1
*I *6154:S I *D sky130_fd_sc_hd__mux2_1
*I *6164:S I *D sky130_fd_sc_hd__mux2_1
*I *6156:S I *D sky130_fd_sc_hd__mux2_1
*I *6160:S I *D sky130_fd_sc_hd__mux2_1
*I *6151:X O *D sky130_fd_sc_hd__o211a_4
*CAP
1 *6166:S 0.000950433
2 *6162:S 0
3 *6158:S 0.000227184
4 *6152:S 0
5 *6154:S 0
6 *6164:S 0.00150515
7 *6156:S 0
8 *6160:S 0.000214633
9 *6151:X 6.79259e-05
10 *382:80 0.00262851
11 *382:74 0.00200832
12 *382:68 0.00426522
13 *382:53 0.00433391
14 *382:24 0.00238
15 *382:16 0.00229717
16 *382:6 0.00233101
17 *6158:S *6158:A0 5.33433e-05
18 *6158:S *6158:A1 3.34295e-05
19 *6160:S *5970:A3 0.000103266
20 *6160:S *6160:A0 1.39726e-05
21 *6160:S *6160:A1 5.52302e-05
22 *6164:S *5943:A0 0
23 *6164:S *6164:A0 0.000809408
24 *6164:S *6165:A 2.34059e-05
25 *6164:S *6403:CLK 0.00010096
26 *6164:S *609:10 0.00010326
27 *6164:S *712:83 8.27403e-05
28 *6166:S *5997:A2 0.000330902
29 *6166:S *6166:A0 8.53638e-05
30 *6166:S *6199:S 0.000177821
31 *6166:S *511:10 4.44929e-05
32 *6166:S *519:10 3.25078e-05
33 *6166:S *636:65 0.000216304
34 *6166:S *636:73 0.000149886
35 *6166:S *658:30 0
36 *382:16 *6533:A 5.83304e-05
37 *382:16 *470:100 0.00023837
38 *382:16 *779:73 0.000163774
39 *382:16 *779:79 0.000224701
40 *382:24 *5970:A3 2.8266e-06
41 *382:24 *6197:A0 0.000142856
42 *382:24 *6572:A 5.52238e-05
43 *382:53 *6081:A0 0.000184654
44 *382:53 *6374:CLK 1.50961e-05
45 *382:53 *6600:A 7.20217e-06
46 *382:53 *483:8 0.000324001
47 *382:53 *483:12 0.000176196
48 *382:53 *483:53 5.73015e-05
49 *382:53 *746:37 0.000142856
50 *382:53 *746:45 6.57914e-05
51 *382:68 *479:238 0
52 *382:74 *6077:A0 7.83659e-05
53 *382:74 *6333:CLK 8.56812e-05
54 *382:74 *6639:A 0.000248493
55 *382:74 *616:10 7.6644e-05
56 *382:74 *712:96 0.000330259
57 *382:80 *5943:A0 0
58 *382:80 *712:83 0.000615972
59 *382:80 *712:96 0.000127453
60 *382:80 *735:162 0
61 *5933:A1 *382:74 0.000132833
62 *5938:A *382:74 0.000154762
63 *5943:S1 *382:74 0
64 *5943:S1 *382:80 4.1331e-06
65 *5964:S *382:74 0
66 *5965:A *382:74 4.15914e-05
67 *5981:A1 *382:16 0.000703071
68 *5998:A0 *6166:S 1.78623e-05
69 *6082:A *382:53 0.000533203
70 *6091:S *6166:S 0.00028147
71 *6096:B1 *382:6 5.52302e-05
72 *6096:B1 *382:16 0
73 *6151:A2 *382:16 9.29355e-06
74 *6151:B1 *382:6 4.58976e-05
75 *6151:B1 *382:16 3.63775e-05
76 *6331:D *382:80 0.00010326
77 *6403:D *6164:S 9.82585e-06
78 *6415:D *6166:S 0
79 *16:5 *382:53 0.00012501
80 *16:5 *382:68 3.73407e-05
81 *190:70 *6166:S 1.08359e-05
82 *190:76 *382:16 6.89612e-05
83 *203:75 *6166:S 5.59013e-05
84 *203:101 *6166:S 9.0573e-05
85 *215:10 *6166:S 0
86 *215:109 *6166:S 0
87 *216:116 *382:16 5.90748e-05
88 *230:91 *6160:S 9.71197e-05
89 *230:111 *382:53 6.32633e-05
90 *230:111 *382:68 2.34337e-05
91 *231:14 *6164:S 5.76121e-05
92 *233:66 *6160:S 9.25014e-06
93 *233:264 *382:74 0
94 *237:86 *382:16 0.000344088
95 *270:12 *6160:S 0.000184563
96 *270:12 *382:24 0.000147599
97 *292:12 *6166:S 1.30669e-05
98 *339:37 *382:24 0.00058514
99 *339:50 *382:24 0.000264212
100 *362:37 *6166:S 0.000175892
*RES
1 *6151:X *382:6 10.6571 
2 *382:6 *382:16 36.7321 
3 *382:16 *382:24 24.0179 
4 *382:24 *6160:S 19.8536 
5 *382:24 *382:53 32.4107 
6 *382:53 *6156:S 13.8 
7 *382:53 *382:68 13.501 
8 *382:68 *382:74 21.0804 
9 *382:74 *382:80 25.0714 
10 *382:80 *6164:S 37.925 
11 *382:80 *6154:S 13.8 
12 *382:74 *6152:S 13.8 
13 *382:68 *6158:S 17.8804 
14 *382:16 *6162:S 9.3 
15 *382:6 *6166:S 49.2107 
*END

*D_NET *383 0.000476017
*CONN
*I *6153:A I *D sky130_fd_sc_hd__clkbuf_1
*I *6152:X O *D sky130_fd_sc_hd__mux2_1
*CAP
1 *6153:A 0.000191156
2 *6152:X 0.000191156
3 *6153:A *6152:A1 5.30637e-06
4 *6402:D *6153:A 8.83982e-05
*RES
1 *6152:X *6153:A 22.4571 
*END

*D_NET *384 0.000379552
*CONN
*I *6155:A I *D sky130_fd_sc_hd__clkbuf_1
*I *6154:X O *D sky130_fd_sc_hd__mux2_1
*CAP
1 *6155:A 0.000137195
2 *6154:X 0.000137195
3 *6155:A *5943:A0 0.000105163
*RES
1 *6154:X *6155:A 21.5107 
*END

*D_NET *385 0.0019044
*CONN
*I *6157:A I *D sky130_fd_sc_hd__clkbuf_1
*I *6156:X O *D sky130_fd_sc_hd__mux2_1
*CAP
1 *6157:A 0.000328327
2 *6156:X 0.000328327
3 *6157:A *6156:A0 0.000113844
4 *6157:A *6156:A1 0.000229456
5 *6157:A *6404:CLK 0.000199691
6 *6404:D *6157:A 8.91726e-05
7 *230:111 *6157:A 8.82699e-05
8 *298:73 *6157:A 0
9 *339:65 *6157:A 0.000527311
*RES
1 *6156:X *6157:A 38.2429 
*END

*D_NET *386 0.00083686
*CONN
*I *6159:A I *D sky130_fd_sc_hd__clkbuf_1
*I *6158:X O *D sky130_fd_sc_hd__mux2_1
*CAP
1 *6159:A 0.000326734
2 *6158:X 0.000326734
3 *6159:A *5961:A1 0.000150618
4 *5962:A1 *6159:A 3.27727e-05
*RES
1 *6158:X *6159:A 32.5464 
*END

*D_NET *387 0.000673573
*CONN
*I *6161:A I *D sky130_fd_sc_hd__clkbuf_1
*I *6160:X O *D sky130_fd_sc_hd__mux2_1
*CAP
1 *6161:A 0.000199231
2 *6160:X 0.000199231
3 *6161:A *5970:A3 7.83659e-05
4 *6161:A *6406:CLK 0.00017931
5 *6161:A *768:38 0
6 *6406:D *6161:A 1.74352e-05
*RES
1 *6160:X *6161:A 31.1357 
*END

*D_NET *388 0.000200516
*CONN
*I *6163:A I *D sky130_fd_sc_hd__clkbuf_1
*I *6162:X O *D sky130_fd_sc_hd__mux2_1
*CAP
1 *6163:A 8.51617e-05
2 *6162:X 8.51617e-05
3 *6163:A *779:62 1.97695e-05
4 *339:37 *6163:A 1.04232e-05
*RES
1 *6162:X *6163:A 20.2786 
*END

*D_NET *389 0.000146645
*CONN
*I *6165:A I *D sky130_fd_sc_hd__clkbuf_1
*I *6164:X O *D sky130_fd_sc_hd__mux2_1
*CAP
1 *6165:A 5.02486e-05
2 *6164:X 5.02486e-05
3 *6164:S *6165:A 2.34059e-05
4 *231:14 *6165:A 2.27416e-05
*RES
1 *6164:X *6165:A 19.8679 
*END

*D_NET *390 0.00200948
*CONN
*I *6167:A I *D sky130_fd_sc_hd__clkbuf_1
*I *6166:X O *D sky130_fd_sc_hd__mux2_1
*CAP
1 *6167:A 0.000676231
2 *6166:X 0.000676231
3 *6167:A *5997:A1 3.11905e-05
4 *6167:A *5997:A3 3.09371e-05
5 *6167:A *6166:A0 0.000139907
6 *6167:A *6320:A1 0.000181796
7 *6167:A *6495:CLK 3.18676e-05
8 *6167:A *636:73 0.000140933
9 *6167:A *636:80 5.33005e-05
10 *6409:D *6167:A 4.70832e-05
*RES
1 *6166:X *6167:A 38.5643 
*END

*D_NET *391 0.0326055
*CONN
*I *6175:S I *D sky130_fd_sc_hd__mux2_1
*I *6179:S I *D sky130_fd_sc_hd__mux2_1
*I *6173:S I *D sky130_fd_sc_hd__mux2_1
*I *6177:S I *D sky130_fd_sc_hd__mux2_1
*I *6181:S I *D sky130_fd_sc_hd__mux2_1
*I *6171:S I *D sky130_fd_sc_hd__mux2_1
*I *6169:S I *D sky130_fd_sc_hd__mux2_1
*I *6183:S I *D sky130_fd_sc_hd__mux2_1
*I *6168:X O *D sky130_fd_sc_hd__o2111a_4
*CAP
1 *6175:S 0
2 *6179:S 0
3 *6173:S 0
4 *6177:S 0
5 *6181:S 3.82418e-05
6 *6171:S 0
7 *6169:S 0.00021032
8 *6183:S 2.06112e-05
9 *6168:X 0.000325383
10 *391:151 0.00167417
11 *391:122 0.00421592
12 *391:73 0.00119611
13 *391:59 0.00237924
14 *391:47 0.00249493
15 *391:30 0.00226887
16 *391:22 0.00185977
17 *391:8 0.00361835
18 *6169:S *6172:A 0
19 *6169:S *735:35 2.19684e-05
20 *6169:S *735:46 0.000123409
21 *6183:S *636:130 3.99614e-06
22 *391:8 *6228:A2 0.000196269
23 *391:8 *6228:B1_N 0
24 *391:8 *420:10 0.000116481
25 *391:8 *420:27 6.30023e-05
26 *391:22 *5948:A3 0.000271352
27 *391:22 *6173:A0 3.69697e-05
28 *391:22 *6228:A2 4.58764e-05
29 *391:22 *6228:B1_N 0
30 *391:22 *6454:D 0.000381026
31 *391:22 *6534:A 9.90367e-05
32 *391:22 *479:61 0.000189441
33 *391:22 *487:40 0.000202131
34 *391:22 *487:53 0
35 *391:22 *602:10 0
36 *391:22 *680:10 0
37 *391:22 *825:16 3.69047e-06
38 *391:30 *6183:A0 2.44318e-05
39 *391:30 *6183:A1 9.90431e-05
40 *391:30 *6184:A 0.000268396
41 *391:30 *6470:CLK 0
42 *391:30 *6470:RESET_B 0.000383296
43 *391:30 *479:61 0.000414762
44 *391:30 *487:10 0
45 *391:30 *487:25 0
46 *391:30 *602:10 0
47 *391:30 *709:185 0.000549016
48 *391:30 *709:187 0.000289016
49 *391:30 *712:39 0.000211431
50 *391:30 *712:53 0
51 *391:47 *6177:A0 0.00010096
52 *391:47 *6178:A 5.71472e-05
53 *391:47 *6183:A0 7.77652e-05
54 *391:47 *6184:A 9.64602e-05
55 *391:47 *6213:A1 2.14757e-05
56 *391:47 *6219:A0 0.000118595
57 *391:47 *6219:A1 0
58 *391:47 *6528:A 0.000103041
59 *391:47 *6581:A 0.000195866
60 *391:47 *411:30 0
61 *391:47 *480:16 0
62 *391:59 *5984:A1 0.000281911
63 *391:59 *6177:A0 0.00023978
64 *391:59 *6243:A1 2.47753e-05
65 *391:59 *6244:A 0.000161981
66 *391:59 *606:12 5.99141e-05
67 *391:59 *625:45 7.83587e-05
68 *391:59 *768:95 5.23057e-05
69 *391:59 *768:119 1.02821e-05
70 *391:73 *5984:A1 0.000299687
71 *391:73 *6171:A0 5.62995e-05
72 *391:73 *6171:A1 1.39841e-05
73 *391:73 *6172:A 3.47797e-05
74 *391:73 *6182:A 0
75 *391:73 *6625:A 0
76 *391:73 *625:32 7.83587e-05
77 *391:73 *625:45 0.000121333
78 *391:122 *5975:A0 0
79 *391:122 *6215:A1 2.42516e-05
80 *391:122 *6228:A1 0.000300618
81 *391:122 *6327:CLK 0.00018631
82 *391:122 *6533:A 7.83659e-05
83 *391:122 *428:16 1.97695e-05
84 *391:122 *470:18 6.85604e-05
85 *391:122 *658:30 2.89016e-05
86 *391:151 *5975:A0 0.000230475
87 *391:151 *5975:A1 5.11506e-06
88 *391:151 *5975:A2 6.98553e-06
89 *391:151 *6211:A0 0.000128154
90 *391:151 *6215:A1 0
91 *391:151 *6325:CLK 3.14163e-05
92 *391:151 *6444:CLK 0.000819442
93 *391:151 *6611:A 9.25014e-06
94 *391:151 *428:16 0.00048746
95 *391:151 *495:90 0.000195153
96 *5917:A *391:151 8.00806e-05
97 *5975:S1 *391:151 0.000270268
98 *6227:B1 *391:8 0.000148182
99 *6325:D *391:151 0
100 *6411:D *6169:S 5.16852e-05
101 *6416:D *391:59 9.07255e-05
102 *6417:D *391:47 0.000100823
103 *6427:D *391:73 9.71197e-05
104 *6436:D *391:22 0.000129868
105 *6443:D *391:59 0.000139907
106 *6467:D *391:30 0.000163989
107 *203:10 *391:8 7.92975e-05
108 *203:14 *391:8 3.57844e-05
109 *215:10 *391:122 4.17099e-05
110 *225:39 *391:47 0.000909399
111 *225:39 *391:59 0.000621848
112 *225:58 *391:59 0.000183726
113 *233:41 *391:151 0.00012401
114 *237:86 *391:122 0.000135783
*RES
1 *6168:X *391:8 22.1214 
2 *391:8 *391:22 27.7143 
3 *391:22 *391:30 33.5 
4 *391:30 *6183:S 9.72857 
5 *391:30 *391:47 35.625 
6 *391:47 *391:59 28.4107 
7 *391:59 *391:73 22.3393 
8 *391:73 *6169:S 23.2821 
9 *391:73 *6171:S 9.3 
10 *391:59 *6181:S 14.5321 
11 *391:47 *6177:S 9.3 
12 *391:22 *6173:S 13.8 
13 *391:8 *391:122 45.75 
14 *391:122 *6179:S 9.3 
15 *391:122 *391:151 45.6429 
16 *391:151 *6175:S 9.3 
*END

*D_NET *392 0.00117277
*CONN
*I *6170:A I *D sky130_fd_sc_hd__clkbuf_1
*I *6169:X O *D sky130_fd_sc_hd__mux2_1
*CAP
1 *6170:A 0.000390673
2 *6169:X 0.000390673
3 *6170:A *6206:A 0.000225307
4 *6170:A *411:125 5.41797e-05
5 *5984:S1 *6170:A 0.000111935
6 *5986:A0 *6170:A 0
7 *6426:D *6170:A 0
*RES
1 *6169:X *6170:A 34.5643 
*END

*D_NET *393 0.00116978
*CONN
*I *6172:A I *D sky130_fd_sc_hd__clkbuf_1
*I *6171:X O *D sky130_fd_sc_hd__mux2_1
*CAP
1 *6172:A 0.000429576
2 *6171:X 0.000429576
3 *6172:A *6171:A0 0.000137515
4 *6172:A *6171:A1 9.90431e-05
5 *6169:S *6172:A 0
6 *6411:D *6172:A 3.92854e-05
7 *391:73 *6172:A 3.47797e-05
*RES
1 *6171:X *6172:A 33.8857 
*END

*D_NET *394 0.00089656
*CONN
*I *6174:A I *D sky130_fd_sc_hd__clkbuf_1
*I *6173:X O *D sky130_fd_sc_hd__mux2_1
*CAP
1 *6174:A 0.000256592
2 *6173:X 0.000256592
3 *6174:A *709:177 0
4 *6174:A *709:185 7.77751e-05
5 *6174:A *709:211 0
6 *6174:A *712:39 0
7 *5998:S *6174:A 5.52302e-05
8 *6412:D *6174:A 0.000151333
9 *229:6 *6174:A 9.90367e-05
*RES
1 *6173:X *6174:A 33.3321 
*END

*D_NET *395 0.000767417
*CONN
*I *6176:A I *D sky130_fd_sc_hd__clkbuf_1
*I *6175:X O *D sky130_fd_sc_hd__mux2_1
*CAP
1 *6176:A 0.000298814
2 *6175:X 0.000298814
3 *6176:A *6211:A0 1.74352e-05
4 *6176:A *6211:A1 0.000125057
5 *6413:D *6176:A 2.72967e-05
*RES
1 *6175:X *6176:A 23.975 
*END

*D_NET *396 0.00017523
*CONN
*I *6178:A I *D sky130_fd_sc_hd__clkbuf_1
*I *6177:X O *D sky130_fd_sc_hd__mux2_1
*CAP
1 *6178:A 5.21909e-05
2 *6177:X 5.21909e-05
3 *6178:A *6213:A1 1.3701e-05
4 *391:47 *6178:A 5.71472e-05
*RES
1 *6177:X *6178:A 19.8679 
*END

*D_NET *397 0.00187611
*CONN
*I *6180:A I *D sky130_fd_sc_hd__clkbuf_1
*I *6179:X O *D sky130_fd_sc_hd__mux2_1
*CAP
1 *6180:A 0.000487195
2 *6179:X 0.000487195
3 *6180:A *6327:CLK 0.000150618
4 *6180:A *411:77 0.000216613
5 *6180:A *411:92 0.000131831
6 *6180:A *428:16 5.52302e-05
7 *6180:A *470:18 0
8 *5975:S0 *6180:A 0.000138816
9 *225:160 *6180:A 4.15914e-05
10 *309:14 *6180:A 0.000167022
*RES
1 *6179:X *6180:A 39.0107 
*END

*D_NET *398 0.000761065
*CONN
*I *6182:A I *D sky130_fd_sc_hd__clkbuf_1
*I *6181:X O *D sky130_fd_sc_hd__mux2_1
*CAP
1 *6182:A 0.000273396
2 *6181:X 0.000273396
3 *6182:A *5984:A1 0
4 *6182:A *5984:A2 8.00806e-05
5 *216:60 *6182:A 0.000134192
6 *391:73 *6182:A 0
*RES
1 *6181:X *6182:A 32.9036 
*END

*D_NET *399 0.0016452
*CONN
*I *6184:A I *D sky130_fd_sc_hd__clkbuf_1
*I *6183:X O *D sky130_fd_sc_hd__mux2_1
*CAP
1 *6184:A 0.000452424
2 *6183:X 0.000452424
3 *6184:A *6219:A1 9.64602e-05
4 *6184:A *480:37 0.000279035
5 *391:30 *6184:A 0.000268396
6 *391:47 *6184:A 9.64602e-05
*RES
1 *6183:X *6184:A 36.975 
*END

*D_NET *400 0.000577348
*CONN
*I *6186:B1 I *D sky130_fd_sc_hd__o211a_4
*I *6185:X O *D sky130_fd_sc_hd__and4b_1
*CAP
1 *6186:B1 0.000181438
2 *6185:X 0.000181438
3 *6186:B1 *401:79 0.00017099
4 *6186:C1 *6186:B1 1.97695e-05
5 *182:91 *6186:B1 2.22891e-05
6 *182:102 *6186:B1 1.42392e-06
*RES
1 *6185:X *6186:B1 23.2964 
*END

*D_NET *401 0.0334728
*CONN
*I *6197:S I *D sky130_fd_sc_hd__mux2_1
*I *6193:S I *D sky130_fd_sc_hd__mux2_1
*I *6191:S I *D sky130_fd_sc_hd__mux2_1
*I *6187:S I *D sky130_fd_sc_hd__mux2_1
*I *6189:S I *D sky130_fd_sc_hd__mux2_1
*I *6199:S I *D sky130_fd_sc_hd__mux2_1
*I *6201:S I *D sky130_fd_sc_hd__mux2_1
*I *6195:S I *D sky130_fd_sc_hd__mux2_1
*I *6186:X O *D sky130_fd_sc_hd__o211a_4
*CAP
1 *6197:S 0
2 *6193:S 0.000113575
3 *6191:S 8.18968e-05
4 *6187:S 0.00027334
5 *6189:S 0.000331837
6 *6199:S 0.00114868
7 *6201:S 1.85698e-05
8 *6195:S 0.0014903
9 *6186:X 0
10 *401:93 0.00121481
11 *401:87 0.00188051
12 *401:83 0.00297951
13 *401:79 0.00347029
14 *401:22 0.00221119
15 *401:12 0.00280126
16 *401:6 0.00274359
17 *6187:S *6187:A0 5.62995e-05
18 *6189:S *411:111 0.000428698
19 *6189:S *724:64 1.08359e-05
20 *6189:S *724:68 0
21 *6191:S *5949:A0 0.000135028
22 *6191:S *6191:A0 4.58194e-05
23 *6191:S *746:85 8.25843e-06
24 *6193:S *5958:A1 1.3701e-05
25 *6193:S *6193:A0 2.55587e-05
26 *6193:S *6194:A 3.99614e-06
27 *6195:S *5994:A0 0.000102197
28 *6195:S *5994:A2 1.14548e-05
29 *6195:S *6037:A1 0.00048939
30 *6195:S *6201:A0 2.88018e-06
31 *6195:S *6201:A1 8.10623e-05
32 *6195:S *768:69 0.000386092
33 *6199:S *6111:A0 0.000299248
34 *6199:S *6199:A0 9.90367e-05
35 *6199:S *6200:A 2.27416e-05
36 *6199:S *6628:A 5.33005e-05
37 *6201:S *6201:A1 5.7661e-06
38 *401:12 *411:10 0.000124342
39 *401:12 *411:20 0.000142524
40 *401:12 *811:38 0.000142327
41 *401:22 *6201:A1 4.58194e-05
42 *401:22 *6569:A 0.000119618
43 *401:22 *6585:A 0.000308558
44 *401:22 *411:20 6.1753e-05
45 *401:22 *575:8 0.000284822
46 *401:22 *586:10 0.000100969
47 *401:79 *5976:A3 0.000125724
48 *401:79 *779:79 4.57445e-05
49 *401:83 *6033:A0 2.83294e-05
50 *401:83 *6126:A1 3.97794e-05
51 *401:83 *6194:A 5.76121e-05
52 *401:83 *779:141 0.000149105
53 *401:87 *6175:A0 0
54 *401:87 *6192:A 0
55 *401:87 *6211:A0 0.000120631
56 *401:87 *6211:S 0
57 *401:87 *6582:A 0
58 *401:87 *495:88 0.000572007
59 *401:87 *757:79 0.000142317
60 *401:93 *5949:A0 0.000145411
61 *401:93 *6027:A1 7.60993e-05
62 *401:93 *411:111 0.000175204
63 *401:93 *495:32 0.000117977
64 *401:93 *495:41 4.49802e-05
65 *401:93 *495:56 7.38213e-05
66 *401:93 *495:88 0.000170661
67 *5903:B *401:12 0.000175519
68 *5948:S1 *401:22 0.000104695
69 *5994:S1 *6195:S 4.87953e-05
70 *6003:B1 *401:79 1.76135e-05
71 *6022:A2 *401:79 3.14163e-05
72 *6022:B1 *401:79 0.000120587
73 *6022:C1 *401:79 1.74352e-05
74 *6029:S *401:87 0
75 *6032:A *6195:S 0
76 *6033:S *401:79 0.000328363
77 *6034:A *401:83 2.27416e-05
78 *6037:S *6195:S 5.33433e-05
79 *6038:A *6195:S 0.000227532
80 *6111:S *6199:S 0.000183547
81 *6112:A *6199:S 7.77652e-05
82 *6135:A *6187:S 0.000128496
83 *6135:A *6189:S 0.000207401
84 *6135:A *401:93 0.000227532
85 *6136:S *6189:S 0.000150611
86 *6140:S *401:87 0.000163569
87 *6149:A *401:22 1.01075e-05
88 *6166:S *6199:S 0.000177821
89 *6186:B1 *401:79 0.00017099
90 *6233:B *401:12 0.000133702
91 *6287:A2 *401:12 0
92 *6325:D *401:87 0
93 *6397:D *401:87 0
94 *6495:D *6199:S 1.74352e-05
95 *182:44 *401:12 2.41865e-05
96 *182:44 *401:79 0.000105682
97 *182:46 *401:12 0.000113038
98 *182:56 *401:12 5.7616e-05
99 *190:179 *401:12 0
100 *190:192 *401:12 0
101 *203:50 *401:12 0
102 *213:8 *401:12 0.000100831
103 *215:174 *401:79 0.000567271
104 *215:176 *401:79 0.00022266
105 *216:14 *401:12 0.000602073
106 *216:14 *401:22 0.000638448
107 *216:29 *401:22 0.000178907
108 *216:116 *401:12 3.80904e-05
109 *225:21 *401:22 0.000242307
110 *225:160 *6195:S 8.47203e-05
111 *226:83 *6201:S 3.99614e-06
112 *226:83 *401:22 2.08721e-05
113 *237:86 *6195:S 0
114 *287:22 *6195:S 2.77173e-05
115 *309:10 *401:79 0.000127618
116 *309:31 *6195:S 0.000134539
117 *362:37 *6199:S 0.000928381
*RES
1 *6186:X *401:6 13.8 
2 *401:6 *401:12 24.4643 
3 *401:12 *401:22 24.25 
4 *401:22 *6195:S 43.7821 
5 *401:22 *6201:S 9.72857 
6 *401:12 *6199:S 41.3179 
7 *401:6 *401:79 38.7857 
8 *401:79 *401:83 20.5714 
9 *401:83 *401:87 28.3036 
10 *401:87 *401:93 18.0357 
11 *401:93 *6189:S 28.7464 
12 *401:93 *6187:S 13.9786 
13 *401:87 *6191:S 16.0143 
14 *401:83 *6193:S 11.5143 
15 *401:79 *6197:S 9.3 
*END

*D_NET *402 0.0013124
*CONN
*I *6188:A I *D sky130_fd_sc_hd__clkbuf_1
*I *6187:X O *D sky130_fd_sc_hd__mux2_1
*CAP
1 *6188:A 0.000493699
2 *6187:X 0.000493699
3 *6188:A *6418:CLK 5.80706e-06
4 *6188:A *6512:A 9.71197e-05
5 *6188:A *495:8 0.000128886
6 *6188:A *495:10 5.84075e-05
7 *5972:A1 *6188:A 0
8 *6135:A *6188:A 3.47797e-05
9 *6394:D *6188:A 0
*RES
1 *6187:X *6188:A 34.7071 
*END

*D_NET *403 0.000770345
*CONN
*I *6190:A I *D sky130_fd_sc_hd__clkbuf_1
*I *6189:X O *D sky130_fd_sc_hd__mux2_1
*CAP
1 *6190:A 0.000261796
2 *6189:X 0.000261796
3 *6190:A *494:10 3.75052e-05
4 *5986:A0 *6190:A 0
5 *6137:A *6190:A 9.25014e-06
6 *6419:D *6190:A 0.00010096
7 *239:180 *6190:A 9.90367e-05
*RES
1 *6189:X *6190:A 31.9571 
*END

*D_NET *404 0.000911444
*CONN
*I *6192:A I *D sky130_fd_sc_hd__clkbuf_1
*I *6191:X O *D sky130_fd_sc_hd__mux2_1
*CAP
1 *6192:A 0.00029571
2 *6191:X 0.00029571
3 *6192:A *746:85 0.000320024
4 *270:12 *6192:A 0
5 *401:87 *6192:A 0
*RES
1 *6191:X *6192:A 32.2429 
*END

*D_NET *405 0.000248031
*CONN
*I *6194:A I *D sky130_fd_sc_hd__clkbuf_1
*I *6193:X O *D sky130_fd_sc_hd__mux2_1
*CAP
1 *6194:A 9.32112e-05
2 *6193:X 9.32112e-05
3 *6193:S *6194:A 3.99614e-06
4 *401:83 *6194:A 5.76121e-05
*RES
1 *6193:X *6194:A 20.6893 
*END

*D_NET *406 0.000871245
*CONN
*I *6196:A I *D sky130_fd_sc_hd__clkbuf_1
*I *6195:X O *D sky130_fd_sc_hd__mux2_1
*CAP
1 *6196:A 0.000270282
2 *6195:X 0.000270282
3 *6196:A *6142:A0 0.000139913
4 *6196:A *6142:A1 8.00806e-05
5 *6196:A *488:14 3.92757e-05
6 *6143:A *6196:A 0
7 *6422:D *6196:A 7.14121e-05
*RES
1 *6195:X *6196:A 32.4929 
*END

*D_NET *407 0.000152595
*CONN
*I *6198:A I *D sky130_fd_sc_hd__clkbuf_1
*I *6197:X O *D sky130_fd_sc_hd__mux2_1
*CAP
1 *6198:A 6.94471e-05
2 *6197:X 6.94471e-05
3 *6198:A *779:134 1.3701e-05
*RES
1 *6197:X *6198:A 19.8679 
*END

*D_NET *408 0.000177079
*CONN
*I *6200:A I *D sky130_fd_sc_hd__clkbuf_1
*I *6199:X O *D sky130_fd_sc_hd__mux2_1
*CAP
1 *6200:A 7.71686e-05
2 *6199:X 7.71686e-05
3 *6199:S *6200:A 2.27416e-05
*RES
1 *6199:X *6200:A 19.8679 
*END

*D_NET *409 0.00102632
*CONN
*I *6202:A I *D sky130_fd_sc_hd__clkbuf_1
*I *6201:X O *D sky130_fd_sc_hd__mux2_1
*CAP
1 *6202:A 0.000309942
2 *6201:X 0.000309942
3 *6202:A *6425:CLK 7.15846e-05
4 *6202:A *791:14 5.30637e-06
5 *6401:D *6202:A 7.71205e-05
6 *6425:D *6202:A 0.000173823
7 *216:29 *6202:A 4.96925e-05
8 *226:83 *6202:A 2.89114e-05
*RES
1 *6201:X *6202:A 34.3143 
*END

*D_NET *410 0.00134076
*CONN
*I *6204:B1 I *D sky130_fd_sc_hd__o211a_4
*I *6203:Y O *D sky130_fd_sc_hd__nor2_1
*CAP
1 *6204:B1 0.000188631
2 *6203:Y 0.000188631
3 *6204:B1 *428:52 0.000175519
4 *190:42 *6204:B1 0.000158484
5 *190:166 *6204:B1 0.000222885
6 *190:179 *6204:B1 0.000149911
7 *203:175 *6204:B1 9.97744e-05
8 *203:184 *6204:B1 7.15687e-05
9 *215:24 *6204:B1 5.71472e-05
10 *215:28 *6204:B1 2.82057e-05
*RES
1 *6203:Y *6204:B1 34.6357 
*END

*D_NET *411 0.029871
*CONN
*I *6205:S I *D sky130_fd_sc_hd__mux2_1
*I *6207:S I *D sky130_fd_sc_hd__mux2_1
*I *6217:S I *D sky130_fd_sc_hd__mux2_1
*I *6211:S I *D sky130_fd_sc_hd__mux2_1
*I *6215:S I *D sky130_fd_sc_hd__mux2_1
*I *6209:S I *D sky130_fd_sc_hd__mux2_1
*I *6219:S I *D sky130_fd_sc_hd__mux2_1
*I *6213:S I *D sky130_fd_sc_hd__mux2_1
*I *6204:X O *D sky130_fd_sc_hd__o211a_4
*CAP
1 *6205:S 3.0036e-05
2 *6207:S 0
3 *6217:S 0.00082398
4 *6211:S 0.000411851
5 *6215:S 0
6 *6209:S 3.64675e-05
7 *6219:S 3.82418e-05
8 *6213:S 0.00112041
9 *6204:X 0.000243247
10 *411:125 0.00147679
11 *411:111 0.00250505
12 *411:92 0.00366317
13 *411:77 0.00247033
14 *411:30 0.00271886
15 *411:20 0.00260757
16 *411:10 0.00229535
17 *6205:S *6205:A0 4.43256e-05
18 *6205:S *658:20 4.87953e-05
19 *6209:S *6210:A 0
20 *6209:S *6324:CLK 3.99614e-06
21 *6211:S *6212:A 0
22 *6213:S *5993:A1 2.08081e-05
23 *6213:S *6213:A0 0.00010096
24 *6213:S *6329:CLK 6.52304e-05
25 *6213:S *6563:A 1.92905e-05
26 *6213:S *488:39 0
27 *6217:S *6208:A 0.000149489
28 *6217:S *6217:A0 0
29 *6217:S *6218:A 0
30 *6217:S *6328:CLK 0.000764787
31 *6217:S *590:12 5.62995e-05
32 *6217:S *598:10 1.33343e-05
33 *6217:S *625:32 0
34 *6217:S *735:20 0
35 *411:10 *6610:A 0
36 *411:20 *5910:A1 0.000112093
37 *411:20 *5948:A3 0.000148189
38 *411:20 *6324:CLK 0.000122091
39 *411:20 *6441:CLK 2.28598e-05
40 *411:20 *6585:A 3.21574e-05
41 *411:20 *6610:A 0
42 *411:20 *586:10 9.88232e-05
43 *411:20 *746:117 4.61593e-05
44 *411:30 *5934:A 0.000145753
45 *411:30 *6173:A1 3.81416e-06
46 *411:30 *6209:A0 3.92757e-05
47 *411:30 *6219:A1 0.00059042
48 *411:30 *6220:A 0
49 *411:30 *6417:CLK 0
50 *411:30 *6470:RESET_B 0
51 *411:30 *6497:A 0.000102958
52 *411:30 *479:51 7.95714e-05
53 *411:30 *487:10 6.75007e-05
54 *411:30 *680:10 0
55 *411:30 *709:185 0
56 *411:30 *709:187 0
57 *411:30 *746:117 2.55587e-05
58 *411:77 *6215:A0 5.33334e-05
59 *411:77 *519:10 0.000146533
60 *411:92 *6215:A0 5.74021e-05
61 *411:92 *6246:A 0.000227539
62 *411:92 *6431:CLK 9.90431e-05
63 *411:92 *597:8 4.87854e-05
64 *411:111 *6027:A1 0.000402339
65 *411:111 *6418:CLK 0
66 *411:111 *6525:A 0
67 *411:111 *6565:A 7.80714e-06
68 *411:111 *494:10 0
69 *411:111 *494:16 0
70 *411:111 *494:18 0
71 *411:111 *495:10 0
72 *411:111 *495:32 0
73 *411:111 *495:88 7.4826e-05
74 *411:111 *735:46 0.000173097
75 *411:111 *735:57 0.000561369
76 *411:125 *5918:A0 0
77 *411:125 *6205:A0 7.43578e-06
78 *411:125 *6206:A 0.000436875
79 *411:125 *6208:A 5.33334e-05
80 *411:125 *6328:CLK 8.76257e-05
81 *411:125 *6427:CLK 9.25014e-06
82 *411:125 *494:18 0.000137224
83 *411:125 *494:20 0.000214342
84 *411:125 *494:22 0.000732884
85 *411:125 *658:20 0.000114874
86 *5917:A *411:92 0.000309266
87 *5948:S0 *411:20 1.6959e-05
88 *5949:S0 *411:111 0.00018567
89 *5986:A0 *411:125 0
90 *6112:A *411:77 9.71197e-05
91 *6136:S *411:111 4.98055e-06
92 *6170:A *411:125 5.41797e-05
93 *6180:A *411:77 0.000216613
94 *6180:A *411:92 0.000131831
95 *6189:S *411:111 0.000428698
96 *6324:D *411:20 0
97 *6329:D *6213:S 0.000320181
98 *6348:D *411:111 0
99 *6377:D *411:77 0.000162888
100 *6420:D *411:92 4.88515e-05
101 *6429:D *6211:S 9.91086e-05
102 *6431:D *411:92 2.87382e-05
103 *6441:D *411:20 1.53273e-05
104 *6444:D *411:92 5.17614e-05
105 *203:50 *411:10 9.90431e-05
106 *225:39 *6213:S 0
107 *226:14 *411:30 8.41713e-05
108 *230:8 *411:30 0
109 *270:12 *6211:S 0
110 *391:47 *411:30 0
111 *401:12 *411:10 0.000124342
112 *401:12 *411:20 0.000142524
113 *401:22 *411:20 6.1753e-05
114 *401:87 *6211:S 0
115 *401:93 *411:111 0.000175204
*RES
1 *6204:X *411:10 19.1214 
2 *411:10 *411:20 23.8036 
3 *411:20 *411:30 39.4821 
4 *411:30 *6213:S 34.55 
5 *411:30 *6219:S 10.0321 
6 *411:20 *6209:S 10.0321 
7 *411:10 *411:77 23.8393 
8 *411:77 *6215:S 9.3 
9 *411:77 *411:92 24.4286 
10 *411:92 *6211:S 25.4071 
11 *411:92 *411:111 47.3571 
12 *411:111 *411:125 27.4821 
13 *411:125 *6217:S 34.2107 
14 *411:125 *6207:S 9.3 
15 *411:111 *6205:S 10.2464 
*END

*D_NET *412 0.00146928
*CONN
*I *6206:A I *D sky130_fd_sc_hd__clkbuf_1
*I *6205:X O *D sky130_fd_sc_hd__mux2_1
*CAP
1 *6206:A 0.000309191
2 *6205:X 0.000309191
3 *6206:A *6445:CLK 0.000185643
4 *6206:A *658:20 3.06878e-06
5 *5986:A0 *6206:A 0
6 *6170:A *6206:A 0.000225307
7 *411:125 *6206:A 0.000436875
*RES
1 *6205:X *6206:A 35.1 
*END

*D_NET *413 0.00136873
*CONN
*I *6208:A I *D sky130_fd_sc_hd__clkbuf_1
*I *6207:X O *D sky130_fd_sc_hd__mux2_1
*CAP
1 *6208:A 0.000485116
2 *6207:X 0.000485116
3 *6208:A *6328:CLK 1.39726e-05
4 *6208:A *494:22 3.37687e-05
5 *6208:A *735:27 2.77217e-05
6 *6208:A *735:35 3.65526e-05
7 *6217:S *6208:A 0.000149489
8 *6411:D *6208:A 7.01199e-06
9 *6427:D *6208:A 7.6644e-05
10 *411:125 *6208:A 5.33334e-05
*RES
1 *6207:X *6208:A 35.2607 
*END

*D_NET *414 0.00016805
*CONN
*I *6210:A I *D sky130_fd_sc_hd__clkbuf_1
*I *6209:X O *D sky130_fd_sc_hd__mux2_1
*CAP
1 *6210:A 6.43626e-05
2 *6209:X 6.43626e-05
3 *6210:A *6412:CLK 3.93247e-05
4 *6209:S *6210:A 0
*RES
1 *6209:X *6210:A 19.9929 
*END

*D_NET *415 0.0011653
*CONN
*I *6212:A I *D sky130_fd_sc_hd__clkbuf_1
*I *6211:X O *D sky130_fd_sc_hd__mux2_1
*CAP
1 *6212:A 0.000296028
2 *6211:X 0.000296028
3 *6212:A *6241:S 0.000274288
4 *6211:S *6212:A 0
5 *6429:D *6212:A 3.18676e-05
6 *270:12 *6212:A 0.000267092
*RES
1 *6211:X *6212:A 34.3857 
*END

*D_NET *416 0.000435052
*CONN
*I *6214:A I *D sky130_fd_sc_hd__clkbuf_1
*I *6213:X O *D sky130_fd_sc_hd__mux2_1
*CAP
1 *6214:A 0.000167046
2 *6213:X 0.000167046
3 *6214:A *6213:A0 0
4 *6214:A *6430:CLK 0
5 *6430:D *6214:A 0.00010096
*RES
1 *6213:X *6214:A 30.725 
*END

*D_NET *417 0.000645765
*CONN
*I *6216:A I *D sky130_fd_sc_hd__clkbuf_1
*I *6215:X O *D sky130_fd_sc_hd__mux2_1
*CAP
1 *6216:A 0.000205695
2 *6215:X 0.000205695
3 *6216:A *6091:A0 0.00010096
4 *6216:A *658:30 8.00806e-05
5 *6431:D *6216:A 5.33334e-05
6 *309:14 *6216:A 0
*RES
1 *6215:X *6216:A 31.9571 
*END

*D_NET *418 0.000756346
*CONN
*I *6218:A I *D sky130_fd_sc_hd__clkbuf_1
*I *6217:X O *D sky130_fd_sc_hd__mux2_1
*CAP
1 *6218:A 0.000358415
2 *6217:X 0.000358415
3 *6218:A *6217:A0 0
4 *6218:A *598:10 0
5 *6217:S *6218:A 0
6 *6432:D *6218:A 3.95175e-05
*RES
1 *6217:X *6218:A 33.3321 
*END

*D_NET *419 0.000742427
*CONN
*I *6220:A I *D sky130_fd_sc_hd__clkbuf_1
*I *6219:X O *D sky130_fd_sc_hd__mux2_1
*CAP
1 *6220:A 0.00036831
2 *6219:X 0.00036831
3 *6220:A *6417:CLK 5.80706e-06
4 *411:30 *6220:A 0
*RES
1 *6219:X *6220:A 32.5464 
*END

*D_NET *420 0.0141268
*CONN
*I *6282:S I *D sky130_fd_sc_hd__mux2_1
*I *6278:B I *D sky130_fd_sc_hd__xor2_1
*I *6279:S I *D sky130_fd_sc_hd__mux2_1
*I *6222:S I *D sky130_fd_sc_hd__mux2_1
*I *6285:S I *D sky130_fd_sc_hd__mux2_1
*I *6225:S I *D sky130_fd_sc_hd__mux2_1
*I *6231:S I *D sky130_fd_sc_hd__mux2_1
*I *6229:S I *D sky130_fd_sc_hd__mux2_1
*I *6228:A2 I *D sky130_fd_sc_hd__o21ba_1
*I *6221:X O *D sky130_fd_sc_hd__o21a_4
*CAP
1 *6282:S 0
2 *6278:B 0
3 *6279:S 0
4 *6222:S 0.000802341
5 *6285:S 0
6 *6225:S 0
7 *6231:S 0
8 *6229:S 0.00029122
9 *6228:A2 0.000116862
10 *6221:X 9.42842e-05
11 *420:87 0.000977796
12 *420:85 0.00052995
13 *420:51 0.000896075
14 *420:47 0.00100699
15 *420:39 0.000908294
16 *420:31 0.00103012
17 *420:27 0.00091534
18 *420:10 0.000957026
19 *6222:S *5885:A 0.000114311
20 *6222:S *6222:A0 0.000219818
21 *6222:S *6280:A 9.90367e-05
22 *6228:A2 *680:10 0.000242913
23 *6229:S *6229:A0 1.76039e-05
24 *6229:S *710:16 0
25 *6229:S *710:30 0.000215147
26 *6229:S *710:32 9.24395e-05
27 *420:10 *680:10 9.25014e-06
28 *420:27 *5870:D 1.87955e-05
29 *420:27 *6282:A0 1.46717e-05
30 *420:27 *6282:A1 6.39901e-05
31 *420:27 *812:38 0
32 *420:27 *812:46 0
33 *420:31 *6282:A0 1.41029e-05
34 *420:31 *6282:A1 1.02504e-05
35 *420:31 *6283:A 0
36 *420:31 *812:36 0
37 *420:31 *812:38 0
38 *420:39 *6507:A 0.000412188
39 *420:39 *6508:A 6.90625e-05
40 *420:39 *490:6 0.000168067
41 *420:39 *491:12 9.90367e-05
42 *420:47 *6225:A1 0.000358895
43 *420:47 *6285:A1 0.000150632
44 *420:47 *812:10 3.90513e-05
45 *420:51 *6463:D 4.57445e-05
46 *420:51 *490:12 0
47 *420:51 *710:16 0
48 *420:85 *6283:A 0
49 *420:85 *6478:RESET_B 0
50 *420:85 *491:12 0.00020402
51 *420:85 *810:75 0
52 *420:85 *812:36 0
53 *420:87 *710:185 7.28784e-05
54 *5871:A *6229:S 7.58664e-05
55 *5871:A *420:51 7.49239e-05
56 *5871:B *420:51 0
57 *5879:A *420:85 8.96812e-05
58 *5879:A *420:87 9.90431e-05
59 *5891:A *420:10 3.06406e-05
60 *6168:A1 *420:27 0.000134726
61 *6168:B1 *420:27 0.000177815
62 *6227:A1 *420:27 0.00012501
63 *6229:A1 *6229:S 0
64 *6231:A1 *6229:S 5.80706e-06
65 *6231:A1 *420:51 6.16744e-05
66 *6279:A1 *6222:S 3.48705e-05
67 *6279:A1 *420:87 9.90367e-05
68 *6287:C1 *420:27 0.000175519
69 *6478:D *420:85 0.00010326
70 *183:8 *420:27 0.000369818
71 *188:8 *6229:S 0
72 *189:10 *420:27 7.79781e-06
73 *190:8 *420:10 0.000140933
74 *190:21 *420:10 9.90431e-05
75 *192:12 *420:31 0
76 *193:16 *420:27 0
77 *198:16 *420:47 0
78 *203:10 *420:27 0.000142797
79 *203:14 *420:27 0.000148189
80 *203:36 *420:10 0.000230482
81 *391:8 *6228:A2 0.000196269
82 *391:8 *420:10 0.000116481
83 *391:8 *420:27 6.30023e-05
84 *391:22 *6228:A2 4.58764e-05
*RES
1 *6221:X *420:10 17.6214 
2 *420:10 *6228:A2 16.9607 
3 *420:10 *420:27 26.9821 
4 *420:27 *420:31 3.08929 
5 *420:31 *420:39 15.4464 
6 *420:39 *420:47 18.1429 
7 *420:47 *420:51 16.4643 
8 *420:51 *6229:S 21.5143 
9 *420:51 *6231:S 13.8 
10 *420:47 *6225:S 9.3 
11 *420:39 *6285:S 9.3 
12 *420:31 *420:85 12.5714 
13 *420:85 *420:87 3.82143 
14 *420:87 *6222:S 22.5143 
15 *420:87 *6279:S 9.3 
16 *420:85 *6278:B 9.3 
17 *420:27 *6282:S 13.8 
*END

*D_NET *421 0.000238001
*CONN
*I *6223:A I *D sky130_fd_sc_hd__clkbuf_1
*I *6222:X O *D sky130_fd_sc_hd__mux2_1
*CAP
1 *6223:A 0.000119
2 *6222:X 0.000119
*RES
1 *6222:X *6223:A 20.6893 
*END

*D_NET *422 0.00172683
*CONN
*I *6225:A1 I *D sky130_fd_sc_hd__mux2_1
*I *6224:Y O *D sky130_fd_sc_hd__nand2_1
*CAP
1 *6225:A1 0.000545862
2 *6224:Y 0.000545862
3 *6225:A1 *6225:A0 0.000276211
4 *420:47 *6225:A1 0.000358895
*RES
1 *6224:Y *6225:A1 29.4036 
*END

*D_NET *423 0.000575343
*CONN
*I *6226:A I *D sky130_fd_sc_hd__clkbuf_1
*I *6225:X O *D sky130_fd_sc_hd__mux2_1
*CAP
1 *6226:A 0.000238153
2 *6225:X 0.000238153
3 *226:51 *6226:A 9.90367e-05
*RES
1 *6225:X *6226:A 22.7429 
*END

*D_NET *424 0.000450227
*CONN
*I *6228:B1_N I *D sky130_fd_sc_hd__o21ba_1
*I *6227:X O *D sky130_fd_sc_hd__o211a_1
*CAP
1 *6228:B1_N 0.000225114
2 *6227:X 0.000225114
3 *6228:B1_N *479:61 0
4 *391:8 *6228:B1_N 0
5 *391:22 *6228:B1_N 0
*RES
1 *6227:X *6228:B1_N 31.1357 
*END

*D_NET *425 0.00055477
*CONN
*I *6230:A I *D sky130_fd_sc_hd__clkbuf_1
*I *6229:X O *D sky130_fd_sc_hd__mux2_1
*CAP
1 *6230:A 0.000140238
2 *6229:X 0.000140238
3 *6230:A *6461:RESET_B 0.000274294
*RES
1 *6229:X *6230:A 21.9214 
*END

*D_NET *426 0.0010042
*CONN
*I *6232:A I *D sky130_fd_sc_hd__clkbuf_1
*I *6231:X O *D sky130_fd_sc_hd__mux2_1
*CAP
1 *6232:A 0.000255916
2 *6231:X 0.000255916
3 *6232:A *5868:A 5.52302e-05
4 *6232:A *6451:D 0.000357054
5 *6232:A *710:30 0
6 *6232:A *813:10 8.00806e-05
*RES
1 *6231:X *6232:A 33.1893 
*END

*D_NET *427 0.00152374
*CONN
*I *6234:B1 I *D sky130_fd_sc_hd__o211a_4
*I *6233:Y O *D sky130_fd_sc_hd__nor2_1
*CAP
1 *6234:B1 0.000370487
2 *6233:Y 0.000370487
3 *6234:B1 *6305:B1 5.33005e-05
4 *5903:A *6234:B1 0.000241205
5 *6095:B *6234:B1 0.000195555
6 *6111:S *6234:B1 0
7 *6150:B *6234:B1 2.59355e-05
8 *6203:A *6234:B1 1.21258e-05
9 *6203:B *6234:B1 5.52302e-05
10 *6287:A1 *6234:B1 5.52238e-05
11 *190:59 *6234:B1 4.1331e-06
12 *203:175 *6234:B1 9.97744e-05
13 *213:29 *6234:B1 2.28499e-05
14 *279:24 *6234:B1 1.74352e-05
*RES
1 *6233:Y *6234:B1 36.1179 
*END

*D_NET *428 0.0308951
*CONN
*I *6247:S I *D sky130_fd_sc_hd__mux2_1
*I *6237:S I *D sky130_fd_sc_hd__mux2_1
*I *6235:S I *D sky130_fd_sc_hd__mux2_1
*I *6243:S I *D sky130_fd_sc_hd__mux2_1
*I *6249:S I *D sky130_fd_sc_hd__mux2_1
*I *6239:S I *D sky130_fd_sc_hd__mux2_1
*I *6245:S I *D sky130_fd_sc_hd__mux2_1
*I *6241:S I *D sky130_fd_sc_hd__mux2_1
*I *6234:X O *D sky130_fd_sc_hd__o211a_4
*CAP
1 *6247:S 1.63023e-05
2 *6237:S 0.000281089
3 *6235:S 0
4 *6243:S 0.000227124
5 *6249:S 0
6 *6239:S 0
7 *6245:S 0
8 *6241:S 0.00119591
9 *6234:X 0
10 *428:121 0.00184785
11 *428:105 0.00240646
12 *428:84 0.00171782
13 *428:75 0.00228557
14 *428:52 0.00234782
15 *428:16 0.00224389
16 *428:4 0.00177754
17 *6237:S *724:41 6.86693e-05
18 *6237:S *735:92 3.57844e-05
19 *6241:S *6211:A0 5.76121e-05
20 *6241:S *6241:A0 9.99644e-06
21 *6241:S *6241:A1 0.000221369
22 *6241:S *6246:A 0.00026537
23 *6241:S *6611:A 7.21117e-05
24 *6241:S *581:12 0.000249109
25 *6241:S *768:42 0.000312736
26 *6243:S *5914:A0 3.92854e-05
27 *6243:S *5966:A0 0.000137983
28 *6243:S *6243:A1 0.000221163
29 *6243:S *6244:A 1.17968e-05
30 *6243:S *6416:CLK 0.000174805
31 *6243:S *6519:A 4.27935e-05
32 *6247:S *6598:A 1.3701e-05
33 *428:16 *5975:A0 0.000478627
34 *428:16 *6179:A0 2.28499e-05
35 *428:16 *6179:A1 0.000181796
36 *428:16 *6245:A0 9.90367e-05
37 *428:16 *6245:A1 0.00020464
38 *428:16 *470:12 0.000650843
39 *428:16 *779:109 0.000519869
40 *428:52 *6239:A0 2.56694e-05
41 *428:52 *6377:CLK 0
42 *428:52 *6562:A 0
43 *428:75 *5994:A0 5.26864e-05
44 *428:75 *5994:A2 0
45 *428:75 *5997:A0 0.000368834
46 *428:75 *6148:A0 0.000132729
47 *428:75 *6201:A1 0
48 *428:75 *6240:A 0
49 *428:75 *6249:A0 0.00010096
50 *428:75 *6249:A1 0
51 *428:75 *6377:CLK 5.52238e-05
52 *428:75 *6543:A 1.7606e-05
53 *428:75 *6562:A 0
54 *428:75 *488:39 0.000192581
55 *428:75 *578:10 0
56 *428:75 *636:111 0
57 *428:75 *746:99 0.000119203
58 *428:75 *790:33 6.20091e-06
59 *428:84 *6249:A0 0.000655269
60 *428:105 *6247:A0 2.44318e-05
61 *428:105 *6247:A1 0.000218045
62 *428:105 *6248:A 0.000181803
63 *428:105 *625:51 0.000374225
64 *428:121 *5984:A2 0
65 *428:121 *6247:A0 3.14078e-05
66 *428:121 *6594:A 0
67 *428:121 *6598:A 0.000209963
68 *428:121 *625:45 0
69 *428:121 *724:41 2.95641e-05
70 *428:121 *724:43 0.000167219
71 *5941:A0 *6237:S 0.000322453
72 *5984:S1 *428:121 0.0013912
73 *5986:A0 *428:121 0
74 *5994:S0 *428:75 0.000386819
75 *5995:A0 *428:75 0
76 *5999:A0 *428:75 0.000146474
77 *5999:A1 *428:75 0.000818256
78 *6111:S *428:52 0
79 *6112:A *428:52 0.00017379
80 *6130:S *428:52 0
81 *6130:S *428:75 0.000136276
82 *6148:S *428:75 0
83 *6180:A *428:16 5.52302e-05
84 *6204:B1 *428:52 0.000175519
85 *6212:A *6241:S 0.000274288
86 *6234:C1 *428:16 8.54431e-05
87 *6385:D *428:52 4.15914e-05
88 *6441:D *428:75 0
89 *6444:D *6241:S 1.24368e-05
90 *6446:D *428:75 0.00015667
91 *6496:A *6241:S 1.37292e-05
92 *190:59 *428:16 0.000178847
93 *190:70 *428:16 0.000337693
94 *203:54 *428:52 0.000148196
95 *203:64 *428:16 0.000310286
96 *203:175 *428:52 4.73656e-05
97 *215:28 *428:52 7.80714e-06
98 *216:14 *428:52 0
99 *216:44 *6243:S 0
100 *216:44 *428:105 0
101 *225:62 *428:105 3.67257e-05
102 *225:79 *428:105 0.000203916
103 *225:164 *6241:S 0.000798061
104 *225:181 *6241:S 0.000269428
105 *226:95 *428:75 7.32955e-05
106 *226:95 *428:84 0.000183412
107 *265:12 *6243:S 0.0001827
108 *295:20 *428:75 1.70278e-05
109 *391:122 *428:16 1.97695e-05
110 *391:151 *428:16 0.00048746
*RES
1 *6234:X *428:4 9.3 
2 *428:4 *428:16 28.25 
3 *428:16 *6241:S 48.5857 
4 *428:16 *6245:S 9.3 
5 *428:4 *428:52 23.6964 
6 *428:52 *6239:S 9.3 
7 *428:52 *428:75 46.4821 
8 *428:75 *6249:S 9.3 
9 *428:75 *428:84 18.1786 
10 *428:84 *6243:S 20.55 
11 *428:84 *428:105 19.1429 
12 *428:105 *428:121 39.9643 
13 *428:121 *6235:S 9.3 
14 *428:121 *6237:S 24.6393 
15 *428:105 *6247:S 9.72857 
*END

*D_NET *429 0.00155772
*CONN
*I *6236:A I *D sky130_fd_sc_hd__clkbuf_1
*I *6235:X O *D sky130_fd_sc_hd__mux2_1
*CAP
1 *6236:A 0.000518705
2 *6235:X 0.000518705
3 *6236:A *5924:A0 0.000346682
4 *6236:A *5924:A1 5.52302e-05
5 *6236:A *481:52 0
6 *6236:A *481:56 0
7 *6236:A *724:43 0.00010096
8 *6236:A *735:105 0
9 *5928:A0 *6236:A 1.74352e-05
*RES
1 *6235:X *6236:A 37.6893 
*END

*D_NET *430 0.000477107
*CONN
*I *6238:A I *D sky130_fd_sc_hd__clkbuf_1
*I *6237:X O *D sky130_fd_sc_hd__mux2_1
*CAP
1 *6238:A 0.00016992
2 *6237:X 0.00016992
3 *6238:A *5939:A0 1.84536e-05
4 *6238:A *481:56 2.00751e-05
5 *6238:A *735:105 0
6 *5941:A0 *6238:A 5.71472e-05
7 *6440:D *6238:A 4.15914e-05
*RES
1 *6237:X *6238:A 30.6 
*END

*D_NET *431 0.000827851
*CONN
*I *6240:A I *D sky130_fd_sc_hd__clkbuf_1
*I *6239:X O *D sky130_fd_sc_hd__mux2_1
*CAP
1 *6240:A 0.000361463
2 *6239:X 0.000361463
3 *6240:A *6562:A 7.6644e-05
4 *6240:A *578:10 9.25014e-06
5 *6240:A *746:109 1.90303e-05
6 *5948:S1 *6240:A 0
7 *428:75 *6240:A 0
*RES
1 *6239:X *6240:A 32.7964 
*END

*D_NET *432 0.00178283
*CONN
*I *6242:A I *D sky130_fd_sc_hd__clkbuf_1
*I *6241:X O *D sky130_fd_sc_hd__mux2_1
*CAP
1 *6242:A 0.000518278
2 *6241:X 0.000518278
3 *6242:A *5957:A0 0.00018372
4 *6242:A *6561:A 7.83659e-05
5 *6242:A *579:14 0.000385487
6 *6242:A *746:45 9.86999e-05
7 *6120:S *6242:A 0
*RES
1 *6241:X *6242:A 38.1 
*END

*D_NET *433 0.00127766
*CONN
*I *6244:A I *D sky130_fd_sc_hd__clkbuf_1
*I *6243:X O *D sky130_fd_sc_hd__mux2_1
*CAP
1 *6244:A 0.000178907
2 *6243:X 0.000178907
3 *6244:A *6243:A1 0.000170385
4 *6244:A *6416:CLK 0.000127439
5 *6244:A *768:119 0.00031119
6 *6243:S *6244:A 1.17968e-05
7 *216:44 *6244:A 1.76039e-05
8 *216:60 *6244:A 6.42242e-05
9 *225:58 *6244:A 5.52238e-05
10 *391:59 *6244:A 0.000161981
*RES
1 *6243:X *6244:A 34.1893 
*END

*D_NET *434 0.00214848
*CONN
*I *6246:A I *D sky130_fd_sc_hd__clkbuf_1
*I *6245:X O *D sky130_fd_sc_hd__mux2_1
*CAP
1 *6246:A 0.00047728
2 *6245:X 0.00047728
3 *6246:A *5975:A0 0.000221634
4 *6246:A *6444:CLK 0.000223592
5 *6246:A *768:42 5.91439e-05
6 *6241:S *6246:A 0.00026537
7 *6444:D *6246:A 0.000152333
8 *6496:A *6246:A 4.43046e-05
9 *230:66 *6246:A 0
10 *411:92 *6246:A 0.000227539
*RES
1 *6245:X *6246:A 38.7607 
*END

*D_NET *435 0.00110442
*CONN
*I *6248:A I *D sky130_fd_sc_hd__clkbuf_1
*I *6247:X O *D sky130_fd_sc_hd__mux2_1
*CAP
1 *6248:A 0.000404475
2 *6247:X 0.000404475
3 *6248:A *6445:CLK 4.01768e-05
4 *6445:D *6248:A 3.65178e-05
5 *225:79 *6248:A 3.69697e-05
6 *428:105 *6248:A 0.000181803
*RES
1 *6247:X *6248:A 33.6179 
*END

*D_NET *436 0.000422057
*CONN
*I *6250:A I *D sky130_fd_sc_hd__clkbuf_1
*I *6249:X O *D sky130_fd_sc_hd__mux2_1
*CAP
1 *6250:A 8.33325e-05
2 *6249:X 8.33325e-05
3 *6446:D *6250:A 6.97494e-05
4 *226:95 *6250:A 0.000185643
*RES
1 *6249:X *6250:A 21.1 
*END

*D_NET *437 0.00265741
*CONN
*I *6267:B I *D sky130_fd_sc_hd__and2_1
*I *6258:C I *D sky130_fd_sc_hd__or3_1
*I *6253:B I *D sky130_fd_sc_hd__or2_1
*I *6276:D I *D sky130_fd_sc_hd__or4_1
*I *6252:Y O *D sky130_fd_sc_hd__nand2_1
*CAP
1 *6267:B 9.23851e-05
2 *6258:C 0.00034343
3 *6253:B 7.03059e-05
4 *6276:D 3.69873e-05
5 *6252:Y 0
6 *437:12 0.000297015
7 *437:6 0.000533153
8 *437:4 9.23851e-05
9 *6253:B *6277:B 0.00014183
10 *6258:C *6268:B 7.73758e-05
11 *6258:C *711:109 0
12 *6267:B *680:24 0
13 *6276:D *6277:B 3.97677e-05
14 *437:12 *6276:B 7.83587e-05
15 *437:12 *711:109 0
16 *6258:A *6258:C 0
17 *6258:B *6258:C 0
18 *6267:A *6267:B 0.000186543
19 *6267:A *437:12 0.000171375
20 *225:262 *6267:B 3.57366e-05
21 *226:18 *6267:B 5.18772e-05
22 *226:28 *6267:B 9.71197e-05
23 *226:28 *437:12 6.59861e-05
24 *230:271 *6253:B 0.000154122
25 *237:24 *6258:C 0
26 *237:24 *437:12 1.00375e-05
27 *239:10 *6253:B 8.43535e-06
28 *239:10 *6276:D 1.98839e-05
29 *239:16 *6276:D 5.33005e-05
*RES
1 *6252:Y *437:4 9.3 
2 *437:4 *437:6 4.5 
3 *437:6 *437:12 8.19643 
4 *437:12 *6276:D 10.2464 
5 *437:12 *6253:B 11.4964 
6 *437:6 *6258:C 19.8357 
7 *437:4 *6267:B 12.2286 
*END

*D_NET *438 0.00128216
*CONN
*I *6255:A I *D sky130_fd_sc_hd__and2_1
*I *6257:B I *D sky130_fd_sc_hd__xnor2_1
*I *6253:X O *D sky130_fd_sc_hd__or2_1
*CAP
1 *6255:A 4.45325e-05
2 *6257:B 0.000237657
3 *6253:X 6.10844e-05
4 *438:10 0.000343274
5 *6255:A *6255:B 5.52302e-05
6 *438:10 *6255:B 0.000127446
7 *438:10 *711:135 5.26184e-05
8 *210:12 *438:10 7.79781e-06
9 *225:262 *6257:B 0.000127446
10 *226:28 *6257:B 4.48206e-05
11 *287:24 *6255:A 1.38323e-05
12 *287:24 *6257:B 0.000166416
*RES
1 *6253:X *438:10 20.2464 
2 *438:10 *6257:B 23.675 
3 *438:10 *6255:A 10.2464 
*END

*D_NET *439 0.00118268
*CONN
*I *6255:B I *D sky130_fd_sc_hd__and2_1
*I *6254:X O *D sky130_fd_sc_hd__a31o_1
*CAP
1 *6255:B 0.000229248
2 *6254:X 0.000229248
3 *6255:B *711:115 5.52302e-05
4 *6255:B *711:135 0
5 *6253:A *6255:B 9.11365e-06
6 *6254:A3 *6255:B 9.44259e-05
7 *6255:A *6255:B 5.52302e-05
8 *6258:A *6255:B 0.000100009
9 *210:12 *6255:B 8.56716e-05
10 *225:247 *6255:B 5.71472e-05
11 *287:24 *6255:B 0.000139913
12 *438:10 *6255:B 0.000127446
*RES
1 *6254:X *6255:B 34.1714 
*END

*D_NET *440 0.00113453
*CONN
*I *6256:A I *D sky130_fd_sc_hd__clkbuf_1
*I *6255:X O *D sky130_fd_sc_hd__and2_1
*CAP
1 *6256:A 0.000380841
2 *6255:X 0.000380841
3 *210:12 *6256:A 2.79092e-05
4 *230:263 *6256:A 0.000344943
*RES
1 *6255:X *6256:A 35.3679 
*END

*D_NET *441 0.000265192
*CONN
*I *6259:B I *D sky130_fd_sc_hd__xnor2_1
*I *6258:X O *D sky130_fd_sc_hd__or3_1
*CAP
1 *6259:B 6.88729e-05
2 *6258:X 6.88729e-05
3 *6259:B *713:8 0
4 *6258:A *6259:B 0.000127446
5 *6470:D *6259:B 0
*RES
1 *6258:X *6259:B 29.2429 
*END

*D_NET *442 0.00146864
*CONN
*I *6261:A0 I *D sky130_fd_sc_hd__mux2_1
*I *6260:Y O *D sky130_fd_sc_hd__inv_2
*CAP
1 *6261:A0 0.000492901
2 *6260:Y 0.000492901
3 *6261:S *6261:A0 0.000464535
4 *226:51 *6261:A0 1.83053e-05
*RES
1 *6260:Y *6261:A0 36.4929 
*END

*D_NET *443 0.000266811
*CONN
*I *6262:A I *D sky130_fd_sc_hd__clkbuf_1
*I *6261:X O *D sky130_fd_sc_hd__mux2_1
*CAP
1 *6262:A 9.40579e-05
2 *6261:X 9.40579e-05
3 *6262:A *6447:D 7.86956e-05
*RES
1 *6261:X *6262:A 20.6893 
*END

*D_NET *444 0.00109732
*CONN
*I *6264:B I *D sky130_fd_sc_hd__xnor2_1
*I *6263:Y O *D sky130_fd_sc_hd__nor2_1
*CAP
1 *6264:B 0.00026603
2 *6263:Y 0.00026603
3 *6264:B *6264:A 0.00024525
4 *6264:B *6272:B 0.000187465
5 *6271:A2 *6264:B 3.46775e-05
6 *226:28 *6264:B 7.43578e-06
7 *226:30 *6264:B 8.07313e-05
8 *226:51 *6264:B 9.7049e-06
*RES
1 *6263:Y *6264:B 24.1 
*END

*D_NET *445 0.00509468
*CONN
*I *6265:A0 I *D sky130_fd_sc_hd__mux2_1
*I *6264:Y O *D sky130_fd_sc_hd__xnor2_1
*CAP
1 *6265:A0 8.82167e-05
2 *6264:Y 0.00168828
3 *445:14 0.0017765
4 *445:14 *5895:A 0
5 *445:14 *6272:B 0.000317633
6 *445:14 *6459:CLK 0
7 *445:14 *6461:CLK 0.000151333
8 *445:14 *487:73 0
9 *445:14 *490:35 0.000340781
10 *445:14 *794:34 0
11 *5897:B *6265:A0 8.25843e-06
12 *5897:B *445:14 0.000122173
13 *5898:C *445:14 3.4846e-06
14 *6261:S *6265:A0 0.000310236
15 *6261:S *445:14 3.12359e-05
16 *6265:S *6265:A0 9.99853e-05
17 *6438:D *445:14 0.00010326
18 *208:14 *6265:A0 5.33005e-05
*RES
1 *6264:Y *445:14 45.925 
2 *445:14 *6265:A0 16.8 
*END

*D_NET *446 0.000602726
*CONN
*I *6266:A I *D sky130_fd_sc_hd__clkbuf_1
*I *6265:X O *D sky130_fd_sc_hd__mux2_1
*CAP
1 *6266:A 0.000244878
2 *6265:X 0.000244878
3 *6266:A *6265:A1 3.57366e-05
4 *6265:S *6266:A 3.99614e-06
5 *239:67 *6266:A 7.3237e-05
*RES
1 *6265:X *6266:A 23.1536 
*END

*D_NET *447 0.000277859
*CONN
*I *6268:B I *D sky130_fd_sc_hd__xnor2_1
*I *6267:X O *D sky130_fd_sc_hd__and2_1
*CAP
1 *6268:B 6.81246e-05
2 *6267:X 6.81246e-05
3 *6268:B *709:10 0
4 *6258:C *6268:B 7.73758e-05
5 *237:24 *6268:B 6.42338e-05
*RES
1 *6267:X *6268:B 29.5464 
*END

*D_NET *448 0.00143372
*CONN
*I *6269:A0 I *D sky130_fd_sc_hd__mux2_1
*I *6268:Y O *D sky130_fd_sc_hd__xnor2_1
*CAP
1 *6269:A0 0.000438193
2 *6268:Y 0.000438193
3 *6269:A0 *680:24 0.000161357
4 *6269:A0 *711:109 5.19842e-06
5 *6267:A *6269:A0 1.92789e-05
6 *237:14 *6269:A0 0.000100625
7 *237:24 *6269:A0 0.000174782
8 *239:30 *6269:A0 9.60875e-05
*RES
1 *6268:Y *6269:A0 34.9393 
*END

*D_NET *449 0.000781186
*CONN
*I *6270:A I *D sky130_fd_sc_hd__clkbuf_1
*I *6269:X O *D sky130_fd_sc_hd__mux2_1
*CAP
1 *6270:A 0.000268865
2 *6269:X 0.000268865
3 *6270:A *6513:A 0.000143375
4 *6270:A *709:10 6.31431e-05
5 *6270:A *709:17 3.69375e-05
*RES
1 *6269:X *6270:A 33.3321 
*END

*D_NET *450 0.00117483
*CONN
*I *6272:B I *D sky130_fd_sc_hd__xor2_1
*I *6271:X O *D sky130_fd_sc_hd__a31o_1
*CAP
1 *6272:B 0.000251348
2 *6271:X 0.000251348
3 *6272:B *6264:A 2.36643e-05
4 *6272:B *6273:A0 0.000143375
5 *6264:B *6272:B 0.000187465
6 *445:14 *6272:B 0.000317633
*RES
1 *6271:X *6272:B 25.3143 
*END

*D_NET *451 0.00117323
*CONN
*I *6273:A0 I *D sky130_fd_sc_hd__mux2_1
*I *6272:X O *D sky130_fd_sc_hd__xor2_1
*CAP
1 *6273:A0 0.000409658
2 *6272:X 0.000409658
3 *6273:A0 *709:38 0.000154762
4 *6272:B *6273:A0 0.000143375
5 *239:41 *6273:A0 4.57445e-05
6 *239:54 *6273:A0 1.00375e-05
*RES
1 *6272:X *6273:A0 33.7786 
*END

*D_NET *452 0.000422296
*CONN
*I *6274:A I *D sky130_fd_sc_hd__clkbuf_1
*I *6273:X O *D sky130_fd_sc_hd__mux2_1
*CAP
1 *6274:A 0.000211148
2 *6273:X 0.000211148
*RES
1 *6273:X *6274:A 22.0464 
*END

*D_NET *453 0.000977034
*CONN
*I *6276:B I *D sky130_fd_sc_hd__or4_1
*I *6275:Y O *D sky130_fd_sc_hd__inv_2
*CAP
1 *6276:B 0.00024243
2 *6275:Y 0.00024243
3 *225:262 *6276:B 3.75052e-05
4 *226:28 *6276:B 0.000195547
5 *287:24 *6276:B 0.000180764
6 *437:12 *6276:B 7.83587e-05
*RES
1 *6275:Y *6276:B 31.9214 
*END

*D_NET *454 0.00247423
*CONN
*I *6277:B I *D sky130_fd_sc_hd__xnor2_1
*I *6276:X O *D sky130_fd_sc_hd__or4_1
*CAP
1 *6277:B 0.000887218
2 *6276:X 0.000887218
3 *6277:B *6469:RESET_B 7.60306e-05
4 *6277:B *6475:RESET_B 1.05901e-05
5 *6253:B *6277:B 0.00014183
6 *6276:D *6277:B 3.97677e-05
7 *239:16 *6277:B 9.40041e-05
8 *287:24 *6277:B 0.000337575
*RES
1 *6276:X *6277:B 42.1179 
*END

*D_NET *455 0.000256682
*CONN
*I *6280:A I *D sky130_fd_sc_hd__clkbuf_1
*I *6279:X O *D sky130_fd_sc_hd__mux2_1
*CAP
1 *6280:A 6.04656e-05
2 *6279:X 6.04656e-05
3 *6280:A *5885:A 3.67142e-05
4 *6222:S *6280:A 9.90367e-05
*RES
1 *6279:X *6280:A 20.2786 
*END

*D_NET *456 0.0017593
*CONN
*I *6282:A1 I *D sky130_fd_sc_hd__mux2_1
*I *6281:Y O *D sky130_fd_sc_hd__nor2_1
*CAP
1 *6282:A1 0.000317251
2 *6281:Y 0.000317251
3 *6282:A1 *5878:B1 0.000228558
4 *6282:A1 *6282:A0 0.000129868
5 *6282:A1 *811:78 5.52302e-05
6 *5874:B *6282:A1 9.71197e-05
7 *5878:A1 *6282:A1 5.36e-05
8 *186:41 *6282:A1 0.000181796
9 *193:16 *6282:A1 0.000304387
10 *420:27 *6282:A1 6.39901e-05
11 *420:31 *6282:A1 1.02504e-05
*RES
1 *6281:Y *6282:A1 35.9571 
*END

*D_NET *457 0.000848603
*CONN
*I *6283:A I *D sky130_fd_sc_hd__clkbuf_1
*I *6282:X O *D sky130_fd_sc_hd__mux2_1
*CAP
1 *6283:A 0.000259439
2 *6282:X 0.000259439
3 *6283:A *491:12 0
4 *6283:A *812:36 9.92409e-05
5 *6478:D *6283:A 5.33334e-05
6 *192:12 *6283:A 0.00017715
7 *420:31 *6283:A 0
8 *420:85 *6283:A 0
*RES
1 *6282:X *6283:A 33.7429 
*END

*D_NET *458 0.00127952
*CONN
*I *6285:A1 I *D sky130_fd_sc_hd__mux2_1
*I *6284:Y O *D sky130_fd_sc_hd__inv_2
*CAP
1 *6285:A1 0.000288774
2 *6284:Y 0.000288774
3 *6285:A1 *5874:A 0.000267821
4 *6285:A1 *6284:A 0.000273269
5 *6285:A1 *812:10 1.02504e-05
6 *198:16 *6285:A1 0
7 *420:47 *6285:A1 0.000150632
*RES
1 *6284:Y *6285:A1 33.6536 
*END

*D_NET *459 0.000143706
*CONN
*I *6286:A I *D sky130_fd_sc_hd__clkbuf_1
*I *6285:X O *D sky130_fd_sc_hd__mux2_1
*CAP
1 *6286:A 6.04823e-05
2 *6285:X 6.04823e-05
3 *6286:A *490:6 2.27416e-05
*RES
1 *6285:X *6286:A 19.7964 
*END

*D_NET *460 0.0290396
*CONN
*I *6298:S I *D sky130_fd_sc_hd__mux2_1
*I *6292:S I *D sky130_fd_sc_hd__mux2_1
*I *6294:S I *D sky130_fd_sc_hd__mux2_1
*I *6288:S I *D sky130_fd_sc_hd__mux2_1
*I *6300:S I *D sky130_fd_sc_hd__mux2_1
*I *6290:S I *D sky130_fd_sc_hd__mux2_1
*I *6296:S I *D sky130_fd_sc_hd__mux2_1
*I *6302:S I *D sky130_fd_sc_hd__mux2_1
*I *6287:X O *D sky130_fd_sc_hd__o211a_4
*CAP
1 *6298:S 0.000201753
2 *6292:S 0
3 *6294:S 6.65829e-05
4 *6288:S 8.05426e-05
5 *6300:S 0.000206036
6 *6290:S 0.000267105
7 *6296:S 4.64027e-05
8 *6302:S 2.23854e-05
9 *6287:X 0.00177915
10 *460:80 0.00128786
11 *460:78 0.00171263
12 *460:76 0.00209666
13 *460:66 0.00266751
14 *460:43 0.00289088
15 *460:31 0.00261421
16 *460:14 0.00123628
17 *460:8 0.00197027
18 *6288:S *6480:CLK 1.74352e-05
19 *6288:S *724:143 2.89114e-05
20 *6290:S *6300:A0 3.25247e-05
21 *6290:S *6520:A 4.25523e-05
22 *6290:S *6650:A 1.18451e-05
23 *6290:S *537:12 0.000144773
24 *6290:S *625:122 0.000322446
25 *6294:S *5960:A1 0
26 *6296:S *6296:A0 1.19813e-05
27 *6298:S *5978:A3 9.17718e-05
28 *6298:S *6299:A 0
29 *6298:S *6526:A 1.06172e-05
30 *6300:S *6016:A0 0.000120969
31 *460:8 *6002:B 0
32 *460:8 *6018:A1 0
33 *460:8 *6303:A 0
34 *460:8 *6478:RESET_B 0
35 *460:8 *6641:A 0
36 *460:8 *810:79 0
37 *460:8 *811:20 5.98293e-05
38 *460:8 *811:32 3.57844e-05
39 *460:8 *811:38 0
40 *460:8 *812:36 0
41 *460:8 *812:38 0
42 *460:8 *812:46 0
43 *460:14 *6302:A0 5.23057e-05
44 *460:31 *5978:A3 7.27614e-05
45 *460:31 *6055:A0 0.000357952
46 *460:31 *6055:A1 0
47 *460:31 *6073:A0 0.00053026
48 *460:31 *6302:A0 0.000218246
49 *460:31 *6571:A 0
50 *460:31 *636:38 0.000457029
51 *460:31 *636:47 0.00012358
52 *460:43 *5969:A1 0.000385861
53 *460:43 *6014:A1 0.000394975
54 *460:43 *6296:A0 2.09607e-05
55 *460:43 *6296:A1 5.33005e-05
56 *460:43 *6297:A 3.41848e-05
57 *460:43 *6552:A 3.32662e-05
58 *460:43 *768:16 0
59 *460:43 *768:18 0
60 *460:43 *779:20 0.00101514
61 *460:43 *779:22 9.90431e-05
62 *460:66 *5951:A1 0
63 *460:66 *5969:A3 9.60815e-05
64 *460:66 *6296:A0 2.46444e-05
65 *460:66 *6356:CLK 0.000308193
66 *460:66 *6358:CLK 2.53112e-06
67 *460:66 *6627:A 7.58841e-05
68 *460:66 *746:12 0.000160933
69 *460:66 *746:14 1.76039e-05
70 *460:76 *6047:A1 0.000329101
71 *460:76 *6063:A0 0.000284106
72 *460:76 *6063:A1 0.000350687
73 *460:76 *757:154 1.02504e-05
74 *460:76 *779:12 0.000198828
75 *460:76 *779:20 0
76 *460:78 *5931:A1 5.98489e-05
77 *460:78 *6522:A 0.000388162
78 *460:78 *544:10 0.000188951
79 *460:78 *724:151 0.000381362
80 *460:78 *757:154 0.000389861
81 *460:80 *5987:A0 3.42616e-05
82 *460:80 *6004:A0 0
83 *460:80 *6520:A 3.25078e-05
84 *460:80 *6650:A 1.91512e-05
85 *460:80 *6651:A 0.00023524
86 *460:80 *544:10 3.10885e-05
87 *460:80 *550:10 4.94362e-05
88 *460:80 *724:124 0
89 *5873:A *460:8 0.000290264
90 *5978:S0 *460:31 0.000175519
91 *6014:S *460:31 0
92 *6019:A *460:8 3.5707e-05
93 *6054:A *460:80 8.00806e-05
94 *6055:S *460:31 0.000160569
95 *6056:A *460:31 6.76043e-05
96 *6063:S *460:76 0.000230482
97 *6185:D *460:8 4.19671e-05
98 *6287:A2 *460:8 0
99 *6287:B1 *460:8 0
100 *6354:D *460:78 7.8327e-05
101 *6358:D *460:66 6.53742e-05
102 *6367:D *460:31 7.43578e-06
103 *6476:D *460:8 0
104 *6483:D *460:76 0
105 *199:40 *460:8 2.56601e-05
106 *232:141 *6294:S 0.000109795
107 *232:157 *460:78 0
108 *232:157 *460:80 0
109 *232:167 *6290:S 0
110 *284:16 *6290:S 0
111 *298:37 *460:31 7.54972e-05
112 *319:105 *460:78 0
*RES
1 *6287:X *460:8 47.3179 
2 *460:8 *460:14 7.10714 
3 *460:14 *6302:S 9.72857 
4 *460:14 *460:31 29.5536 
5 *460:31 *460:43 35.6607 
6 *460:43 *6296:S 10.3357 
7 *460:43 *460:66 39.1429 
8 *460:66 *460:76 29.1607 
9 *460:76 *460:78 19.5536 
10 *460:78 *460:80 16.2143 
11 *460:80 *6290:S 20.7464 
12 *460:80 *6300:S 16.7107 
13 *460:78 *6288:S 15.6036 
14 *460:76 *6294:S 15.6036 
15 *460:66 *6292:S 9.3 
16 *460:31 *6298:S 17.8714 
*END

*D_NET *461 0.000603344
*CONN
*I *6289:A I *D sky130_fd_sc_hd__clkbuf_1
*I *6288:X O *D sky130_fd_sc_hd__mux2_1
*CAP
1 *6289:A 0.000159189
2 *6288:X 0.000159189
3 *6289:A *6004:A0 0.000101545
4 *6289:A *6480:CLK 0.00014183
5 *6289:A *544:10 0
6 *6480:D *6289:A 4.15914e-05
7 *298:77 *6289:A 0
*RES
1 *6288:X *6289:A 30.6 
*END

*D_NET *462 0.00110466
*CONN
*I *6291:A I *D sky130_fd_sc_hd__clkbuf_1
*I *6290:X O *D sky130_fd_sc_hd__mux2_1
*CAP
1 *6291:A 0.00024873
2 *6290:X 0.00024873
3 *6291:A *6006:A0 0.000311183
4 *6291:A *537:12 2.79092e-05
5 *6291:A *625:122 4.15914e-05
6 *6006:S *6291:A 0.000226513
7 *233:191 *6291:A 0
*RES
1 *6290:X *6291:A 33.725 
*END

*D_NET *463 0.000207376
*CONN
*I *6293:A I *D sky130_fd_sc_hd__clkbuf_1
*I *6292:X O *D sky130_fd_sc_hd__mux2_1
*CAP
1 *6293:A 3.97976e-05
2 *6292:X 3.97976e-05
3 *6293:A *779:20 0.00012778
*RES
1 *6292:X *6293:A 19.8679 
*END

*D_NET *464 0.000342035
*CONN
*I *6295:A I *D sky130_fd_sc_hd__clkbuf_1
*I *6294:X O *D sky130_fd_sc_hd__mux2_1
*CAP
1 *6295:A 8.07626e-05
2 *6294:X 8.07626e-05
3 *232:141 *6295:A 0.00018051
*RES
1 *6294:X *6295:A 20.6893 
*END

*D_NET *465 0.000988928
*CONN
*I *6297:A I *D sky130_fd_sc_hd__clkbuf_1
*I *6296:X O *D sky130_fd_sc_hd__mux2_1
*CAP
1 *6297:A 0.000280099
2 *6296:X 0.000280099
3 *6297:A *5969:A1 0.000267917
4 *319:59 *6297:A 0.000126629
5 *460:43 *6297:A 3.41848e-05
*RES
1 *6296:X *6297:A 34.1536 
*END

*D_NET *466 0.000966565
*CONN
*I *6299:A I *D sky130_fd_sc_hd__clkbuf_1
*I *6298:X O *D sky130_fd_sc_hd__mux2_1
*CAP
1 *6299:A 0.000324229
2 *6298:X 0.000324229
3 *6299:A *6485:CLK 0
4 *6299:A *493:60 0.000318107
5 *6298:S *6299:A 0
*RES
1 *6298:X *6299:A 34.0286 
*END

*D_NET *467 0.000747046
*CONN
*I *6301:A I *D sky130_fd_sc_hd__clkbuf_1
*I *6300:X O *D sky130_fd_sc_hd__mux2_1
*CAP
1 *6301:A 0.000226154
2 *6300:X 0.000226154
3 *6301:A *6016:A0 6.26078e-05
4 *6301:A *6650:A 4.25716e-05
5 *6301:A *550:10 1.00375e-05
6 *6301:A *724:124 0.000150618
7 *6006:S *6301:A 2.89016e-05
*RES
1 *6300:X *6301:A 31.725 
*END

*D_NET *468 0.000908872
*CONN
*I *6303:A I *D sky130_fd_sc_hd__clkbuf_1
*I *6302:X O *D sky130_fd_sc_hd__mux2_1
*CAP
1 *6303:A 0.000381129
2 *6302:X 0.000381129
3 *6303:A *6487:CLK 0
4 *6019:A *6303:A 8.94671e-05
5 *6345:D *6303:A 5.71472e-05
6 *6487:D *6303:A 0
7 *460:8 *6303:A 0
*RES
1 *6302:X *6303:A 34.1 
*END

*D_NET *469 0.00220606
*CONN
*I *6305:B1 I *D sky130_fd_sc_hd__o211a_4
*I *6304:Y O *D sky130_fd_sc_hd__nor2_1
*CAP
1 *6305:B1 0.000596755
2 *6304:Y 0.000596755
3 *6095:A *6305:B1 9.22103e-06
4 *6096:A1 *6305:B1 5.33005e-05
5 *6096:A2 *6305:B1 1.98839e-05
6 *6096:C1 *6305:B1 2.27416e-05
7 *6150:A *6305:B1 2.89016e-05
8 *6150:B *6305:B1 2.77258e-05
9 *6234:B1 *6305:B1 5.33005e-05
10 *190:70 *6305:B1 0.000241198
11 *190:94 *6305:B1 0.00012401
12 *215:109 *6305:B1 3.51442e-05
13 *215:118 *6305:B1 0.000162118
14 *215:133 *6305:B1 0.000170685
15 *351:31 *6305:B1 6.43196e-05
*RES
1 *6304:Y *6305:B1 39.3857 
*END

*D_NET *470 0.0424644
*CONN
*I *6312:S I *D sky130_fd_sc_hd__mux2_1
*I *6310:S I *D sky130_fd_sc_hd__mux2_1
*I *6314:S I *D sky130_fd_sc_hd__mux2_1
*I *6316:S I *D sky130_fd_sc_hd__mux2_1
*I *6320:S I *D sky130_fd_sc_hd__mux2_1
*I *6318:S I *D sky130_fd_sc_hd__mux2_1
*I *6308:S I *D sky130_fd_sc_hd__mux2_1
*I *6306:S I *D sky130_fd_sc_hd__mux2_1
*I *6305:X O *D sky130_fd_sc_hd__o211a_4
*CAP
1 *6312:S 0
2 *6310:S 0
3 *6314:S 2.23854e-05
4 *6316:S 2.23854e-05
5 *6320:S 0
6 *6318:S 1.11927e-05
7 *6308:S 0.000184012
8 *6306:S 0.00106129
9 *6305:X 0.000384027
10 *470:151 0.00184818
11 *470:128 0.00358627
12 *470:109 0.00253135
13 *470:100 0.00211254
14 *470:52 0.00192893
15 *470:40 0.00288883
16 *470:18 0.00303112
17 *470:12 0.00254043
18 *6306:S *5932:A0 9.91086e-05
19 *6306:S *5932:A2 8.86413e-05
20 *6306:S *5943:A1 0
21 *6306:S *6306:A1 5.52302e-05
22 *6306:S *6307:A 0.00022459
23 *6306:S *6371:CLK 0.000534478
24 *6306:S *6403:CLK 0.000246064
25 *6306:S *6527:A 3.34783e-05
26 *6306:S *6644:A 0
27 *6308:S *6099:A0 0.000165079
28 *6308:S *6308:A0 9.80173e-05
29 *6308:S *6309:A 5.33433e-05
30 *6308:S *735:133 0.000262428
31 *6318:S *482:104 0
32 *470:18 *6320:A1 5.62995e-05
33 *470:18 *6533:A 6.42242e-05
34 *470:40 *5988:A1 9.46929e-05
35 *470:40 *6164:A1 3.64365e-05
36 *470:40 *6319:A 3.09981e-05
37 *470:40 *669:14 0
38 *470:40 *735:129 2.33162e-05
39 *470:52 *5988:A1 7.67869e-06
40 *470:52 *6099:A0 0.000447622
41 *470:52 *482:93 0.000122101
42 *470:52 *482:104 0.000157168
43 *470:52 *735:133 0.000451463
44 *470:100 *5979:A2 0.000168526
45 *470:100 *6316:A0 7.32272e-05
46 *470:100 *6317:A 0
47 *470:100 *6533:A 0.000106542
48 *470:100 *492:68 0
49 *470:100 *779:43 0.000258405
50 *470:100 *779:54 8.99685e-05
51 *470:100 *779:62 0.000206999
52 *470:109 *5970:A2 0.000423396
53 *470:109 *6314:A0 2.28598e-05
54 *470:109 *6316:A0 0.000213688
55 *470:109 *6609:A 0.000186662
56 *470:128 *6314:A0 0.00021527
57 *470:128 *757:56 0.000113858
58 *470:151 *5960:A2 0.000364837
59 *470:151 *6065:A0 0.000360894
60 *470:151 *6065:A1 0.000183726
61 *470:151 *6310:A0 0.000137573
62 *470:151 *6341:CLK 0.000140933
63 *470:151 *6608:A 4.1331e-06
64 *470:151 *6613:A 9.60939e-05
65 *470:151 *539:8 1.39841e-05
66 *470:151 *757:196 0
67 *5932:S0 *6306:S 0
68 *5944:A1 *6306:S 0
69 *5950:A0 *470:40 0.00283776
70 *5950:S *470:40 0.000103646
71 *5953:A0 *470:128 0.000148196
72 *5975:S0 *470:18 0.000142327
73 *5979:S1 *470:100 0
74 *5980:A1 *470:100 2.22641e-05
75 *5981:A1 *470:100 0.00109721
76 *5988:S0 *470:40 0.00354246
77 *6065:S *470:151 0.000108613
78 *6087:S *470:100 2.6949e-05
79 *6089:S *6306:S 0.000335929
80 *6109:S *470:40 0.000532224
81 *6180:A *470:18 0
82 *6305:A2 *470:12 3.57366e-05
83 *6341:D *470:151 1.64343e-05
84 *6399:D *470:100 5.33882e-05
85 *6423:D *470:100 0.00010326
86 *6490:D *470:128 7.99677e-06
87 *16:5 *470:128 0.000146474
88 *190:70 *470:12 2.14658e-05
89 *203:75 *470:12 0.000181796
90 *203:79 *470:12 0.000279124
91 *225:160 *470:18 0.000463985
92 *231:22 *470:52 0
93 *237:86 *470:18 0
94 *237:86 *470:40 1.94945e-05
95 *237:150 *470:40 1.91512e-05
96 *279:18 *470:100 5.98293e-05
97 *298:67 *470:151 0.000485543
98 *309:14 *470:18 0
99 *309:14 *470:100 0
100 *329:81 *470:151 0.000341516
101 *339:31 *470:100 0.000110803
102 *339:81 *6306:S 0.00124963
103 *351:119 *470:52 0.000126439
104 *382:16 *470:100 0.00023837
105 *391:122 *470:18 6.85604e-05
106 *428:16 *470:12 0.000650843
*RES
1 *6305:X *470:12 24.2286 
2 *470:12 *470:18 23.0893 
3 *470:18 *470:40 28.824 
4 *470:40 *470:52 22.6071 
5 *470:52 *6306:S 47.7464 
6 *470:52 *6308:S 14.8 
7 *470:40 *6318:S 9.72857 
8 *470:18 *6320:S 9.3 
9 *470:12 *470:100 40.3393 
10 *470:100 *6316:S 9.72857 
11 *470:100 *470:109 13.6786 
12 *470:109 *6314:S 9.72857 
13 *470:109 *470:128 33.4821 
14 *470:128 *6310:S 9.3 
15 *470:128 *470:151 46.6964 
16 *470:151 *6312:S 9.3 
*END

*D_NET *471 0.00227685
*CONN
*I *6307:A I *D sky130_fd_sc_hd__clkbuf_1
*I *6306:X O *D sky130_fd_sc_hd__mux2_1
*CAP
1 *6307:A 0.000884087
2 *6306:X 0.000884087
3 *6307:A *5932:A2 7.31778e-05
4 *6307:A *6306:A0 1.29722e-05
5 *6307:A *6488:CLK 1.32552e-05
6 *6306:S *6307:A 0.00022459
7 *6488:D *6307:A 0.000184683
*RES
1 *6306:X *6307:A 31.5107 
*END

*D_NET *472 0.00049966
*CONN
*I *6309:A I *D sky130_fd_sc_hd__clkbuf_1
*I *6308:X O *D sky130_fd_sc_hd__mux2_1
*CAP
1 *6309:A 0.000142734
2 *6308:X 0.000142734
3 *6309:A *5943:A0 7.50601e-05
4 *6309:A *5943:A2 5.83304e-05
5 *6309:A *735:162 2.74584e-05
6 *6308:S *6309:A 5.33433e-05
*RES
1 *6308:X *6309:A 30.4929 
*END

*D_NET *473 0.000821256
*CONN
*I *6311:A I *D sky130_fd_sc_hd__clkbuf_1
*I *6310:X O *D sky130_fd_sc_hd__mux2_1
*CAP
1 *6311:A 0.000250152
2 *6310:X 0.000250152
3 *5952:S1 *6311:A 4.46186e-06
4 *230:98 *6311:A 0.00014285
5 *232:118 *6311:A 0
6 *233:150 *6311:A 0.00017364
*RES
1 *6310:X *6311:A 33.3321 
*END

*D_NET *474 0.000838193
*CONN
*I *6313:A I *D sky130_fd_sc_hd__clkbuf_1
*I *6312:X O *D sky130_fd_sc_hd__mux2_1
*CAP
1 *6313:A 0.000175002
2 *6312:X 0.000175002
3 *6313:A *6083:A0 3.67257e-05
4 *6313:A *757:24 0.000451463
*RES
1 *6312:X *6313:A 23.5643 
*END

*D_NET *475 0.000321557
*CONN
*I *6315:A I *D sky130_fd_sc_hd__clkbuf_1
*I *6314:X O *D sky130_fd_sc_hd__mux2_1
*CAP
1 *6315:A 9.48666e-05
2 *6314:X 9.48666e-05
3 *6315:A *5970:A2 2.27416e-05
4 *6315:A *768:26 6.74911e-05
5 *6492:D *6315:A 4.15914e-05
*RES
1 *6314:X *6315:A 29.7786 
*END

*D_NET *476 0.00109295
*CONN
*I *6317:A I *D sky130_fd_sc_hd__clkbuf_1
*I *6316:X O *D sky130_fd_sc_hd__mux2_1
*CAP
1 *6317:A 0.000197262
2 *6316:X 0.000197262
3 *6317:A *5979:A2 0.000183726
4 *6317:A *6107:A1 0.000181796
5 *6317:A *779:54 1.52978e-05
6 *5979:S1 *6317:A 0.000317602
7 *470:100 *6317:A 0
*RES
1 *6316:X *6317:A 33.4393 
*END

*D_NET *477 0.00115538
*CONN
*I *6319:A I *D sky130_fd_sc_hd__clkbuf_1
*I *6318:X O *D sky130_fd_sc_hd__mux2_1
*CAP
1 *6319:A 0.000428984
2 *6318:X 0.000428984
3 *6319:A *5988:A0 8.03113e-05
4 *5988:S1 *6319:A 0.000146513
5 *230:140 *6319:A 3.03395e-05
6 *237:150 *6319:A 9.25014e-06
7 *470:40 *6319:A 3.09981e-05
*RES
1 *6318:X *6319:A 33.9036 
*END

*D_NET *478 0.00136625
*CONN
*I *6321:A I *D sky130_fd_sc_hd__clkbuf_1
*I *6320:X O *D sky130_fd_sc_hd__mux2_1
*CAP
1 *6321:A 0.000469465
2 *6320:X 0.000469465
3 *6321:A *6320:A1 0.000113348
4 *6321:A *658:30 0.00031397
5 *309:14 *6321:A 0
*RES
1 *6320:X *6321:A 35.4929 
*END

*D_NET *479 0.0457667
*CONN
*I *6500:A I *D sky130_fd_sc_hd__clkbuf_8
*I *6501:A I *D sky130_fd_sc_hd__clkbuf_8
*I *6503:A I *D sky130_fd_sc_hd__clkbuf_8
*I *6502:A I *D sky130_fd_sc_hd__clkbuf_8
*I *6510:A I *D sky130_fd_sc_hd__clkbuf_8
*I *6509:A I *D sky130_fd_sc_hd__clkbuf_8
*I *6512:A I *D sky130_fd_sc_hd__clkbuf_8
*I *6511:A I *D sky130_fd_sc_hd__clkbuf_8
*I *6499:A I *D sky130_fd_sc_hd__clkbuf_8
*I *6498:A I *D sky130_fd_sc_hd__clkbuf_8
*I *6506:A I *D sky130_fd_sc_hd__clkbuf_8
*I *6505:A I *D sky130_fd_sc_hd__clkbuf_8
*I *6504:A I *D sky130_fd_sc_hd__clkbuf_8
*I *6508:A I *D sky130_fd_sc_hd__clkbuf_8
*I *6507:A I *D sky130_fd_sc_hd__clkbuf_8
*I *6497:A I *D sky130_fd_sc_hd__clkbuf_8
*I *6496:X O *D sky130_fd_sc_hd__clkbuf_16
*CAP
1 *6500:A 0
2 *6501:A 0.000123118
3 *6503:A 0
4 *6502:A 4.47022e-05
5 *6510:A 0
6 *6509:A 0.000166785
7 *6512:A 0.000362275
8 *6511:A 0
9 *6499:A 0.000485957
10 *6498:A 0
11 *6506:A 2.91597e-05
12 *6505:A 0.000436258
13 *6504:A 0
14 *6508:A 5.49779e-05
15 *6507:A 9.01246e-05
16 *6497:A 0.000139072
17 *6496:X 0.000127155
18 *479:238 0.00172285
19 *479:228 0.00221083
20 *479:218 0.00115991
21 *479:188 0.00157029
22 *479:178 0.00418218
23 *479:132 0.00211267
24 *479:116 0.00207107
25 *479:110 0.00080663
26 *479:86 0.000478696
27 *479:61 0.00171563
28 *479:51 0.00184091
29 *479:30 0.00198506
30 *479:26 0.00345608
31 *479:20 0.00344624
32 *479:16 0.00373452
33 *6497:A *680:10 0.000215073
34 *6499:A *6386:CLK 3.98559e-05
35 *6499:A *6547:A 0.0002764
36 *6499:A *482:18 0.000318302
37 *6501:A *483:53 2.39923e-05
38 *6501:A *484:6 5.52238e-05
39 *6501:A *746:31 2.31791e-05
40 *6501:A *746:37 0.000177234
41 *6501:A *757:56 0.000133533
42 *6505:A *5997:S1 0
43 *6505:A *636:84 0
44 *6505:A *636:90 0
45 *6505:A *658:30 0.000178037
46 *6507:A *490:6 0.000357952
47 *6509:A *492:8 0
48 *6509:A *509:12 5.66157e-05
49 *6512:A *6128:A0 8.00806e-05
50 *6512:A *495:8 6.05161e-06
51 *479:51 *6209:A0 6.05161e-06
52 *479:51 *487:10 5.71472e-05
53 *479:51 *680:10 8.18594e-05
54 *479:51 *709:185 4.58194e-05
55 *479:61 *5888:A 0
56 *479:61 *6449:D 0.000136154
57 *479:61 *6449:RESET_B 0.000217785
58 *479:61 *487:40 0
59 *479:61 *487:53 0
60 *479:61 *487:65 0.00012401
61 *479:61 *712:39 0.000416179
62 *479:61 *810:18 0
63 *479:86 *658:30 4.65158e-06
64 *479:116 *502:12 0.000128154
65 *479:132 *6023:A0 0.000177821
66 *479:132 *6386:CLK 6.05161e-06
67 *479:178 *6413:CLK 0.000139482
68 *479:188 *493:10 0.000353079
69 *479:188 *509:12 2.59355e-05
70 *479:218 *6380:CLK 0
71 *479:218 *757:56 0
72 *479:228 *483:8 0.000218305
73 *479:228 *483:53 5.33005e-05
74 *479:228 *757:56 2.66706e-05
75 *479:238 *483:53 7.71236e-05
76 *479:238 *757:56 5.1369e-05
77 *5889:B1 *479:61 0
78 *5889:D1 *479:61 0
79 *5890:A *479:61 5.33882e-05
80 *5928:A0 *6499:A 0
81 *5928:A1 *6499:A 6.05161e-06
82 *5928:S *6499:A 2.89016e-05
83 *5941:S *6499:A 6.91215e-06
84 *5972:A1 *6512:A 5.86388e-05
85 *5972:A1 *479:116 0.000152732
86 *5973:A0 *479:132 0
87 *5975:S1 *479:16 1.58163e-05
88 *5990:A0 *479:116 0.000131874
89 *5990:A1 *479:116 0.000533203
90 *5995:A1 *6505:A 8.392e-05
91 *5998:S *479:51 0.000615956
92 *6025:S *479:132 1.94879e-05
93 *6082:A *479:218 0.00011365
94 *6088:A *479:188 0.000534229
95 *6129:A *6512:A 4.85049e-06
96 *6135:A *6512:A 8.53294e-05
97 *6168:B1 *479:61 0
98 *6168:C1 *479:61 0.000174812
99 *6168:D1 *479:61 0.000387446
100 *6188:A *6512:A 9.71197e-05
101 *6227:A1 *479:61 0
102 *6228:B1_N *479:61 0
103 *6392:D *6512:A 1.30327e-05
104 *6392:D *479:116 5.34206e-05
105 *6436:D *479:61 0
106 *183:8 *479:61 0
107 *186:10 *479:61 0.000121573
108 *186:12 *479:61 0.000188967
109 *189:10 *479:61 0
110 *192:12 *479:61 0.000475583
111 *199:10 *479:61 0.00014209
112 *200:10 *479:61 0
113 *230:16 *479:30 0
114 *230:157 *6499:A 1.69115e-05
115 *232:21 *6506:A 1.92905e-05
116 *232:157 *6502:A 6.65302e-05
117 *232:157 *479:238 0.000106565
118 *232:278 *479:188 0.000405068
119 *237:80 *6505:A 6.33995e-05
120 *270:12 *479:16 7.69776e-06
121 *270:12 *479:178 0.000150893
122 *286:16 *479:132 0.000147828
123 *287:22 *6505:A 2.73162e-05
124 *287:22 *479:30 0
125 *287:24 *6497:A 9.80173e-05
126 *319:109 *6502:A 0.000127439
127 *319:109 *479:238 0.000212517
128 *339:50 *6501:A 0
129 *351:31 *6509:A 8.81343e-05
130 *351:52 *479:188 0
131 *372:24 *479:16 2.04825e-05
132 *372:36 *479:116 0
133 *382:68 *479:238 0
134 *391:22 *479:61 0.000189441
135 *391:30 *479:61 0.000414762
136 *411:30 *6497:A 0.000102958
137 *411:30 *479:51 7.95714e-05
138 *420:39 *6507:A 0.000412188
139 *420:39 *6508:A 6.90625e-05
*RES
1 *6496:X *479:16 21.5155 
2 *479:16 *479:20 7.07913 
3 *479:20 *479:26 4.1548 
4 *479:26 *479:30 6.98827 
5 *479:30 *6497:A 18.4161 
6 *479:30 *479:51 12.4732 
7 *479:51 *479:61 48.3393 
8 *479:61 *6507:A 13.55 
9 *479:61 *6508:A 10.2464 
10 *479:51 *6504:A 9.3 
11 *479:26 *479:86 3.68679 
12 *479:86 *6505:A 22.4786 
13 *479:86 *6506:A 14.3357 
14 *479:20 *479:110 3.41 
15 *479:110 *479:116 14.3839 
16 *479:116 *479:132 23.103 
17 *479:132 *6498:A 9.3 
18 *479:132 *6499:A 28.7107 
19 *479:116 *6511:A 9.3 
20 *479:110 *6512:A 20.7732 
21 *479:16 *479:178 8.35753 
22 *479:178 *479:188 17.3878 
23 *479:188 *6509:A 22.1036 
24 *479:188 *6510:A 9.3 
25 *479:178 *479:218 12.1241 
26 *479:218 *479:228 10.3839 
27 *479:228 *479:238 15.0501 
28 *479:238 *6502:A 15.4429 
29 *479:238 *6503:A 13.8 
30 *479:228 *6501:A 17.9518 
31 *479:218 *6500:A 9.3 
*END

*D_NET *480 0.00768728
*CONN
*I *6441:CLK I *D sky130_fd_sc_hd__dfxtp_1
*I *6324:CLK I *D sky130_fd_sc_hd__dfxtp_1
*I *6425:CLK I *D sky130_fd_sc_hd__dfxtp_1
*I *6401:CLK I *D sky130_fd_sc_hd__dfxtp_1
*I *6417:CLK I *D sky130_fd_sc_hd__dfxtp_1
*I *6433:CLK I *D sky130_fd_sc_hd__dfxtp_1
*I *6329:CLK I *D sky130_fd_sc_hd__dfxtp_1
*I *6497:X O *D sky130_fd_sc_hd__clkbuf_8
*CAP
1 *6441:CLK 1.51975e-05
2 *6324:CLK 0.000275782
3 *6425:CLK 0.000167078
4 *6401:CLK 1.97534e-05
5 *6417:CLK 0.000130578
6 *6433:CLK 2.08056e-05
7 *6329:CLK 0.000275128
8 *6497:X 0
9 *480:79 0.000579842
10 *480:37 0.000580867
11 *480:16 0.00122034
12 *480:14 0.000736549
13 *480:8 0.000589932
14 *480:6 0.000510653
15 *6324:CLK *6529:A 0.000120645
16 *6324:CLK *680:10 0
17 *6324:CLK *746:117 9.98446e-05
18 *6329:CLK *5993:A1 0
19 *6329:CLK *6581:A 6.35892e-05
20 *6441:CLK *746:117 1.92905e-05
21 *480:8 *680:10 0
22 *480:8 *791:14 0
23 *480:16 *5920:A1 0
24 *480:16 *6528:A 9.59415e-05
25 *480:37 *5993:A0 3.99614e-06
26 *480:37 *5993:A2 0.000140933
27 *480:37 *599:6 0.000139907
28 *480:79 *6529:A 0
29 *480:79 *680:10 0
30 *5911:A *6324:CLK 4.1331e-06
31 *5911:A *480:79 6.19181e-05
32 *5921:A *6329:CLK 0
33 *5921:A *480:16 0
34 *5948:S0 *6324:CLK 0
35 *5948:S0 *480:8 5.80706e-06
36 *5948:S0 *480:79 0.000292661
37 *6184:A *480:37 0.000279035
38 *6202:A *6425:CLK 7.15846e-05
39 *6209:S *6324:CLK 3.99614e-06
40 *6213:S *6329:CLK 6.52304e-05
41 *6220:A *6417:CLK 5.80706e-06
42 *6324:D *6324:CLK 0.000316887
43 *6329:D *6329:CLK 0.000146853
44 *6401:D *480:8 0.000107515
45 *6401:D *480:14 7.73184e-05
46 *6417:D *480:16 0
47 *6433:D *6433:CLK 5.52238e-05
48 *6433:D *480:37 8.42801e-05
49 *216:29 *480:16 0
50 *225:237 *6401:CLK 1.39726e-05
51 *226:14 *480:14 0
52 *237:66 *6401:CLK 5.33005e-05
53 *239:160 *6401:CLK 6.05161e-06
54 *239:160 *480:14 2.74862e-05
55 *239:160 *480:16 5.66157e-05
56 *391:47 *480:16 0
57 *411:20 *6324:CLK 0.000122091
58 *411:20 *6441:CLK 2.28598e-05
59 *411:30 *6417:CLK 0
*RES
1 *6497:X *480:6 13.8 
2 *480:6 *480:8 4.375 
3 *480:8 *480:14 3.82143 
4 *480:14 *480:16 9.83929 
5 *480:16 *6329:CLK 19.2464 
6 *480:16 *480:37 13.8214 
7 *480:37 *6433:CLK 9.83571 
8 *480:37 *6417:CLK 20.55 
9 *480:14 *6401:CLK 14.3357 
10 *480:8 *6425:CLK 16.3 
11 *480:6 *480:79 11.6071 
12 *480:79 *6324:CLK 25.5857 
13 *480:79 *6441:CLK 9.83571 
*END

*D_NET *481 0.00858149
*CONN
*I *6387:CLK I *D sky130_fd_sc_hd__dfxtp_1
*I *6347:CLK I *D sky130_fd_sc_hd__dfxtp_1
*I *6439:CLK I *D sky130_fd_sc_hd__dfxtp_1
*I *6440:CLK I *D sky130_fd_sc_hd__dfxtp_1
*I *6323:CLK I *D sky130_fd_sc_hd__dfxtp_1
*I *6322:CLK I *D sky130_fd_sc_hd__dfxtp_1
*I *6386:CLK I *D sky130_fd_sc_hd__dfxtp_1
*I *6498:X O *D sky130_fd_sc_hd__clkbuf_8
*CAP
1 *6387:CLK 0
2 *6347:CLK 0
3 *6439:CLK 3.33806e-05
4 *6440:CLK 0
5 *6323:CLK 0.000331044
6 *6322:CLK 0
7 *6386:CLK 0.000129535
8 *6498:X 4.2433e-05
9 *481:56 0.000706604
10 *481:52 0.000799041
11 *481:41 0.000633291
12 *481:35 0.000582033
13 *481:29 0.000715754
14 *481:6 0.00054888
15 *6323:CLK *5908:A0 9.90431e-05
16 *6323:CLK *5939:A2 0.000232264
17 *6323:CLK *585:12 0.000183713
18 *6323:CLK *735:92 2.44318e-05
19 *6386:CLK *6547:A 0.000130284
20 *6439:CLK *5906:A0 5.41609e-05
21 *6439:CLK *5906:A1 7.77751e-05
22 *481:6 *6547:A 0.000225609
23 *481:35 *5940:A1 0.000246471
24 *481:35 *5940:A2 0.000113306
25 *481:35 *553:6 1.58163e-05
26 *481:41 *5940:A1 0
27 *481:41 *6136:A0 0
28 *481:52 *584:12 0
29 *481:52 *658:20 6.62983e-05
30 *481:56 *5939:A2 0
31 *5906:S *481:56 0
32 *5928:A0 *6386:CLK 0.000173083
33 *5928:A0 *481:29 0
34 *5928:A0 *481:52 0
35 *5939:S1 *481:56 0.000201044
36 *5941:A0 *481:29 0.000189675
37 *5941:S *6386:CLK 0
38 *5941:S *481:29 0
39 *5955:A0 *6386:CLK 5.33005e-05
40 *6116:S *481:29 6.44542e-05
41 *6236:A *481:52 0
42 *6236:A *481:56 0
43 *6238:A *481:56 2.00751e-05
44 *6322:D *481:52 0.000127067
45 *6323:D *6323:CLK 0.000147136
46 *6347:D *481:35 0.00012515
47 *6386:D *6386:CLK 4.27438e-05
48 *6387:D *481:35 7.61932e-05
49 *6440:D *481:56 0.000344925
50 *6499:A *6386:CLK 3.98559e-05
51 *216:79 *6323:CLK 0.00010096
52 *225:136 *481:41 0.000197467
53 *226:133 *481:52 0.000106533
54 *226:135 *481:52 9.97648e-05
55 *226:135 *481:56 9.90477e-05
56 *255:14 *6386:CLK 1.97695e-05
57 *286:16 *6386:CLK 0.00014285
58 *286:16 *481:6 0.000213172
59 *479:132 *6386:CLK 6.05161e-06
*RES
1 *6498:X *481:6 11.4786 
2 *481:6 *6386:CLK 22.8714 
3 *481:6 *481:29 16.1071 
4 *481:29 *481:35 8.48214 
5 *481:35 *481:41 13.9821 
6 *481:41 *6322:CLK 9.3 
7 *481:41 *481:52 12.8929 
8 *481:52 *481:56 14.3393 
9 *481:56 *6323:CLK 26.675 
10 *481:56 *6440:CLK 9.3 
11 *481:52 *6439:CLK 15.1571 
12 *481:35 *6347:CLK 9.3 
13 *481:29 *6387:CLK 9.3 
*END

*D_NET *482 0.0156555
*CONN
*I *6408:CLK I *D sky130_fd_sc_hd__dfxtp_1
*I *6489:CLK I *D sky130_fd_sc_hd__dfxtp_1
*I *6371:CLK I *D sky130_fd_sc_hd__dfxtp_1
*I *6403:CLK I *D sky130_fd_sc_hd__dfxtp_1
*I *6379:CLK I *D sky130_fd_sc_hd__dfxtp_1
*I *6494:CLK I *D sky130_fd_sc_hd__dfxtp_1
*I *6481:CLK I *D sky130_fd_sc_hd__dfxtp_1
*I *6376:CLK I *D sky130_fd_sc_hd__dfxtp_1
*I *6384:CLK I *D sky130_fd_sc_hd__dfxtp_1
*I *6346:CLK I *D sky130_fd_sc_hd__dfxtp_1
*I *6499:X O *D sky130_fd_sc_hd__clkbuf_8
*CAP
1 *6408:CLK 0.000100615
2 *6489:CLK 0.000121801
3 *6371:CLK 0.000324287
4 *6403:CLK 0.00043015
5 *6379:CLK 0
6 *6494:CLK 0
7 *6481:CLK 0.000545066
8 *6376:CLK 0.000168057
9 *6384:CLK 0.000121453
10 *6346:CLK 0.000367081
11 *6499:X 0
12 *482:106 0.000754437
13 *482:104 0.000537728
14 *482:93 0.000801477
15 *482:76 0.000750942
16 *482:42 0.00101057
17 *482:29 0.000628963
18 *482:18 0.00112514
19 *482:8 0.00100992
20 *482:4 0.000197152
21 *6346:CLK *552:10 0.00028172
22 *6371:CLK *5943:A0 4.38243e-05
23 *6371:CLK *5943:A3 0
24 *6371:CLK *513:10 0
25 *6403:CLK *5943:A0 0
26 *6403:CLK *6099:A0 4.15914e-05
27 *6481:CLK *6089:A0 5.52302e-05
28 *6481:CLK *6290:A0 0.000125724
29 *6481:CLK *518:12 0.000268396
30 *6481:CLK *735:192 0.000387083
31 *6489:CLK *5943:A1 0.000356035
32 *6489:CLK *5943:A2 0.000106141
33 *482:42 *724:120 0
34 *482:76 *735:117 0.000320024
35 *482:93 *5988:A0 1.07987e-05
36 *482:93 *5988:A1 2.89114e-05
37 *482:93 *6164:A1 7.58075e-05
38 *482:93 *622:12 9.31893e-05
39 *482:104 *5943:A1 0.000116029
40 *482:104 *5943:A2 9.76491e-05
41 *482:104 *5988:A1 0
42 *482:104 *505:6 5.62995e-05
43 *482:104 *622:12 3.52867e-05
44 *5945:A0 *482:93 0
45 *5950:S *6384:CLK 0.00012389
46 *5950:S *482:29 6.85604e-05
47 *5950:S *482:42 2.81787e-05
48 *5988:S1 *482:93 0.000167816
49 *5989:A1 *482:76 9.22103e-06
50 *5989:A1 *482:93 0.000410974
51 *6007:A *6481:CLK 4.01768e-05
52 *6090:A *6376:CLK 5.03772e-05
53 *6090:A *6481:CLK 0.000213776
54 *6090:A *482:42 6.42242e-05
55 *6164:S *6403:CLK 0.00010096
56 *6306:S *6371:CLK 0.000534478
57 *6306:S *6403:CLK 0.000246064
58 *6318:S *482:104 0
59 *6346:D *6346:CLK 0.00012908
60 *6371:D *6371:CLK 0
61 *6376:D *6376:CLK 1.64343e-05
62 *6376:D *482:42 0
63 *6379:D *482:104 1.76204e-05
64 *6384:D *6384:CLK 5.95099e-05
65 *6384:D *482:29 3.5707e-05
66 *6403:D *6403:CLK 0.000154762
67 *6408:D *6408:CLK 1.04232e-05
68 *6408:D *482:8 0
69 *6408:D *482:76 0
70 *6481:D *6481:CLK 0.000228869
71 *6489:D *6489:CLK 5.6473e-05
72 *6494:D *482:93 0.000378385
73 *6499:A *482:18 0.000318302
74 *230:140 *482:76 5.71472e-05
75 *230:155 *482:76 0.000124969
76 *230:155 *482:93 1.40034e-05
77 *230:157 *482:18 4.71257e-05
78 *230:157 *482:29 7.26935e-05
79 *231:14 *6346:CLK 8.55687e-05
80 *231:14 *482:18 0
81 *231:14 *482:29 0
82 *284:16 *6481:CLK 1.5856e-05
83 *470:52 *482:93 0.000122101
84 *470:52 *482:104 0.000157168
*RES
1 *6499:X *482:4 9.3 
2 *482:4 *482:8 1.375 
3 *482:8 *482:18 12.2679 
4 *482:18 *6346:CLK 22.1393 
5 *482:18 *482:29 4.98214 
6 *482:29 *6384:CLK 16.8 
7 *482:29 *482:42 9.48214 
8 *482:42 *6376:CLK 12.3 
9 *482:42 *6481:CLK 32.5679 
10 *482:8 *482:76 16.9286 
11 *482:76 *6494:CLK 9.3 
12 *482:76 *482:93 20.1071 
13 *482:93 *6379:CLK 9.3 
14 *482:93 *482:104 9.30357 
15 *482:104 *482:106 4.5 
16 *482:106 *6403:CLK 23.1929 
17 *482:106 *6371:CLK 20.9071 
18 *482:104 *6489:CLK 13.5679 
19 *482:4 *6408:CLK 11.0857 
*END

*D_NET *483 0.0110008
*CONN
*I *6338:CLK I *D sky130_fd_sc_hd__dfxtp_1
*I *6349:CLK I *D sky130_fd_sc_hd__dfxtp_1
*I *6397:CLK I *D sky130_fd_sc_hd__dfxtp_1
*I *6391:CLK I *D sky130_fd_sc_hd__dfxtp_1
*I *6413:CLK I *D sky130_fd_sc_hd__dfxtp_1
*I *6380:CLK I *D sky130_fd_sc_hd__dfxtp_1
*I *6421:CLK I *D sky130_fd_sc_hd__dfxtp_1
*I *6374:CLK I *D sky130_fd_sc_hd__dfxtp_1
*I *6500:X O *D sky130_fd_sc_hd__clkbuf_8
*CAP
1 *6338:CLK 0.000355799
2 *6349:CLK 0
3 *6397:CLK 0
4 *6391:CLK 0.000247902
5 *6413:CLK 0.000330528
6 *6380:CLK 0.000155575
7 *6421:CLK 0.000214766
8 *6374:CLK 0.000430388
9 *6500:X 0
10 *483:69 0.000686811
11 *483:65 0.000496342
12 *483:63 0.000926826
13 *483:53 0.00121311
14 *483:12 0.000839809
15 *483:8 0.000534947
16 *483:4 0.000503161
17 *6338:CLK *6029:A0 0.000381775
18 *6374:CLK *5970:A3 5.04589e-05
19 *6374:CLK *6600:A 3.4796e-05
20 *6391:CLK *501:14 0.000442802
21 *6421:CLK *6085:A0 0
22 *483:8 *746:45 0
23 *483:53 *746:37 2.89016e-05
24 *483:53 *746:45 0
25 *483:53 *757:56 0
26 *483:63 *5958:A0 6.54117e-05
27 *483:63 *5958:A2 0.00012401
28 *483:63 *6193:A0 0
29 *483:63 *563:10 0.000262116
30 *483:63 *746:45 0
31 *483:65 *563:10 2.89114e-05
32 *5912:S *6413:CLK 1.77179e-05
33 *5958:S0 *483:63 2.60633e-05
34 *6029:S *483:63 0
35 *6082:A *6380:CLK 0
36 *6349:D *483:63 1.64343e-05
37 *6374:D *6374:CLK 0.00013001
38 *6391:D *6391:CLK 8.95186e-05
39 *6397:D *483:65 0.000103323
40 *6397:D *483:69 0
41 *6413:D *6413:CLK 2.89114e-05
42 *6501:A *483:53 2.39923e-05
43 *270:12 *6413:CLK 0.000588304
44 *270:12 *6421:CLK 0.000342495
45 *270:12 *483:69 0.000164547
46 *339:50 *483:53 5.35516e-05
47 *382:53 *6374:CLK 1.50961e-05
48 *382:53 *483:8 0.000324001
49 *382:53 *483:12 0.000176196
50 *382:53 *483:53 5.73015e-05
51 *479:178 *6413:CLK 0.000139482
52 *479:218 *6380:CLK 0
53 *479:228 *483:8 0.000218305
54 *479:228 *483:53 5.33005e-05
55 *479:238 *483:53 7.71236e-05
*RES
1 *6500:X *483:4 9.3 
2 *483:4 *483:8 6.30357 
3 *483:8 *483:12 4.66071 
4 *483:12 *6374:CLK 17.3714 
5 *483:12 *6421:CLK 23.2107 
6 *483:8 *6380:CLK 20.8536 
7 *483:4 *483:53 11.0536 
8 *483:53 *483:63 15.5 
9 *483:63 *483:65 6.69643 
10 *483:65 *483:69 6.75 
11 *483:69 *6413:CLK 22.1571 
12 *483:69 *6391:CLK 19.7107 
13 *483:65 *6397:CLK 9.3 
14 *483:63 *6349:CLK 9.3 
15 *483:53 *6338:CLK 21.3179 
*END

*D_NET *484 0.0162052
*CONN
*I *6356:CLK I *D sky130_fd_sc_hd__dfxtp_1
*I *6482:CLK I *D sky130_fd_sc_hd__dfxtp_1
*I *6364:CLK I *D sky130_fd_sc_hd__dfxtp_1
*I *6490:CLK I *D sky130_fd_sc_hd__dfxtp_1
*I *6340:CLK I *D sky130_fd_sc_hd__dfxtp_1
*I *6366:CLK I *D sky130_fd_sc_hd__dfxtp_1
*I *6358:CLK I *D sky130_fd_sc_hd__dfxtp_1
*I *6492:CLK I *D sky130_fd_sc_hd__dfxtp_1
*I *6372:CLK I *D sky130_fd_sc_hd__dfxtp_1
*I *6406:CLK I *D sky130_fd_sc_hd__dfxtp_1
*I *6501:X O *D sky130_fd_sc_hd__clkbuf_8
*CAP
1 *6356:CLK 0.000432924
2 *6482:CLK 0
3 *6364:CLK 0.000212484
4 *6490:CLK 0.000274759
5 *6340:CLK 0
6 *6366:CLK 0
7 *6358:CLK 0.0006386
8 *6492:CLK 0.000494557
9 *6372:CLK 0
10 *6406:CLK 0.000619034
11 *6501:X 0.000460509
12 *484:118 0.000805085
13 *484:96 0.000913017
14 *484:48 0.00118668
15 *484:44 0.000434174
16 *484:36 0.000806421
17 *484:34 0.00131987
18 *484:19 0.00103025
19 *484:6 0.00116208
20 *6356:CLK *6045:A1 0.000147783
21 *6358:CLK *5969:A3 2.56723e-05
22 *6358:CLK *548:8 0.000125005
23 *6358:CLK *768:16 0.0001212
24 *6358:CLK *768:18 0.000531936
25 *6358:CLK *768:20 4.73656e-05
26 *6364:CLK *5951:A1 0.000196269
27 *6364:CLK *6008:A0 6.11467e-05
28 *6364:CLK *6605:A 0
29 *6364:CLK *746:14 0
30 *6406:CLK *612:10 0.000144773
31 *6490:CLK *5951:A1 5.41794e-05
32 *6490:CLK *6008:A0 0.000108538
33 *6490:CLK *746:20 0
34 *6492:CLK *5970:A1 2.29377e-05
35 *6492:CLK *6105:A0 0
36 *6492:CLK *508:14 3.90484e-05
37 *6492:CLK *768:20 0.000197984
38 *6492:CLK *768:26 0.000151333
39 *484:6 *6156:A1 0.000151071
40 *484:6 *506:10 5.52238e-05
41 *484:19 *506:10 0
42 *484:19 *757:56 0
43 *484:34 *6576:A 0
44 *484:34 *506:10 0
45 *484:34 *746:14 0
46 *484:34 *746:16 0
47 *484:34 *746:20 0
48 *484:44 *6012:A1 3.99614e-06
49 *484:44 *524:8 0.000216664
50 *484:96 *5951:A0 9.71197e-05
51 *484:96 *5951:A1 4.02852e-05
52 *484:96 *5951:A2 0.000153417
53 *484:96 *6605:A 5.71472e-05
54 *5969:S0 *6358:CLK 0.000200413
55 *5969:S0 *6492:CLK 0.00052537
56 *5971:A0 *484:34 0
57 *5971:A0 *484:118 0
58 *6009:A *484:34 7.4826e-05
59 *6009:A *484:118 0
60 *6050:A *6356:CLK 0
61 *6064:A *6364:CLK 5.33005e-05
62 *6082:A *484:19 0.000150632
63 *6161:A *6406:CLK 0.00017931
64 *6340:D *484:34 1.02504e-05
65 *6340:D *484:96 2.13202e-05
66 *6340:D *484:118 4.29272e-05
67 *6364:D *6364:CLK 6.87476e-05
68 *6366:D *484:44 1.64343e-05
69 *6380:D *6406:CLK 1.64343e-05
70 *6380:D *484:34 7.80929e-05
71 *6406:D *6406:CLK 0.000125941
72 *6482:D *484:118 3.79467e-05
73 *6490:D *6490:CLK 1.41706e-05
74 *6492:D *6492:CLK 1.23272e-05
75 *6501:A *484:6 5.52238e-05
76 *230:91 *484:34 0
77 *232:118 *6490:CLK 0
78 *233:139 *6364:CLK 0.000183324
79 *298:52 *484:44 0.000265155
80 *298:52 *484:48 3.14163e-05
81 *298:52 *484:96 0.000190356
82 *460:66 *6356:CLK 0.000308193
83 *460:66 *6358:CLK 2.53112e-06
*RES
1 *6501:X *484:6 17.2286 
2 *484:6 *6406:CLK 20.1214 
3 *484:6 *484:19 6.44643 
4 *484:19 *6372:CLK 13.8 
5 *484:19 *484:34 15 
6 *484:34 *484:36 4.5 
7 *484:36 *484:44 8.91071 
8 *484:44 *484:48 5.44643 
9 *484:48 *6492:CLK 24.3357 
10 *484:48 *6358:CLK 26.8714 
11 *484:44 *6366:CLK 9.3 
12 *484:36 *6340:CLK 9.3 
13 *484:36 *484:96 13.9464 
14 *484:96 *6490:CLK 19.0857 
15 *484:96 *6364:CLK 19.7643 
16 *484:34 *484:118 7.10714 
17 *484:118 *6482:CLK 13.8 
18 *484:118 *6356:CLK 23.4607 
*END

*D_NET *485 0.0158725
*CONN
*I *6368:CLK I *D sky130_fd_sc_hd__dfxtp_1
*I *6402:CLK I *D sky130_fd_sc_hd__dfxtp_1
*I *6488:CLK I *D sky130_fd_sc_hd__dfxtp_1
*I *6378:CLK I *D sky130_fd_sc_hd__dfxtp_1
*I *6363:CLK I *D sky130_fd_sc_hd__dfxtp_1
*I *6355:CLK I *D sky130_fd_sc_hd__dfxtp_1
*I *6360:CLK I *D sky130_fd_sc_hd__dfxtp_1
*I *6486:CLK I *D sky130_fd_sc_hd__dfxtp_1
*I *6389:CLK I *D sky130_fd_sc_hd__dfxtp_1
*I *6344:CLK I *D sky130_fd_sc_hd__dfxtp_1
*I *6442:CLK I *D sky130_fd_sc_hd__dfxtp_1
*I *6339:CLK I *D sky130_fd_sc_hd__dfxtp_1
*I *6502:X O *D sky130_fd_sc_hd__clkbuf_8
*CAP
1 *6368:CLK 2.3401e-05
2 *6402:CLK 0.000640618
3 *6488:CLK 0.000640915
4 *6378:CLK 0
5 *6363:CLK 0.000151897
6 *6355:CLK 0.000153298
7 *6360:CLK 0
8 *6486:CLK 0
9 *6389:CLK 0.000395237
10 *6344:CLK 4.26984e-05
11 *6442:CLK 0.000180234
12 *6339:CLK 0.000159295
13 *6502:X 0.000264364
14 *485:118 0.000831575
15 *485:90 0.000535677
16 *485:88 0.000421142
17 *485:86 0.000913079
18 *485:30 0.000645527
19 *485:28 0.000417552
20 *485:26 0.000651275
21 *485:20 0.000540137
22 *485:16 0.000511846
23 *485:14 0.000549332
24 *485:10 0.000405745
25 *6339:CLK *6241:A0 0.000152921
26 *6355:CLK *5942:A2 5.71472e-05
27 *6363:CLK *5942:A0 0.000317226
28 *6368:CLK *5987:A0 5.33433e-05
29 *6389:CLK *6560:A 5.30637e-06
30 *6389:CLK *499:12 0.000110029
31 *6402:CLK *6097:A0 0.000291793
32 *6402:CLK *6152:A1 1.7859e-05
33 *6402:CLK *6527:A 0.00010096
34 *6402:CLK *724:188 1.21289e-05
35 *6442:CLK *6561:A 5.30637e-06
36 *6488:CLK *5932:A2 0.000412993
37 *6488:CLK *6306:A0 0.000273269
38 *485:10 *6053:A0 7.83659e-05
39 *485:14 *6053:A1 0.000103275
40 *485:14 *534:16 1.76135e-05
41 *485:20 *550:10 2.89114e-05
42 *485:30 *6241:A0 0.000153054
43 *485:30 *579:14 1.46624e-05
44 *485:86 *534:16 0.000180777
45 *485:118 *526:6 9.76689e-05
46 *5959:A0 *485:30 2.30116e-06
47 *6017:A *6389:CLK 0
48 *6017:A *485:28 0
49 *6017:A *485:30 0
50 *6043:S *6368:CLK 5.33433e-05
51 *6043:S *485:90 0.000175404
52 *6043:S *485:118 7.99044e-05
53 *6044:A *6355:CLK 0.000174671
54 *6044:A *6363:CLK 5.52302e-05
55 *6044:A *485:90 1.02504e-05
56 *6054:A *485:16 0.000102676
57 *6054:A *485:86 8.29316e-05
58 *6061:S *485:90 9.56968e-05
59 *6098:A *6402:CLK 4.30382e-05
60 *6307:A *6488:CLK 1.32552e-05
61 *6344:D *485:28 5.56943e-05
62 *6355:D *6355:CLK 8.01787e-05
63 *6360:D *485:16 0.00025007
64 *6360:D *485:86 0.000157399
65 *6363:D *6363:CLK 7.61932e-05
66 *6378:D *6488:CLK 0.000144186
67 *6389:D *6389:CLK 0.00013001
68 *6442:D *6442:CLK 0.000273426
69 *6486:D *485:20 0.000275631
70 *16:5 *6389:CLK 0.000382033
71 *16:5 *485:28 0.000168698
72 *16:5 *485:30 0.000382635
73 *230:122 *485:10 0.000271352
74 *232:157 *485:10 0
75 *232:167 *6355:CLK 0.000103285
76 *232:167 *485:90 2.58997e-05
77 *233:181 *485:10 0
78 *233:181 *485:14 0
79 *237:169 *485:90 0
80 *254:10 *6339:CLK 0
81 *254:10 *485:30 0
82 *259:18 *485:10 0.000101169
83 *298:77 *6389:CLK 0
84 *298:77 *485:30 0
85 *319:109 *485:10 0.000342495
86 *329:87 *485:90 8.56716e-05
87 *329:87 *485:118 0.000118339
*RES
1 *6502:X *485:10 21.3714 
2 *485:10 *485:14 7.05357 
3 *485:14 *485:16 3.82143 
4 *485:16 *485:20 7.125 
5 *485:20 *485:26 7.51786 
6 *485:26 *485:28 2.25 
7 *485:28 *485:30 7.71429 
8 *485:30 *6339:CLK 16.9964 
9 *485:30 *6442:CLK 17.6214 
10 *485:28 *6344:CLK 14.3357 
11 *485:26 *6389:CLK 22.6036 
12 *485:20 *6486:CLK 9.3 
13 *485:16 *6360:CLK 9.3 
14 *485:14 *485:86 6.01786 
15 *485:86 *485:88 4.5 
16 *485:88 *485:90 6.80357 
17 *485:90 *6355:CLK 17.7107 
18 *485:90 *6363:CLK 18.05 
19 *485:88 *485:118 9.53571 
20 *485:118 *6378:CLK 9.3 
21 *485:118 *6488:CLK 21.2643 
22 *485:86 *6402:CLK 20.1214 
23 *485:10 *6368:CLK 14.7464 
*END

*D_NET *486 0.0202149
*CONN
*I *6370:CLK I *D sky130_fd_sc_hd__dfxtp_1
*I *6381:CLK I *D sky130_fd_sc_hd__dfxtp_1
*I *6354:CLK I *D sky130_fd_sc_hd__dfxtp_1
*I *6357:CLK I *D sky130_fd_sc_hd__dfxtp_1
*I *6491:CLK I *D sky130_fd_sc_hd__dfxtp_1
*I *6405:CLK I *D sky130_fd_sc_hd__dfxtp_1
*I *6373:CLK I *D sky130_fd_sc_hd__dfxtp_1
*I *6365:CLK I *D sky130_fd_sc_hd__dfxtp_1
*I *6483:CLK I *D sky130_fd_sc_hd__dfxtp_1
*I *6341:CLK I *D sky130_fd_sc_hd__dfxtp_1
*I *6404:CLK I *D sky130_fd_sc_hd__dfxtp_1
*I *6480:CLK I *D sky130_fd_sc_hd__dfxtp_1
*I *6362:CLK I *D sky130_fd_sc_hd__dfxtp_1
*I *6503:X O *D sky130_fd_sc_hd__clkbuf_8
*CAP
1 *6370:CLK 0.000563399
2 *6381:CLK 0.000100363
3 *6354:CLK 2.23854e-05
4 *6357:CLK 0
5 *6491:CLK 0
6 *6405:CLK 0.000272028
7 *6373:CLK 0.000396396
8 *6365:CLK 2.23854e-05
9 *6483:CLK 0
10 *6341:CLK 4.75129e-05
11 *6404:CLK 0.000366888
12 *6480:CLK 0.000535862
13 *6362:CLK 0
14 *6503:X 0
15 *486:131 0.000460485
16 *486:106 0.00109651
17 *486:93 0.00132433
18 *486:83 0.00129725
19 *486:72 0.000939435
20 *486:57 0.000814899
21 *486:42 0.000992287
22 *486:38 0.000617567
23 *486:34 0.000682676
24 *486:14 0.000574431
25 *486:10 0.000579635
26 *486:4 0.00082685
27 *6341:CLK *6310:A0 5.52302e-05
28 *6404:CLK *5952:A0 0.000233192
29 *6404:CLK *6530:A 1.04232e-05
30 *6404:CLK *514:8 6.05161e-06
31 *6405:CLK *5961:A0 4.30382e-05
32 *6405:CLK *6083:A0 0.000271345
33 *6405:CLK *6083:A1 0.00010326
34 *6405:CLK *6531:A 8.68665e-05
35 *6480:CLK *6004:A1 3.9846e-05
36 *6480:CLK *6288:A0 0.00022459
37 *6480:CLK *724:143 0.000353073
38 *486:10 *5931:A2 0.000230039
39 *486:34 *5931:A2 0.000175519
40 *486:34 *528:12 0.000128161
41 *486:72 *6591:A 0
42 *486:72 *522:6 6.05161e-06
43 *486:93 *5960:A0 7.83659e-05
44 *486:93 *5960:A1 1.87473e-05
45 *486:93 *5960:A2 6.98553e-06
46 *486:93 *5960:A3 0.000141677
47 *486:106 *6065:A0 9.37018e-05
48 *486:106 *6556:A 6.39262e-05
49 *5935:A1 *6370:CLK 4.72818e-05
50 *5937:A0 *6370:CLK 8.78006e-05
51 *5962:A0 *486:106 0
52 *5962:A1 *6373:CLK 0
53 *5962:A1 *6405:CLK 0
54 *5962:A1 *486:131 0.000184745
55 *5962:S *6373:CLK 0.000291755
56 *6005:A *6480:CLK 0.000178593
57 *6048:A *486:83 5.33005e-05
58 *6048:A *486:93 3.17148e-05
59 *6066:A *486:106 0
60 *6084:A *6373:CLK 6.98762e-05
61 *6157:A *6404:CLK 0.000199691
62 *6288:S *6480:CLK 1.74352e-05
63 *6289:A *6480:CLK 0.00014183
64 *6354:D *486:38 0.000144193
65 *6357:D *486:83 7.06444e-05
66 *6362:D *6370:CLK 2.72967e-05
67 *6362:D *486:10 2.72859e-05
68 *6365:D *486:106 8.95186e-05
69 *6404:D *6404:CLK 0.000401178
70 *6405:D *6405:CLK 0.000194143
71 *6480:D *6480:CLK 0.000404121
72 *6483:D *486:72 0
73 *6483:D *486:83 1.64343e-05
74 *6491:D *6405:CLK 1.52978e-05
75 *6491:D *486:106 0
76 *6491:D *486:131 9.71197e-05
77 *16:5 *486:57 0
78 *16:5 *486:72 0
79 *230:111 *6404:CLK 0
80 *230:111 *486:57 0
81 *232:141 *486:93 9.60875e-05
82 *232:143 *486:34 2.26327e-05
83 *232:151 *486:34 0.000162722
84 *233:175 *486:34 0
85 *233:181 *486:10 0
86 *233:181 *486:34 0
87 *233:247 *6373:CLK 6.82199e-05
88 *237:169 *6370:CLK 0.000186669
89 *298:67 *486:57 7.5425e-05
90 *298:67 *486:72 1.65558e-05
91 *298:73 *6404:CLK 0
92 *298:73 *486:57 7.22762e-05
93 *319:105 *486:34 0.000383432
94 *319:105 *486:93 0.000148189
95 *319:109 *486:10 0.000250201
96 *319:109 *486:34 0.000350859
97 *351:101 *6381:CLK 0.00023259
98 *351:101 *486:38 0.000109409
99 *351:101 *486:42 0.000168118
100 *351:111 *6373:CLK 3.56566e-05
101 *470:151 *6341:CLK 0.000140933
*RES
1 *6503:X *486:4 9.3 
2 *486:4 *486:10 10.6607 
3 *486:10 *486:14 5.03571 
4 *486:14 *6362:CLK 9.3 
5 *486:14 *6480:CLK 21.7821 
6 *486:10 *486:34 14.0357 
7 *486:34 *486:38 5.78571 
8 *486:38 *486:42 9.96429 
9 *486:42 *6404:CLK 23.3714 
10 *486:42 *486:57 6.80357 
11 *486:57 *6341:CLK 15.1571 
12 *486:57 *486:72 11.6607 
13 *486:72 *6483:CLK 9.3 
14 *486:72 *486:83 8.48214 
15 *486:83 *486:93 20.125 
16 *486:93 *6365:CLK 9.72857 
17 *486:93 *486:106 14.3929 
18 *486:106 *6373:CLK 23.1929 
19 *486:106 *486:131 8.32143 
20 *486:131 *6405:CLK 25.2107 
21 *486:131 *6491:CLK 9.3 
22 *486:83 *6357:CLK 9.3 
23 *486:38 *6354:CLK 9.72857 
24 *486:34 *6381:CLK 11.8893 
25 *486:4 *6370:CLK 18.8893 
*END

*D_NET *487 0.0146994
*CONN
*I *6436:CLK I *D sky130_fd_sc_hd__dfrtp_1
*I *6464:CLK I *D sky130_fd_sc_hd__dfrtp_1
*I *6437:CLK I *D sky130_fd_sc_hd__dfrtp_1
*I *6465:CLK I *D sky130_fd_sc_hd__dfrtp_1
*I *6460:CLK I *D sky130_fd_sc_hd__dfrtp_1
*I *6459:CLK I *D sky130_fd_sc_hd__dfrtp_1
*I *6385:CLK I *D sky130_fd_sc_hd__dfxtp_1
*I *6428:CLK I *D sky130_fd_sc_hd__dfxtp_1
*I *6412:CLK I *D sky130_fd_sc_hd__dfxtp_1
*I *6504:X O *D sky130_fd_sc_hd__clkbuf_8
*CAP
1 *6436:CLK 0
2 *6464:CLK 2.23854e-05
3 *6437:CLK 0.000456163
4 *6465:CLK 8.48416e-05
5 *6460:CLK 0.000711519
6 *6459:CLK 0.000258254
7 *6385:CLK 0.00074301
8 *6428:CLK 0.000126953
9 *6412:CLK 0.000612652
10 *6504:X 0.000175658
11 *487:73 0.00105583
12 *487:71 0.000271617
13 *487:69 0.000875741
14 *487:65 0.00129301
15 *487:53 0.00111172
16 *487:40 0.00137271
17 *487:25 0.00073739
18 *487:10 0.000929
19 *6385:CLK *6449:RESET_B 3.02581e-06
20 *6385:CLK *6454:D 0.000122101
21 *6412:CLK *746:117 0
22 *6428:CLK *6173:A0 5.30637e-06
23 *6428:CLK *6173:A1 0.000135125
24 *6459:CLK *5893:B 0.000129185
25 *6459:CLK *6459:D 7.32272e-05
26 *6460:CLK *6460:D 4.60279e-05
27 *6460:CLK *6460:RESET_B 0.000135972
28 *487:10 *6209:A0 0
29 *487:10 *709:185 0
30 *487:25 *6173:A1 0
31 *487:25 *6209:A0 0
32 *487:25 *602:10 0
33 *487:25 *680:10 0
34 *487:40 *6449:D 0
35 *487:40 *602:10 0
36 *487:40 *680:10 0
37 *487:53 *6449:D 0
38 *487:65 *5888:A 0
39 *487:65 *6436:RESET_B 0.000313235
40 *487:65 *6449:CLK 1.21258e-05
41 *487:65 *6449:RESET_B 5.33005e-05
42 *487:65 *6464:D 0.000118592
43 *487:65 *6464:RESET_B 8.94203e-05
44 *487:65 *712:33 0.000135221
45 *487:69 *6450:D 0.00040279
46 *487:69 *825:16 0.000881782
47 *487:71 *5893:B 0.000106552
48 *487:73 *5893:B 6.5185e-05
49 *5898:A *6460:CLK 6.10501e-05
50 *5898:B *6465:CLK 9.31209e-05
51 *5898:C *6437:CLK 2.39427e-05
52 *5898:C *487:71 6.98215e-05
53 *6210:A *6412:CLK 3.93247e-05
54 *6412:D *6412:CLK 1.64343e-05
55 *6428:D *6428:CLK 5.95099e-05
56 *6428:D *487:25 3.25247e-05
57 *6437:D *6437:CLK 0.000109264
58 *210:8 *6465:CLK 2.89114e-05
59 *226:51 *6437:CLK 3.0285e-05
60 *226:51 *487:71 1.78353e-05
61 *391:22 *487:40 0.000202131
62 *391:22 *487:53 0
63 *391:30 *487:10 0
64 *391:30 *487:25 0
65 *411:30 *487:10 6.75007e-05
66 *445:14 *6459:CLK 0
67 *445:14 *487:73 0
68 *479:51 *487:10 5.71472e-05
69 *479:61 *487:40 0
70 *479:61 *487:53 0
71 *479:61 *487:65 0.00012401
*RES
1 *6504:X *487:10 16.8893 
2 *487:10 *6412:CLK 22.9964 
3 *487:10 *487:25 2.25 
4 *487:25 *6428:CLK 16.8 
5 *487:25 *487:40 8.89286 
6 *487:40 *6385:CLK 26.2464 
7 *487:40 *487:53 7.05357 
8 *487:53 *487:65 23.6429 
9 *487:65 *487:69 13.6607 
10 *487:69 *487:71 3.16071 
11 *487:71 *487:73 1.64286 
12 *487:73 *6459:CLK 19.1393 
13 *487:73 *6460:CLK 22.4607 
14 *487:71 *6465:CLK 15.5679 
15 *487:69 *6437:CLK 20.1036 
16 *487:65 *6464:CLK 9.72857 
17 *487:53 *6436:CLK 9.3 
*END

*D_NET *488 0.0143137
*CONN
*I *6393:CLK I *D sky130_fd_sc_hd__dfxtp_1
*I *6350:CLK I *D sky130_fd_sc_hd__dfxtp_1
*I *6422:CLK I *D sky130_fd_sc_hd__dfxtp_1
*I *6398:CLK I *D sky130_fd_sc_hd__dfxtp_1
*I *6416:CLK I *D sky130_fd_sc_hd__dfxtp_1
*I *6432:CLK I *D sky130_fd_sc_hd__dfxtp_1
*I *6443:CLK I *D sky130_fd_sc_hd__dfxtp_1
*I *6326:CLK I *D sky130_fd_sc_hd__dfxtp_1
*I *6430:CLK I *D sky130_fd_sc_hd__dfxtp_1
*I *6414:CLK I *D sky130_fd_sc_hd__dfxtp_1
*I *6446:CLK I *D sky130_fd_sc_hd__dfxtp_1
*I *6505:X O *D sky130_fd_sc_hd__clkbuf_8
*CAP
1 *6393:CLK 0.000325325
2 *6350:CLK 0.000234979
3 *6422:CLK 7.92214e-05
4 *6398:CLK 0.000131291
5 *6416:CLK 0.000137047
6 *6432:CLK 3.08975e-05
7 *6443:CLK 0.000348419
8 *6326:CLK 0
9 *6430:CLK 0.000441312
10 *6414:CLK 0
11 *6446:CLK 1.62131e-05
12 *6505:X 0
13 *488:82 0.000541297
14 *488:78 0.000746085
15 *488:52 0.00126333
16 *488:39 0.000802025
17 *488:24 0.000775035
18 *488:20 0.000884065
19 *488:14 0.000781958
20 *488:8 0.000674817
21 *488:4 0.000483439
22 *6393:CLK *5994:A0 0.000109481
23 *6393:CLK *503:6 3.98547e-05
24 *6393:CLK *636:107 6.18194e-05
25 *6398:CLK *658:30 1.76039e-05
26 *6398:CLK *768:93 0
27 *6416:CLK *6243:A1 2.49484e-05
28 *6416:CLK *580:12 0
29 *6430:CLK *5966:A2 5.03772e-05
30 *6443:CLK *588:10 3.17163e-05
31 *6446:CLK *5993:A0 1.92789e-05
32 *488:8 *658:30 0
33 *488:14 *6142:A0 5.01117e-05
34 *488:14 *6142:A1 5.90443e-06
35 *488:14 *658:30 0
36 *488:14 *768:85 2.04825e-05
37 *488:14 *768:93 8.40351e-06
38 *488:20 *768:93 0.000132693
39 *488:24 *5993:A0 0.000180198
40 *488:24 *6554:A 3.18676e-05
41 *488:39 *6213:A0 9.25014e-06
42 *488:39 *6213:A1 3.18676e-05
43 *488:39 *6249:A1 0
44 *488:52 *6213:A1 9.5558e-05
45 *488:52 *6638:A 2.94103e-05
46 *488:78 *5966:A2 0.000710549
47 *488:78 *588:10 1.32552e-05
48 *488:82 *588:10 0
49 *5915:A *6443:CLK 4.65081e-05
50 *5995:A0 *6446:CLK 2.28499e-05
51 *5995:A0 *488:24 0.000229456
52 *6032:A *6350:CLK 5.71472e-05
53 *6038:A *6350:CLK 1.24368e-05
54 *6131:A *6393:CLK 0.000606096
55 *6196:A *488:14 3.92757e-05
56 *6213:S *488:39 0
57 *6214:A *6430:CLK 0
58 *6243:S *6416:CLK 0.000174805
59 *6244:A *6416:CLK 0.000127439
60 *6326:D *488:78 0.000234761
61 *6353:D *488:8 5.24274e-05
62 *6393:D *6393:CLK 0.000745933
63 *6398:D *6398:CLK 5.52302e-05
64 *6414:D *488:39 8.16036e-05
65 *6414:D *488:52 8.42801e-05
66 *6422:D *6422:CLK 0.000183726
67 *6430:D *6430:CLK 0.000130287
68 *6432:D *488:82 0
69 *6443:D *488:78 0.000174202
70 *6446:D *488:24 1.64343e-05
71 *216:44 *6398:CLK 2.89114e-05
72 *216:60 *6416:CLK 7.8011e-05
73 *216:60 *488:78 0.000140933
74 *216:60 *488:82 9.69119e-06
75 *225:160 *488:14 3.87254e-05
76 *225:160 *488:20 0.000117997
77 *239:168 *6350:CLK 0.000168265
78 *372:74 *488:8 7.00276e-05
79 *372:74 *488:14 2.22371e-05
80 *428:75 *488:39 0.000192581
*RES
1 *6505:X *488:4 9.3 
2 *488:4 *488:8 7.35714 
3 *488:8 *488:14 5.03571 
4 *488:14 *488:20 12.2857 
5 *488:20 *488:24 7.53571 
6 *488:24 *6446:CLK 9.83571 
7 *488:24 *488:39 17.25 
8 *488:39 *6414:CLK 9.3 
9 *488:39 *488:52 15.8929 
10 *488:52 *6430:CLK 17.3893 
11 *488:52 *6326:CLK 9.3 
12 *488:52 *488:78 16.2679 
13 *488:78 *488:82 7.35714 
14 *488:82 *6443:CLK 25.0321 
15 *488:82 *6432:CLK 9.83571 
16 *488:78 *6416:CLK 18.175 
17 *488:20 *6398:CLK 20.7821 
18 *488:14 *6422:CLK 15.5679 
19 *488:8 *6350:CLK 18.3536 
20 *488:4 *6393:CLK 20.1214 
*END

*D_NET *489 0.0115952
*CONN
*I *6327:CLK I *D sky130_fd_sc_hd__dfxtp_1
*I *6431:CLK I *D sky130_fd_sc_hd__dfxtp_1
*I *6424:CLK I *D sky130_fd_sc_hd__dfxtp_1
*I *6352:CLK I *D sky130_fd_sc_hd__dfxtp_1
*I *6495:CLK I *D sky130_fd_sc_hd__dfxtp_1
*I *6377:CLK I *D sky130_fd_sc_hd__dfxtp_1
*I *6409:CLK I *D sky130_fd_sc_hd__dfxtp_1
*I *6400:CLK I *D sky130_fd_sc_hd__dfxtp_1
*I *6353:CLK I *D sky130_fd_sc_hd__dfxtp_1
*I *6506:X O *D sky130_fd_sc_hd__clkbuf_8
*CAP
1 *6327:CLK 0.000283204
2 *6431:CLK 2.2379e-05
3 *6424:CLK 0
4 *6352:CLK 0.00015335
5 *6495:CLK 0.00018419
6 *6377:CLK 0.000408212
7 *6409:CLK 0
8 *6400:CLK 0.000156392
9 *6353:CLK 0.000254915
10 *6506:X 0
11 *489:95 0.00052582
12 *489:75 0.000426214
13 *489:40 0.000770966
14 *489:36 0.000451428
15 *489:34 0.00051905
16 *489:21 0.000485917
17 *489:4 0.000285627
18 *6327:CLK *6215:A1 0.000479652
19 *6353:CLK *5994:A1 8.92272e-05
20 *6353:CLK *658:30 0
21 *6377:CLK *5997:A0 9.41642e-05
22 *6377:CLK *6239:A0 3.92854e-05
23 *6377:CLK *615:10 0.000304394
24 *6377:CLK *746:99 0.000303068
25 *6431:CLK *6215:A0 2.6269e-05
26 *6495:CLK *5997:A3 7.21954e-05
27 *6495:CLK *6166:A0 8.00806e-05
28 *489:34 *623:10 0.000202842
29 *489:40 *615:10 0.000129515
30 *489:40 *746:99 0.00065682
31 *489:75 *615:10 6.05161e-06
32 *489:75 *746:99 0.000170584
33 *6092:A *6377:CLK 6.42338e-05
34 *6111:S *6377:CLK 0.000180408
35 *6112:A *6377:CLK 7.1724e-05
36 *6130:S *6377:CLK 6.9128e-05
37 *6167:A *6495:CLK 3.18676e-05
38 *6180:A *6327:CLK 0.000150618
39 *6353:D *6353:CLK 0.000190948
40 *6409:D *489:40 0.000144193
41 *6431:D *6431:CLK 5.52302e-05
42 *6431:D *489:95 9.91086e-05
43 *6495:D *6495:CLK 0
44 *225:160 *6327:CLK 2.15363e-05
45 *225:160 *489:34 0.000196781
46 *225:160 *489:95 0.000145841
47 *225:164 *6327:CLK 5.23057e-05
48 *232:21 *6353:CLK 1.07719e-05
49 *232:21 *6400:CLK 0.000122055
50 *232:21 *489:21 7.49387e-06
51 *233:31 *6353:CLK 0.000144056
52 *233:41 *6352:CLK 0
53 *237:86 *6352:CLK 0.000175036
54 *309:14 *6327:CLK 0.00021192
55 *309:14 *6353:CLK 0.000243207
56 *309:14 *489:34 0.000769952
57 *309:14 *489:95 0.000514435
58 *391:122 *6327:CLK 0.00018631
59 *411:92 *6431:CLK 9.90431e-05
60 *428:52 *6377:CLK 0
61 *428:75 *6377:CLK 5.52238e-05
*RES
1 *6506:X *489:4 9.3 
2 *489:4 *6353:CLK 25.4071 
3 *489:4 *489:21 0.535714 
4 *489:21 *6400:CLK 12.7286 
5 *489:21 *489:34 14.3393 
6 *489:34 *489:36 4.5 
7 *489:36 *489:40 6.71429 
8 *489:40 *6409:CLK 9.3 
9 *489:40 *6377:CLK 30.05 
10 *489:40 *6495:CLK 21.3893 
11 *489:36 *489:75 5.375 
12 *489:75 *6352:CLK 21.4964 
13 *489:75 *6424:CLK 9.3 
14 *489:34 *489:95 6.80357 
15 *489:95 *6431:CLK 14.7464 
16 *489:95 *6327:CLK 22.5321 
*END

*D_NET *490 0.0110051
*CONN
*I *6435:CLK I *D sky130_fd_sc_hd__dfrtp_1
*I *6463:CLK I *D sky130_fd_sc_hd__dfrtp_1
*I *6466:CLK I *D sky130_fd_sc_hd__dfrtp_1
*I *6461:CLK I *D sky130_fd_sc_hd__dfrtp_1
*I *6438:CLK I *D sky130_fd_sc_hd__dfrtp_1
*I *6458:CLK I *D sky130_fd_sc_hd__dfrtp_1
*I *6507:X O *D sky130_fd_sc_hd__clkbuf_8
*CAP
1 *6435:CLK 0.000290556
2 *6463:CLK 0
3 *6466:CLK 9.99952e-05
4 *6461:CLK 0.000718772
5 *6438:CLK 9.45668e-05
6 *6458:CLK 0.000320339
7 *6507:X 0.000822407
8 *490:50 0.00129062
9 *490:35 0.000735415
10 *490:20 0.000981411
11 *490:12 0.00094099
12 *490:6 0.00156188
13 *6435:CLK *6435:RESET_B 5.36121e-05
14 *6435:CLK *6448:D 0.000410132
15 *6435:CLK *6557:A 5.7661e-06
16 *6458:CLK *6458:D 3.77554e-05
17 *6458:CLK *712:29 1.91789e-05
18 *6458:CLK *796:6 1.04232e-05
19 *6461:CLK *5895:A 0
20 *6461:CLK *6566:A 9.58126e-05
21 *6466:CLK *6466:D 2.89016e-05
22 *490:6 *6448:D 2.07491e-05
23 *490:6 *6557:A 5.62995e-05
24 *490:12 *710:10 0
25 *490:12 *710:12 0
26 *490:20 *6458:RESET_B 0.000308491
27 *490:20 *6463:RESET_B 9.61553e-05
28 *490:20 *712:29 3.14882e-05
29 *490:35 *6265:A1 0
30 *5897:A *490:35 7.6644e-05
31 *5897:B *490:35 0.000437934
32 *5898:C *490:50 0.000191625
33 *6261:S *6458:CLK 6.05161e-06
34 *6261:S *490:20 4.58194e-05
35 *6261:S *490:35 4.54254e-05
36 *6286:A *490:6 2.27416e-05
37 *6435:D *6435:CLK 7.19508e-05
38 *6479:D *490:6 5.70551e-05
39 *6507:A *490:6 0.000357952
40 *226:51 *490:50 0
41 *420:39 *490:6 0.000168067
42 *420:51 *490:12 0
43 *445:14 *6461:CLK 0.000151333
44 *445:14 *490:35 0.000340781
*RES
1 *6507:X *490:6 24.2107 
2 *490:6 *490:12 15.8036 
3 *490:12 *490:20 8.80357 
4 *490:20 *6458:CLK 13.4429 
5 *490:20 *490:35 15.5 
6 *490:35 *6438:CLK 10.6571 
7 *490:35 *490:50 17.3929 
8 *490:50 *6461:CLK 28.6214 
9 *490:50 *6466:CLK 11.0679 
10 *490:12 *6463:CLK 9.3 
11 *490:6 *6435:CLK 17.1393 
*END

*D_NET *491 0.0110433
*CONN
*I *6478:CLK I *D sky130_fd_sc_hd__dfrtp_4
*I *6476:CLK I *D sky130_fd_sc_hd__dfrtp_1
*I *6487:CLK I *D sky130_fd_sc_hd__dfxtp_1
*I *6434:CLK I *D sky130_fd_sc_hd__dfrtp_1
*I *6457:CLK I *D sky130_fd_sc_hd__dfrtp_1
*I *6462:CLK I *D sky130_fd_sc_hd__dfrtp_1
*I *6479:CLK I *D sky130_fd_sc_hd__dfrtp_4
*I *6477:CLK I *D sky130_fd_sc_hd__dfrtp_4
*I *6508:X O *D sky130_fd_sc_hd__clkbuf_8
*CAP
1 *6478:CLK 0
2 *6476:CLK 0.000132208
3 *6487:CLK 0.000586646
4 *6434:CLK 0
5 *6457:CLK 0.000269638
6 *6462:CLK 0.000274823
7 *6479:CLK 0.000697246
8 *6477:CLK 0
9 *6508:X 0.000284797
10 *491:81 0.000815957
11 *491:52 0.000674387
12 *491:39 0.000864443
13 *491:35 0.000839802
14 *491:22 0.00100795
15 *491:20 0.000640761
16 *491:12 0.000623041
17 *6457:CLK *6457:D 7.8195e-05
18 *6457:CLK *6457:RESET_B 0
19 *6457:CLK *710:8 0
20 *6462:CLK *6479:RESET_B 0.000753293
21 *6462:CLK *647:16 1.02132e-05
22 *6476:CLK *810:12 0.000104611
23 *6476:CLK *810:75 1.92789e-05
24 *6479:CLK *710:8 0
25 *6479:CLK *710:10 0
26 *491:20 *710:185 3.0285e-05
27 *491:20 *810:12 0
28 *491:20 *810:14 0
29 *491:22 *6477:RESET_B 0.000179737
30 *491:22 *810:12 4.88531e-05
31 *491:35 *5885:B 9.90367e-05
32 *491:35 *6434:RESET_B 4.96254e-05
33 *491:35 *6477:RESET_B 9.29172e-05
34 *491:35 *6558:A 5.52302e-05
35 *491:35 *710:149 0.000431089
36 *491:52 *710:8 0
37 *491:81 *810:12 8.53409e-05
38 *5879:A *491:20 0.000186669
39 *6222:A1 *491:20 2.14658e-05
40 *6279:A1 *491:20 0.000195547
41 *6283:A *491:12 0
42 *6303:A *6487:CLK 0
43 *6434:D *6479:CLK 0
44 *6487:D *6487:CLK 0
45 *192:12 *491:12 0
46 *192:12 *491:20 1.02504e-05
47 *208:14 *6479:CLK 0.000576938
48 *420:39 *491:12 9.90367e-05
49 *420:85 *491:12 0.00020402
*RES
1 *6508:X *491:12 24.6393 
2 *491:12 *491:20 16.1607 
3 *491:20 *491:22 4.64286 
4 *491:22 *6477:CLK 9.3 
5 *491:22 *491:35 16.7143 
6 *491:35 *491:39 5.03571 
7 *491:39 *6479:CLK 27.9071 
8 *491:39 *491:52 2.25 
9 *491:52 *6462:CLK 21.3357 
10 *491:52 *6457:CLK 18.425 
11 *491:35 *6434:CLK 9.3 
12 *491:20 *491:81 2.17857 
13 *491:81 *6487:CLK 28.7821 
14 *491:81 *6476:CLK 12.3 
15 *491:12 *6478:CLK 9.3 
*END

*D_NET *492 0.00864253
*CONN
*I *6351:CLK I *D sky130_fd_sc_hd__dfxtp_1
*I *6423:CLK I *D sky130_fd_sc_hd__dfxtp_1
*I *6399:CLK I *D sky130_fd_sc_hd__dfxtp_1
*I *6415:CLK I *D sky130_fd_sc_hd__dfxtp_1
*I *6407:CLK I *D sky130_fd_sc_hd__dfxtp_1
*I *6493:CLK I *D sky130_fd_sc_hd__dfxtp_1
*I *6375:CLK I *D sky130_fd_sc_hd__dfxtp_1
*I *6383:CLK I *D sky130_fd_sc_hd__dfxtp_1
*I *6509:X O *D sky130_fd_sc_hd__clkbuf_8
*CAP
1 *6351:CLK 0.000390784
2 *6423:CLK 0
3 *6399:CLK 5.65864e-05
4 *6415:CLK 0.000573607
5 *6407:CLK 2.23854e-05
6 *6493:CLK 0.000223019
7 *6375:CLK 0
8 *6383:CLK 0.000229477
9 *6509:X 0
10 *492:90 0.000390784
11 *492:68 0.00117418
12 *492:64 0.000834928
13 *492:49 0.000377737
14 *492:16 0.000611166
15 *492:8 0.000967649
16 *492:4 0.000427349
17 *6351:CLK *573:8 3.18676e-05
18 *6493:CLK *5979:A1 0.000148629
19 *6493:CLK *493:10 0
20 *492:8 *5979:A1 1.52978e-05
21 *492:8 *509:12 0
22 *492:16 *5979:A0 2.32751e-05
23 *492:16 *5979:A1 5.52238e-05
24 *492:16 *517:6 0.00018372
25 *6058:A1 *492:68 0
26 *6087:S *492:8 0
27 *6087:S *492:64 0
28 *6088:A *492:8 0
29 *6088:A *492:16 0.000246758
30 *6151:A2 *6415:CLK 0.000125724
31 *6305:A1 *6415:CLK 2.60064e-05
32 *6375:D *492:16 0.000125144
33 *6383:D *6383:CLK 0.000195144
34 *6407:D *492:64 0.000104974
35 *6423:D *6351:CLK 0.000187999
36 *6493:D *6493:CLK 3.47737e-05
37 *6509:A *492:8 0
38 *190:109 *6415:CLK 0
39 *190:120 *6415:CLK 5.52302e-05
40 *190:120 *492:68 0
41 *190:131 *492:68 0
42 *190:144 *492:68 0
43 *215:10 *6415:CLK 4.1331e-06
44 *215:109 *6415:CLK 7.49332e-05
45 *215:118 *6415:CLK 5.85405e-05
46 *215:133 *6415:CLK 7.86249e-05
47 *232:278 *492:8 0
48 *232:289 *6493:CLK 0
49 *309:14 *6415:CLK 0
50 *309:14 *492:68 0.000227905
51 *319:12 *6383:CLK 0
52 *339:31 *492:64 0
53 *339:31 *492:68 0
54 *351:31 *492:8 0
55 *372:16 *6399:CLK 0.000128496
56 *372:16 *6415:CLK 0.000230482
57 *470:100 *492:68 0
*RES
1 *6509:X *492:4 9.3 
2 *492:4 *492:8 10.0893 
3 *492:8 *492:16 12.9821 
4 *492:16 *6383:CLK 22.5679 
5 *492:16 *6375:CLK 9.3 
6 *492:8 *6493:CLK 18.4786 
7 *492:4 *492:49 0.946429 
8 *492:49 *6407:CLK 9.72857 
9 *492:49 *492:64 10.25 
10 *492:64 *492:68 14.3393 
11 *492:68 *6415:CLK 30.0143 
12 *492:68 *6399:CLK 10.6571 
13 *492:64 *492:90 4.5 
14 *492:90 *6423:CLK 9.3 
15 *492:90 *6351:CLK 15.9964 
*END

*D_NET *493 0.0151619
*CONN
*I *6485:CLK I *D sky130_fd_sc_hd__dfxtp_1
*I *6484:CLK I *D sky130_fd_sc_hd__dfxtp_1
*I *6342:CLK I *D sky130_fd_sc_hd__dfxtp_1
*I *6367:CLK I *D sky130_fd_sc_hd__dfxtp_1
*I *6382:CLK I *D sky130_fd_sc_hd__dfxtp_1
*I *6359:CLK I *D sky130_fd_sc_hd__dfxtp_1
*I *6343:CLK I *D sky130_fd_sc_hd__dfxtp_1
*I *6369:CLK I *D sky130_fd_sc_hd__dfxtp_1
*I *6345:CLK I *D sky130_fd_sc_hd__dfxtp_1
*I *6361:CLK I *D sky130_fd_sc_hd__dfxtp_1
*I *6510:X O *D sky130_fd_sc_hd__clkbuf_8
*CAP
1 *6485:CLK 0.000501458
2 *6484:CLK 0.000146251
3 *6342:CLK 0
4 *6367:CLK 0.000267122
5 *6382:CLK 0.000284985
6 *6359:CLK 0
7 *6343:CLK 0
8 *6369:CLK 1.80162e-05
9 *6345:CLK 0.0010401
10 *6361:CLK 0.000430762
11 *6510:X 0.000886673
12 *493:73 0.000641398
13 *493:71 0.000337568
14 *493:69 0.000777669
15 *493:60 0.000524935
16 *493:56 0.000921831
17 *493:27 0.0012361
18 *493:16 0.000640896
19 *493:14 0.000259353
20 *493:10 0.00139245
21 *6345:CLK *5996:A1 9.91031e-05
22 *6345:CLK *5996:A2 0.000175054
23 *6361:CLK *535:8 5.33334e-05
24 *6369:CLK *5996:A0 1.92789e-05
25 *6484:CLK *6622:A 0
26 *493:10 *5979:A1 0
27 *493:10 *6555:A 0.000126439
28 *493:10 *509:12 0.000191976
29 *493:27 *5996:A1 0.000169018
30 *493:27 *6055:A0 4.35048e-05
31 *493:27 *6583:A 2.94103e-05
32 *493:69 *5978:A1 0.000114577
33 *493:71 *6616:A 0.000174805
34 *493:71 *6622:A 0
35 *493:71 *779:33 0
36 *493:73 *6616:A 2.48938e-05
37 *493:73 *525:10 0.000127446
38 *493:73 *779:33 0
39 *5980:A0 *6382:CLK 0.000585875
40 *5980:A0 *493:73 0.000117196
41 *5996:S1 *6345:CLK 5.30637e-06
42 *6013:A *493:71 0
43 *6014:S *493:10 0
44 *6014:S *493:56 0
45 *6019:A *6345:CLK 6.10501e-05
46 *6070:A *6367:CLK 0.00012073
47 *6074:A *6345:CLK 0.00012401
48 *6074:A *493:27 0.000150625
49 *6106:A *6382:CLK 0
50 *6299:A *6485:CLK 0
51 *6299:A *493:60 0.000318107
52 *6343:D *493:14 0.000103323
53 *6345:D *6345:CLK 7.43085e-05
54 *6359:D *493:69 0.000272682
55 *6361:D *6361:CLK 0.000190948
56 *6367:D *6367:CLK 0.000125008
57 *6382:D *6382:CLK 0
58 *6484:D *6484:CLK 0
59 *6485:D *6485:CLK 4.87669e-06
60 *6493:CLK *493:10 0
61 *298:33 *6369:CLK 2.89016e-05
62 *298:33 *493:10 0
63 *298:37 *6367:CLK 9.28684e-05
64 *319:59 *493:69 0.00016344
65 *329:10 *493:10 0.000231091
66 *329:10 *493:27 0
67 *329:29 *493:10 9.74684e-05
68 *329:29 *493:27 0
69 *329:29 *493:56 0.000107893
70 *351:31 *493:10 0.000176721
71 *479:188 *493:10 0.000353079
*RES
1 *6510:X *493:10 34.1393 
2 *493:10 *493:14 8.32143 
3 *493:14 *493:16 0.535714 
4 *493:16 *6361:CLK 17.2286 
5 *493:16 *493:27 9.48214 
6 *493:27 *6345:CLK 28.2107 
7 *493:27 *6369:CLK 14.3357 
8 *493:14 *6343:CLK 9.3 
9 *493:10 *493:56 4.98214 
10 *493:56 *493:60 7.91071 
11 *493:60 *6359:CLK 9.3 
12 *493:60 *493:69 12.8393 
13 *493:69 *493:71 4.67857 
14 *493:71 *493:73 2.55357 
15 *493:73 *6382:CLK 21.2107 
16 *493:73 *6367:CLK 19.3 
17 *493:71 *6342:CLK 13.8 
18 *493:69 *6484:CLK 16.3536 
19 *493:56 *6485:CLK 20.55 
*END

*D_NET *494 0.0141658
*CONN
*I *6419:CLK I *D sky130_fd_sc_hd__dfxtp_1
*I *6395:CLK I *D sky130_fd_sc_hd__dfxtp_1
*I *6392:CLK I *D sky130_fd_sc_hd__dfxtp_1
*I *6390:CLK I *D sky130_fd_sc_hd__dfxtp_1
*I *6426:CLK I *D sky130_fd_sc_hd__dfxtp_1
*I *6410:CLK I *D sky130_fd_sc_hd__dfxtp_1
*I *6445:CLK I *D sky130_fd_sc_hd__dfxtp_1
*I *6411:CLK I *D sky130_fd_sc_hd__dfxtp_1
*I *6328:CLK I *D sky130_fd_sc_hd__dfxtp_1
*I *6427:CLK I *D sky130_fd_sc_hd__dfxtp_1
*I *6511:X O *D sky130_fd_sc_hd__clkbuf_8
*CAP
1 *6419:CLK 0
2 *6395:CLK 4.06336e-05
3 *6392:CLK 0.000424764
4 *6390:CLK 4.06336e-05
5 *6426:CLK 2.25053e-05
6 *6410:CLK 0
7 *6445:CLK 0.000419178
8 *6411:CLK 0
9 *6328:CLK 0.000309639
10 *6427:CLK 0.000188737
11 *6511:X 0.000329955
12 *494:86 0.00140968
13 *494:84 0.00108893
14 *494:53 0.000450102
15 *494:35 0.000309639
16 *494:22 0.000563669
17 *494:20 0.000489813
18 *494:18 0.000574134
19 *494:16 0.000715107
20 *494:10 0.00047338
21 *6328:CLK *735:20 0.000708454
22 *6328:CLK *735:27 0.000186662
23 *6392:CLK *6124:A1 0
24 *6392:CLK *625:51 5.30234e-05
25 *6392:CLK *768:44 0
26 *6427:CLK *5918:A0 0
27 *6427:CLK *6207:A0 0
28 *6445:CLK *5984:A0 2.36466e-05
29 *494:18 *735:46 0
30 *494:20 *735:46 0
31 *494:22 *735:35 0
32 *494:22 *735:46 0
33 *494:86 *500:12 3.13884e-05
34 *494:86 *712:53 0.000121926
35 *5968:A1 *6392:CLK 0.000123145
36 *5986:A0 *494:10 0
37 *5986:A0 *494:18 0
38 *5990:A1 *494:10 0.00024782
39 *6031:S *6392:CLK 0.000175519
40 *6125:A *6392:CLK 0
41 *6137:A *494:16 6.5111e-05
42 *6137:A *494:18 6.25211e-05
43 *6190:A *494:10 3.75052e-05
44 *6206:A *6445:CLK 0.000185643
45 *6208:A *6328:CLK 1.39726e-05
46 *6208:A *494:22 3.37687e-05
47 *6217:S *6328:CLK 0.000764787
48 *6248:A *6445:CLK 4.01768e-05
49 *6328:D *6328:CLK 0.000100374
50 *6390:D *6392:CLK 2.18262e-05
51 *6390:D *494:86 4.87669e-06
52 *6395:D *494:84 4.43718e-05
53 *6395:D *494:86 3.32631e-05
54 *6410:D *6426:CLK 1.58163e-05
55 *6410:D *494:20 7.92879e-05
56 *6410:D *494:22 4.46186e-06
57 *6426:D *6426:CLK 5.33005e-05
58 *6427:D *6427:CLK 8.59056e-05
59 *6427:D *494:22 6.42145e-05
60 *6445:D *6445:CLK 0.00013001
61 *216:79 *6427:CLK 5.52238e-05
62 *225:108 *6445:CLK 0.000980101
63 *225:108 *494:53 1.98839e-05
64 *265:12 *6392:CLK 1.41029e-05
65 *309:52 *6392:CLK 0.00019484
66 *372:36 *494:10 0.000357054
67 *411:111 *494:10 0
68 *411:111 *494:16 0
69 *411:111 *494:18 0
70 *411:125 *6328:CLK 8.76257e-05
71 *411:125 *6427:CLK 9.25014e-06
72 *411:125 *494:18 0.000137224
73 *411:125 *494:20 0.000214342
74 *411:125 *494:22 0.000732884
*RES
1 *6511:X *494:10 21.8893 
2 *494:10 *494:16 2.60714 
3 *494:16 *494:18 8.01786 
4 *494:18 *494:20 2.85714 
5 *494:20 *494:22 9.53571 
6 *494:22 *6427:CLK 16.8893 
7 *494:22 *494:35 4.5 
8 *494:35 *6328:CLK 21.3536 
9 *494:35 *6411:CLK 9.3 
10 *494:20 *494:53 5.03571 
11 *494:53 *6445:CLK 21.4964 
12 *494:53 *6410:CLK 9.3 
13 *494:18 *6426:CLK 14.3357 
14 *494:16 *494:84 5.85714 
15 *494:84 *494:86 10.8036 
16 *494:86 *6390:CLK 10.0321 
17 *494:86 *6392:CLK 27.2286 
18 *494:84 *6395:CLK 10.0321 
19 *494:10 *6419:CLK 13.8 
*END

*D_NET *495 0.0114413
*CONN
*I *6325:CLK I *D sky130_fd_sc_hd__dfxtp_1
*I *6444:CLK I *D sky130_fd_sc_hd__dfxtp_1
*I *6429:CLK I *D sky130_fd_sc_hd__dfxtp_1
*I *6420:CLK I *D sky130_fd_sc_hd__dfxtp_1
*I *6396:CLK I *D sky130_fd_sc_hd__dfxtp_1
*I *6388:CLK I *D sky130_fd_sc_hd__dfxtp_1
*I *6348:CLK I *D sky130_fd_sc_hd__dfxtp_1
*I *6394:CLK I *D sky130_fd_sc_hd__dfxtp_1
*I *6418:CLK I *D sky130_fd_sc_hd__dfxtp_1
*I *6512:X O *D sky130_fd_sc_hd__clkbuf_8
*CAP
1 *6325:CLK 6.70484e-05
2 *6444:CLK 0.000323418
3 *6429:CLK 0
4 *6420:CLK 0
5 *6396:CLK 0.000308895
6 *6388:CLK 0.000256526
7 *6348:CLK 0
8 *6394:CLK 2.61003e-05
9 *6418:CLK 0.00017715
10 *6512:X 7.90746e-05
11 *495:90 0.000454924
12 *495:88 0.000607047
13 *495:58 0.000699034
14 *495:56 0.000959519
15 *495:41 0.000518906
16 *495:32 0.000343045
17 *495:10 0.000348936
18 *495:8 0.000466312
19 *6325:CLK *5957:A2 1.92905e-05
20 *6388:CLK *5949:A2 5.80423e-05
21 *6388:CLK *6027:A0 0.000117553
22 *6388:CLK *6027:A1 8.18783e-05
23 *6396:CLK *6199:A0 0.0001399
24 *6396:CLK *6604:A 0.000129868
25 *6396:CLK *768:44 6.97972e-05
26 *6444:CLK *6615:A 2.59093e-05
27 *6444:CLK *589:8 3.92757e-05
28 *495:56 *5949:A0 3.47641e-06
29 *495:56 *6603:A 0
30 *495:88 *5949:A0 5.33005e-05
31 *495:88 *5949:A1 4.31086e-05
32 *495:88 *6027:A1 0.000241205
33 *495:88 *6211:A0 0.000148189
34 *495:88 *570:10 9.31011e-05
35 *5949:S0 *495:88 0
36 *5972:A1 *6418:CLK 0
37 *5972:A1 *495:10 0
38 *5972:A1 *495:32 0
39 *5972:A1 *495:41 0
40 *5972:A1 *495:56 0
41 *5975:S1 *6325:CLK 8.70693e-05
42 *5975:S1 *6444:CLK 0.000685457
43 *5975:S1 *495:90 0.000276021
44 *6028:A *6388:CLK 0.000397924
45 *6029:S *495:88 0
46 *6135:A *495:8 0.000357054
47 *6188:A *6418:CLK 5.80706e-06
48 *6188:A *495:8 0.000128886
49 *6188:A *495:10 5.84075e-05
50 *6246:A *6444:CLK 0.000223592
51 *6394:D *6394:CLK 2.89114e-05
52 *6418:D *6418:CLK 5.71472e-05
53 *6420:D *495:58 1.64343e-05
54 *6429:D *495:90 1.64343e-05
55 *6496:A *6444:CLK 5.7616e-05
56 *6512:A *495:8 6.05161e-06
57 *225:164 *6444:CLK 2.27416e-05
58 *230:66 *6444:CLK 0
59 *362:37 *6396:CLK 1.56e-05
60 *391:151 *6325:CLK 3.14163e-05
61 *391:151 *6444:CLK 0.000819442
62 *391:151 *495:90 0.000195153
63 *401:87 *495:88 0.000572007
64 *401:93 *495:32 0.000117977
65 *401:93 *495:41 4.49802e-05
66 *401:93 *495:56 7.38213e-05
67 *401:93 *495:88 0.000170661
68 *411:111 *6418:CLK 0
69 *411:111 *495:10 0
70 *411:111 *495:32 0
71 *411:111 *495:88 7.4826e-05
*RES
1 *6512:X *495:8 17.2107 
2 *495:8 *495:10 2.55357 
3 *495:10 *6418:CLK 17.1929 
4 *495:10 *6394:CLK 14.3357 
5 *495:8 *495:32 4.98214 
6 *495:32 *6348:CLK 13.8 
7 *495:32 *495:41 1.94643 
8 *495:41 *6388:CLK 20.5143 
9 *495:41 *495:56 7.35714 
10 *495:56 *495:58 6.28571 
11 *495:58 *6396:CLK 24.4964 
12 *495:58 *6420:CLK 9.3 
13 *495:56 *495:88 20.7321 
14 *495:88 *495:90 5.05357 
15 *495:90 *6429:CLK 9.3 
16 *495:90 *6444:CLK 30.3536 
17 *495:88 *6325:CLK 11.0679 
*END

*D_NET *496 0.00443717
*CONN
*I *6547:A I *D sky130_fd_sc_hd__dlygate4sd3_1
*I *5925:A0 I *D sky130_fd_sc_hd__mux4_1
*I *6386:Q O *D sky130_fd_sc_hd__dfxtp_1
*CAP
1 *6547:A 0.000289576
2 *5925:A0 0.000830193
3 *6386:Q 0.000428133
4 *496:6 0.0015479
5 *5925:A0 *5925:A2 0.000194852
6 *5925:S0 *5925:A0 5.52238e-05
7 *5925:S1 *5925:A0 4.58194e-05
8 *5928:A0 *5925:A0 7.6644e-05
9 *5928:A0 *6547:A 3.38229e-05
10 *5928:A1 *5925:A0 6.05161e-06
11 *5955:A0 *5925:A0 6.67127e-07
12 *5955:A0 *496:6 5.52607e-05
13 *6386:CLK *6547:A 0.000130284
14 *6386:D *5925:A0 8.05331e-05
15 *6499:A *6547:A 0.0002764
16 *226:183 *5925:A0 0
17 *286:16 *6547:A 0.000160197
18 *481:6 *6547:A 0.000225609
*RES
1 *6386:Q *496:6 14.3536 
2 *496:6 *5925:A0 29.3536 
3 *496:6 *6547:A 26.2464 
*END

*D_NET *497 0.00369604
*CONN
*I *5940:A0 I *D sky130_fd_sc_hd__mux4_1
*I *6568:A I *D sky130_fd_sc_hd__dlygate4sd3_1
*I *6387:Q O *D sky130_fd_sc_hd__dfxtp_1
*CAP
1 *5940:A0 0.00111202
2 *6568:A 7.18091e-05
3 *6387:Q 0
4 *497:4 0.00118383
5 *5940:A0 *6025:A1 0.000222784
6 *5940:A0 *6116:A0 0.000613001
7 *5940:A0 *6116:A1 0.000136951
8 *5940:A0 *735:117 0.000285271
9 *5925:S0 *5940:A0 0
10 *6026:A *5940:A0 4.48206e-05
11 *6117:A *5940:A0 2.55587e-05
*RES
1 *6387:Q *497:4 9.3 
2 *497:4 *6568:A 10.5679 
3 *497:4 *5940:A0 48.4607 
*END

*D_NET *498 0.00347455
*CONN
*I *6551:A I *D sky130_fd_sc_hd__dlygate4sd3_1
*I *5949:A0 I *D sky130_fd_sc_hd__mux4_1
*I *6388:Q O *D sky130_fd_sc_hd__dfxtp_1
*CAP
1 *6551:A 6.50951e-05
2 *5949:A0 0.000793823
3 *6388:Q 0.000221702
4 *498:10 0.00108062
5 *5949:A0 *5949:A1 2.89016e-05
6 *5949:A0 *6191:A0 0.000323337
7 *5949:A0 *746:64 0.000128886
8 *5949:A0 *746:85 7.24306e-06
9 *6551:A *6120:A0 6.05161e-06
10 *498:10 *6120:A0 2.2892e-05
11 *498:10 *6120:A1 0
12 *6120:S *498:10 0.000150618
13 *6191:S *5949:A0 0.000135028
14 *6348:D *5949:A0 0.000268403
15 *6388:D *498:10 0
16 *254:10 *498:10 3.97646e-05
17 *401:93 *5949:A0 0.000145411
18 *495:56 *5949:A0 3.47641e-06
19 *495:88 *5949:A0 5.33005e-05
*RES
1 *6388:Q *498:10 22.3714 
2 *498:10 *5949:A0 33.2643 
3 *498:10 *6551:A 10.2464 
*END

*D_NET *499 0.00405326
*CONN
*I *6537:A I *D sky130_fd_sc_hd__dlygate4sd3_1
*I *5958:A0 I *D sky130_fd_sc_hd__mux4_1
*I *6389:Q O *D sky130_fd_sc_hd__dfxtp_1
*CAP
1 *6537:A 8.05635e-05
2 *5958:A0 0.000780024
3 *6389:Q 0.00048425
4 *499:12 0.00134484
5 *5958:A0 *5958:A1 0.00020054
6 *5958:A0 *5958:A2 3.55407e-05
7 *5958:A0 *5958:A3 0.000171257
8 *5958:A0 *6122:A0 7.32173e-05
9 *5958:A0 *6122:A1 0.000141015
10 *5958:A0 *6564:A 0.000169969
11 *5958:A0 *757:87 7.90803e-05
12 *6537:A *6122:A0 4.58194e-05
13 *499:12 *746:45 0
14 *5958:S0 *5958:A0 6.44698e-05
15 *6122:S *499:12 3.34366e-05
16 *6123:A *499:12 0
17 *6389:CLK *499:12 0.000110029
18 *254:10 *499:12 0.000173804
19 *483:63 *5958:A0 6.54117e-05
*RES
1 *6389:Q *499:12 25.1929 
2 *499:12 *5958:A0 32.8357 
3 *499:12 *6537:A 10.675 
*END

*D_NET *500 0.0033972
*CONN
*I *6601:A I *D sky130_fd_sc_hd__dlygate4sd3_1
*I *5967:A0 I *D sky130_fd_sc_hd__mux4_1
*I *6390:Q O *D sky130_fd_sc_hd__dfxtp_1
*CAP
1 *6601:A 0
2 *5967:A0 0.000718626
3 *6390:Q 0.000312721
4 *500:12 0.00103135
5 *5967:A0 *5967:A1 0.000291597
6 *5967:A0 *5967:A3 6.07232e-05
7 *5967:A0 *6124:A0 9.31893e-05
8 *5967:A0 *6124:A1 5.71472e-05
9 *5967:A0 *6195:A0 4.30382e-05
10 *5967:A0 *6573:A 3.07555e-05
11 *5967:S0 *5967:A0 0.000198494
12 *226:114 *5967:A0 0
13 *295:20 *5967:A0 5.33334e-05
14 *295:28 *5967:A0 0.00029262
15 *362:51 *500:12 7.73758e-05
16 *362:61 *5967:A0 9.90431e-05
17 *362:61 *500:12 5.80706e-06
18 *494:86 *500:12 3.13884e-05
*RES
1 *6390:Q *500:12 22.8357 
2 *500:12 *5967:A0 34.9071 
3 *500:12 *6601:A 9.3 
*END

*D_NET *501 0.00340048
*CONN
*I *6590:A I *D sky130_fd_sc_hd__dlygate4sd3_1
*I *5976:A0 I *D sky130_fd_sc_hd__mux4_1
*I *6391:Q O *D sky130_fd_sc_hd__dfxtp_1
*CAP
1 *6590:A 2.23854e-05
2 *5976:A0 0.000540076
3 *6391:Q 0.0005137
4 *501:14 0.00107616
5 *5976:A0 *5976:A1 0.000150625
6 *501:14 *6126:A0 0
7 *6033:S *5976:A0 0.0002671
8 *6391:CLK *501:14 0.000442802
9 *6391:D *5976:A0 0.000309266
10 *6391:D *501:14 7.83587e-05
11 *232:69 *5976:A0 0
12 *270:12 *501:14 0
*RES
1 *6391:Q *501:14 25.6393 
2 *501:14 *5976:A0 29.0143 
3 *501:14 *6590:A 9.72857 
*END

*D_NET *502 0.001983
*CONN
*I *6592:A I *D sky130_fd_sc_hd__dlygate4sd3_1
*I *5985:A0 I *D sky130_fd_sc_hd__mux4_1
*I *6392:Q O *D sky130_fd_sc_hd__dfxtp_1
*CAP
1 *6592:A 0
2 *5985:A0 0.000629261
3 *6392:Q 7.09986e-05
4 *502:12 0.00070026
5 *5985:A0 *5985:A2 0.00013124
6 *502:12 *6128:A0 1.24368e-05
7 *5985:S0 *5985:A0 0.000136678
8 *5985:S1 *5985:A0 4.58194e-05
9 *6392:D *502:12 0.000128154
10 *479:116 *502:12 0.000128154
*RES
1 *6392:Q *502:12 20.4786 
2 *502:12 *5985:A0 19.4964 
3 *502:12 *6592:A 9.3 
*END

*D_NET *503 0.00312658
*CONN
*I *6542:A I *D sky130_fd_sc_hd__dlygate4sd3_1
*I *5994:A0 I *D sky130_fd_sc_hd__mux4_1
*I *6393:Q O *D sky130_fd_sc_hd__dfxtp_1
*CAP
1 *6542:A 0.000164078
2 *5994:A0 0.000478144
3 *6393:Q 0.000228166
4 *503:6 0.000870388
5 *5994:A0 *6201:A0 4.01768e-05
6 *5994:A0 *6201:A1 0
7 *5994:A0 *636:107 5.19842e-06
8 *6542:A *6130:A1 0.000268061
9 *6542:A *636:90 0.000126439
10 *5994:S0 *5994:A0 9.25014e-06
11 *5995:A1 *6542:A 0
12 *6130:S *6542:A 2.44318e-05
13 *6131:A *6542:A 0.000148196
14 *6131:A *503:6 9.7659e-05
15 *6195:S *5994:A0 0.000102197
16 *6393:CLK *5994:A0 0.000109481
17 *6393:CLK *503:6 3.98547e-05
18 *237:80 *6542:A 4.70078e-05
19 *239:168 *6542:A 0.000315165
20 *428:75 *5994:A0 5.26864e-05
*RES
1 *6393:Q *503:6 12.3 
2 *503:6 *5994:A0 25.5321 
3 *503:6 *6542:A 24.4607 
*END

*D_NET *504 0.00184376
*CONN
*I *5932:A2 I *D sky130_fd_sc_hd__mux4_1
*I *6527:A I *D sky130_fd_sc_hd__dlygate4sd3_1
*I *6378:Q O *D sky130_fd_sc_hd__dfxtp_1
*CAP
1 *5932:A2 0.000316309
2 *6527:A 0.000116458
3 *6378:Q 0
4 *504:4 0.000432767
5 *5932:A2 *5932:A1 1.14548e-05
6 *5932:A2 *6306:A1 5.52302e-05
7 *6527:A *5932:A0 0.00010326
8 *6527:A *6097:A0 9.90367e-05
9 *5932:S0 *6527:A 0
10 *5943:S1 *5932:A2 0
11 *6306:S *5932:A2 8.86413e-05
12 *6306:S *6527:A 3.34783e-05
13 *6307:A *5932:A2 7.31778e-05
14 *6402:CLK *6527:A 0.00010096
15 *6488:CLK *5932:A2 0.000412993
16 *339:81 *5932:A2 0
*RES
1 *6378:Q *504:4 9.3 
2 *504:4 *6527:A 21.4964 
3 *504:4 *5932:A2 25.8759 
*END

*D_NET *505 0.0014617
*CONN
*I *5943:A2 I *D sky130_fd_sc_hd__mux4_1
*I *6633:A I *D sky130_fd_sc_hd__dlygate4sd3_1
*I *6379:Q O *D sky130_fd_sc_hd__dfxtp_1
*CAP
1 *5943:A2 0.00035045
2 *6633:A 2.23854e-05
3 *6379:Q 4.41332e-05
4 *505:6 0.000416969
5 *5943:A2 *5943:A0 4.55807e-05
6 *5943:A2 *735:162 0.000107158
7 *5944:A1 *5943:A2 1.66856e-05
8 *6309:A *5943:A2 5.83304e-05
9 *6489:CLK *5943:A2 0.000106141
10 *6489:D *5943:A2 0.000139913
11 *482:104 *5943:A2 9.76491e-05
12 *482:104 *505:6 5.62995e-05
*RES
1 *6379:Q *505:6 10.2464 
2 *505:6 *6633:A 9.72857 
3 *505:6 *5943:A2 26.1304 
*END

*D_NET *506 0.00259283
*CONN
*I *6576:A I *D sky130_fd_sc_hd__dlygate4sd3_1
*I *5952:A2 I *D sky130_fd_sc_hd__mux4_1
*I *6380:Q O *D sky130_fd_sc_hd__dfxtp_1
*CAP
1 *6576:A 8.78404e-05
2 *5952:A2 0.000212593
3 *6380:Q 0.000242085
4 *506:10 0.000542518
5 *5952:A2 *5952:A1 0.000199758
6 *5952:A2 *6101:A0 7.49387e-06
7 *5952:A2 *746:31 6.28241e-05
8 *6576:A *746:20 4.94362e-05
9 *6576:A *757:56 0.000186338
10 *506:10 *757:56 0.000317594
11 *5952:S0 *5952:A2 9.90431e-05
12 *351:101 *5952:A2 0.000530078
13 *484:6 *506:10 5.52238e-05
14 *484:19 *506:10 0
15 *484:34 *6576:A 0
16 *484:34 *506:10 0
*RES
1 *6380:Q *506:10 18.4071 
2 *506:10 *5952:A2 21.5902 
3 *506:10 *6576:A 16.3536 
*END

*D_NET *507 0.00237213
*CONN
*I *5961:A2 I *D sky130_fd_sc_hd__mux4_1
*I *6556:A I *D sky130_fd_sc_hd__dlygate4sd3_1
*I *6381:Q O *D sky130_fd_sc_hd__dfxtp_1
*CAP
1 *5961:A2 0.000439862
2 *6556:A 0.000166541
3 *6381:Q 3.78071e-05
4 *507:6 0.00064421
5 *5961:A2 *5961:A0 0.000397924
6 *5961:A2 *5961:A1 5.92605e-05
7 *5961:A2 *6083:A0 0.000166416
8 *5961:A2 *6531:A 4.71964e-05
9 *5961:A2 *515:10 2.8266e-06
10 *5962:A0 *6556:A 8.59039e-05
11 *5962:A1 *5961:A2 1.00442e-05
12 *5962:S *6556:A 0.000250208
13 *6103:S *6556:A 0
14 *486:106 *6556:A 6.39262e-05
*RES
1 *6381:Q *507:6 9.83571 
2 *507:6 *6556:A 23.5857 
3 *507:6 *5961:A2 27.5902 
*END

*D_NET *508 0.00274545
*CONN
*I *5970:A2 I *D sky130_fd_sc_hd__mux4_1
*I *6609:A I *D sky130_fd_sc_hd__dlygate4sd3_1
*I *6382:Q O *D sky130_fd_sc_hd__dfxtp_1
*CAP
1 *5970:A2 0.000347886
2 *6609:A 6.54139e-05
3 *6382:Q 0.000225557
4 *508:14 0.000638857
5 *5970:A2 *5970:A0 1.00442e-05
6 *5970:A2 *6314:A0 9.60875e-05
7 *5970:A2 *6589:A 9.40137e-05
8 *5970:A2 *768:26 4.16984e-05
9 *5970:A2 *768:32 0.000291102
10 *508:14 *5970:A1 6.05161e-06
11 *6106:A *508:14 0
12 *6315:A *5970:A2 2.27416e-05
13 *6492:CLK *508:14 3.90484e-05
14 *6492:D *508:14 0.000196269
15 *233:66 *5970:A2 4.46186e-06
16 *233:81 *5970:A2 4.47013e-05
17 *351:79 *5970:A2 1.14548e-05
18 *470:109 *5970:A2 0.000423396
19 *470:109 *6609:A 0.000186662
*RES
1 *6382:Q *508:14 22.9429 
2 *508:14 *6609:A 11.0679 
3 *508:14 *5970:A2 28.108 
*END

*D_NET *509 0.00300657
*CONN
*I *5979:A2 I *D sky130_fd_sc_hd__mux4_1
*I *6580:A I *D sky130_fd_sc_hd__dlygate4sd3_1
*I *6383:Q O *D sky130_fd_sc_hd__dfxtp_1
*CAP
1 *5979:A2 0.000435543
2 *6580:A 0
3 *6383:Q 0.000265355
4 *509:12 0.000700899
5 *5979:A2 *5979:A0 6.10318e-05
6 *5979:A2 *6107:A0 0.000312222
7 *5979:A2 *6107:A1 0.000134607
8 *5979:A2 *6524:A 8.4751e-05
9 *5979:A2 *779:43 1.98839e-05
10 *5979:A2 *779:54 0.000168526
11 *509:12 *5979:A1 0
12 *5981:A1 *5979:A2 4.87854e-05
13 *6088:A *509:12 0.000148189
14 *6317:A *5979:A2 0.000183726
15 *6509:A *509:12 5.66157e-05
16 *351:31 *509:12 0
17 *470:100 *5979:A2 0.000168526
18 *479:188 *509:12 2.59355e-05
19 *492:8 *509:12 0
20 *493:10 *509:12 0.000191976
*RES
1 *6383:Q *509:12 24.5321 
2 *509:12 *6580:A 9.3 
3 *509:12 *5979:A2 29.6304 
*END

*D_NET *510 0.002073
*CONN
*I *5988:A2 I *D sky130_fd_sc_hd__mux4_1
*I *6617:A I *D sky130_fd_sc_hd__dlygate4sd3_1
*I *6384:Q O *D sky130_fd_sc_hd__dfxtp_1
*CAP
1 *5988:A2 0.000476651
2 *6617:A 0.000201439
3 *6384:Q 0
4 *510:4 0.00067809
5 *5988:A2 *5988:A0 8.4385e-05
6 *5988:A2 *5988:A1 1.92789e-05
7 *6617:A *5988:A1 0
8 *6617:A *6109:A0 5.52238e-05
9 *6617:A *625:116 0.000139097
10 *6617:A *724:120 3.26264e-05
11 *6110:A *6617:A 7.29712e-05
12 *237:150 *6617:A 0.000313241
*RES
1 *6384:Q *510:4 9.3 
2 *510:4 *6617:A 23.4786 
3 *510:4 *5988:A2 15.733 
*END

*D_NET *511 0.00245956
*CONN
*I *6628:A I *D sky130_fd_sc_hd__dlygate4sd3_1
*I *5997:A2 I *D sky130_fd_sc_hd__mux4_1
*I *6385:Q O *D sky130_fd_sc_hd__dfxtp_1
*CAP
1 *6628:A 1.69531e-05
2 *5997:A2 0.000321439
3 *6385:Q 0.000233843
4 *511:10 0.000572234
5 *5997:A2 *5997:A1 7.86304e-05
6 *5997:A2 *5997:A3 0.000373932
7 *5997:A2 *636:73 2.93225e-05
8 *5997:A2 *636:84 0.000151333
9 *6628:A *6111:A0 5.33005e-05
10 *511:10 *5997:A3 0.000142974
11 *511:10 *636:57 4.45768e-06
12 *5998:A0 *5997:A2 0
13 *6091:S *511:10 6.05161e-06
14 *6092:A *511:10 5.39166e-06
15 *6166:S *5997:A2 0.000330902
16 *6166:S *511:10 4.44929e-05
17 *6199:S *6628:A 5.33005e-05
18 *292:12 *511:10 4.038e-06
19 *362:12 *511:10 3.69697e-05
*RES
1 *6385:Q *511:10 17.5143 
2 *511:10 *5997:A2 22.6795 
3 *511:10 *6628:A 14.3357 
*END

*D_NET *512 0.000797357
*CONN
*I *6636:A I *D sky130_fd_sc_hd__dlygate4sd3_1
*I *5932:A3 I *D sky130_fd_sc_hd__mux4_1
*I *6370:Q O *D sky130_fd_sc_hd__dfxtp_1
*CAP
1 *6636:A 5.57104e-05
2 *5932:A3 0.000315403
3 *6370:Q 0
4 *512:4 0.000371114
5 *5937:A0 *5932:A3 2.32625e-05
6 *5937:A0 *6636:A 3.18676e-05
7 *5943:S1 *5932:A3 0
8 *6078:A *5932:A3 0
9 *233:264 *5932:A3 0
10 *339:71 *5932:A3 0
11 *339:81 *5932:A3 0
*RES
1 *6370:Q *512:4 9.3 
2 *512:4 *5932:A3 23.3179 
3 *512:4 *6636:A 10.5679 
*END

*D_NET *513 0.0014589
*CONN
*I *6640:A I *D sky130_fd_sc_hd__dlygate4sd3_1
*I *5943:A3 I *D sky130_fd_sc_hd__mux4_1
*I *6371:Q O *D sky130_fd_sc_hd__dfxtp_1
*CAP
1 *6640:A 0
2 *5943:A3 0.000308286
3 *6371:Q 0.000305011
4 *513:10 0.000613297
5 *5943:A3 *735:162 5.32863e-05
6 *513:10 *735:162 0.000179025
7 *6371:CLK *5943:A3 0
8 *6371:CLK *513:10 0
9 *6371:D *513:10 0
*RES
1 *6371:Q *513:10 18.0321 
2 *513:10 *5943:A3 18.2464 
3 *513:10 *6640:A 13.8 
*END

*D_NET *514 0.00159523
*CONN
*I *5952:A3 I *D sky130_fd_sc_hd__mux4_1
*I *6538:A I *D sky130_fd_sc_hd__dlygate4sd3_1
*I *6372:Q O *D sky130_fd_sc_hd__dfxtp_1
*CAP
1 *5952:A3 0.000188843
2 *6538:A 0.000318862
3 *6372:Q 0.000127836
4 *514:8 0.000635541
5 *5952:A3 *746:31 0
6 *6538:A *746:31 0
7 *6538:A *746:37 0
8 *514:8 *5952:A0 0.000318101
9 *5952:S0 *5952:A3 0
10 *5952:S1 *5952:A3 0
11 *6404:CLK *514:8 6.05161e-06
12 *254:10 *5952:A3 0
13 *254:10 *6538:A 0
14 *339:50 *6538:A 0
15 *339:65 *6538:A 0
*RES
1 *6372:Q *514:8 17.2107 
2 *514:8 *6538:A 19.0857 
3 *514:8 *5952:A3 16.5857 
*END

*D_NET *515 0.00144535
*CONN
*I *6531:A I *D sky130_fd_sc_hd__dlygate4sd3_1
*I *5961:A3 I *D sky130_fd_sc_hd__mux4_1
*I *6373:Q O *D sky130_fd_sc_hd__dfxtp_1
*CAP
1 *6531:A 0.000346947
2 *5961:A3 2.56851e-05
3 *6373:Q 0.000128107
4 *515:10 0.000500739
5 *5961:A3 *5961:A1 5.33433e-05
6 *6531:A *5961:A1 0
7 *6531:A *6083:A0 0
8 *5961:A2 *6531:A 4.71964e-05
9 *5961:A2 *515:10 2.8266e-06
10 *5961:S1 *515:10 0
11 *5962:A1 *5961:A3 3.67257e-05
12 *5962:A1 *6531:A 0
13 *6083:S *6531:A 8.14438e-05
14 *6083:S *515:10 7.8327e-05
15 *6405:CLK *6531:A 8.68665e-05
16 *6491:D *6531:A 0
17 *233:247 *515:10 5.71472e-05
*RES
1 *6373:Q *515:10 16.2821 
2 *515:10 *5961:A3 14.7464 
3 *515:10 *6531:A 20.9071 
*END

*D_NET *516 0.00144509
*CONN
*I *6600:A I *D sky130_fd_sc_hd__dlygate4sd3_1
*I *5970:A3 I *D sky130_fd_sc_hd__mux4_1
*I *6374:Q O *D sky130_fd_sc_hd__dfxtp_1
*CAP
1 *6600:A 6.32994e-05
2 *5970:A3 0.000410743
3 *6374:Q 0
4 *516:4 0.000474042
5 *5970:A3 *768:32 0.000170654
6 *5970:A3 *768:38 0
7 *6160:S *5970:A3 0.000103266
8 *6161:A *5970:A3 7.83659e-05
9 *6374:CLK *5970:A3 5.04589e-05
10 *6374:CLK *6600:A 3.4796e-05
11 *232:81 *5970:A3 0
12 *233:66 *5970:A3 4.94362e-05
13 *382:24 *5970:A3 2.8266e-06
14 *382:53 *6600:A 7.20217e-06
*RES
1 *6374:Q *516:4 9.3 
2 *516:4 *5970:A3 26.8179 
3 *516:4 *6600:A 10.5679 
*END

*D_NET *517 0.00182214
*CONN
*I *6524:A I *D sky130_fd_sc_hd__dlygate4sd3_1
*I *5979:A3 I *D sky130_fd_sc_hd__mux4_1
*I *6375:Q O *D sky130_fd_sc_hd__dfxtp_1
*CAP
1 *6524:A 0.000428274
2 *5979:A3 4.50835e-05
3 *6375:Q 0.000193552
4 *517:6 0.00066691
5 *5979:A3 *5979:A0 4.01768e-05
6 *6524:A *5979:A0 6.28581e-05
7 *517:6 *5979:A0 6.05148e-05
8 *5979:A2 *6524:A 8.4751e-05
9 *5980:A1 *6524:A 5.62995e-05
10 *492:16 *517:6 0.00018372
*RES
1 *6375:Q *517:6 13.1214 
2 *517:6 *5979:A3 10.675 
3 *517:6 *6524:A 16.05 
*END

*D_NET *518 0.00197618
*CONN
*I *5988:A3 I *D sky130_fd_sc_hd__mux4_1
*I *6607:A I *D sky130_fd_sc_hd__dlygate4sd3_1
*I *6376:Q O *D sky130_fd_sc_hd__dfxtp_1
*CAP
1 *5988:A3 0.000252935
2 *6607:A 0
3 *6376:Q 0.000212244
4 *518:12 0.000465179
5 *5988:A3 *6089:A0 4.18895e-05
6 *518:12 *6089:A0 0.000202639
7 *5988:S0 *5988:A3 1.95906e-05
8 *6089:S *5988:A3 2.89016e-05
9 *6089:S *518:12 0.00010986
10 *6481:CLK *518:12 0.000268396
11 *230:140 *5988:A3 0.000374548
12 *284:16 *5988:A3 0
*RES
1 *6376:Q *518:12 14.925 
2 *518:12 *6607:A 9.3 
3 *518:12 *5988:A3 23.8179 
*END

*D_NET *519 0.00325573
*CONN
*I *6635:A I *D sky130_fd_sc_hd__dlygate4sd3_1
*I *5997:A3 I *D sky130_fd_sc_hd__mux4_1
*I *6377:Q O *D sky130_fd_sc_hd__dfxtp_1
*CAP
1 *6635:A 0.000139625
2 *5997:A3 0.000405621
3 *6377:Q 0.000251793
4 *519:10 0.00079704
5 *5997:A3 *6166:A0 8.00806e-05
6 *5997:A3 *636:65 0.00021084
7 *5997:A3 *636:84 0.000128146
8 *6635:A *6091:A0 8.21467e-05
9 *519:10 *636:65 0.000101545
10 *5997:A2 *5997:A3 0.000373932
11 *6091:S *6635:A 9.41642e-05
12 *6091:S *519:10 0.000150625
13 *6166:S *519:10 3.25078e-05
14 *6167:A *5997:A3 3.09371e-05
15 *6409:D *5997:A3 0
16 *6495:CLK *5997:A3 7.21954e-05
17 *6495:D *5997:A3 0
18 *362:12 *5997:A3 9.11365e-06
19 *362:12 *519:10 5.90443e-06
20 *411:77 *519:10 0.000146533
21 *511:10 *5997:A3 0.000142974
*RES
1 *6377:Q *519:10 18.6393 
2 *519:10 *5997:A3 23.6929 
3 *519:10 *6635:A 16.4071 
*END

*D_NET *520 0.00311889
*CONN
*I *6549:A I *D sky130_fd_sc_hd__dlygate4sd3_1
*I *5931:A0 I *D sky130_fd_sc_hd__mux4_1
*I *6362:Q O *D sky130_fd_sc_hd__dfxtp_1
*CAP
1 *6549:A 0.000248109
2 *5931:A0 0.000865121
3 *6362:Q 0
4 *520:4 0.00111323
5 *5931:A0 *5931:A2 1.14548e-05
6 *5931:A0 *5931:A3 0.000127072
7 *5931:S1 *5931:A0 3.4879e-05
8 *5933:A0 *5931:A0 0.000106533
9 *5933:A1 *6549:A 3.48705e-05
10 *5962:S *6549:A 4.27935e-05
11 *230:211 *5931:A0 9.71197e-05
12 *230:211 *6549:A 0.000357048
13 *232:151 *5931:A0 5.76321e-06
14 *259:18 *5931:A0 7.48999e-05
*RES
1 *6362:Q *520:4 9.3 
2 *520:4 *5931:A0 30.9429 
3 *520:4 *6549:A 14.3714 
*END

*D_NET *521 0.00381088
*CONN
*I *6644:A I *D sky130_fd_sc_hd__dlygate4sd3_1
*I *5942:A0 I *D sky130_fd_sc_hd__mux4_1
*I *6363:Q O *D sky130_fd_sc_hd__dfxtp_1
*CAP
1 *6644:A 0.000119541
2 *5942:A0 0.000919888
3 *6363:Q 0.000266718
4 *521:6 0.00130615
5 *5942:A0 *6006:A0 4.67211e-05
6 *5932:S0 *6644:A 0.000250208
7 *6306:S *6644:A 0
8 *6355:D *5942:A0 9.41642e-05
9 *6363:CLK *5942:A0 0.000317226
10 *6363:D *5942:A0 3.03133e-05
11 *230:128 *5942:A0 0.000315179
12 *232:167 *5942:A0 4.38136e-05
13 *233:191 *5942:A0 0.00010096
*RES
1 *6363:Q *521:6 12.3 
2 *521:6 *5942:A0 33.8714 
3 *521:6 *6644:A 21.4607 
*END

*D_NET *522 0.00290775
*CONN
*I *6591:A I *D sky130_fd_sc_hd__dlygate4sd3_1
*I *5951:A0 I *D sky130_fd_sc_hd__mux4_1
*I *6364:Q O *D sky130_fd_sc_hd__dfxtp_1
*CAP
1 *6591:A 0.000130231
2 *5951:A0 0.000717937
3 *6364:Q 0.000184591
4 *522:6 0.00103276
5 *5951:A0 *5951:A1 0.000137983
6 *5951:A0 *5951:A2 3.13421e-05
7 *5951:S0 *5951:A0 7.49933e-05
8 *5953:A0 *5951:A0 9.25014e-06
9 *16:5 *5951:A0 6.76272e-05
10 *16:5 *6591:A 0.000134758
11 *232:141 *5951:A0 0.000206272
12 *233:139 *5951:A0 4.79842e-05
13 *233:150 *5951:A0 2.88517e-05
14 *484:96 *5951:A0 9.71197e-05
15 *486:72 *6591:A 0
16 *486:72 *522:6 6.05161e-06
*RES
1 *6364:Q *522:6 11.4786 
2 *522:6 *5951:A0 30.175 
3 *522:6 *6591:A 21.4607 
*END

*D_NET *523 0.00300923
*CONN
*I *6532:A I *D sky130_fd_sc_hd__dlygate4sd3_1
*I *5960:A0 I *D sky130_fd_sc_hd__mux4_1
*I *6365:Q O *D sky130_fd_sc_hd__dfxtp_1
*CAP
1 *6532:A 2.23854e-05
2 *5960:A0 0.000739709
3 *6365:Q 0.000468778
4 *523:12 0.00123087
5 *5960:A0 *5960:A1 3.18676e-05
6 *5960:A0 *5960:A3 5.52302e-05
7 *523:12 *6065:A0 0
8 *6357:D *5960:A0 8.42801e-05
9 *6365:D *5960:A0 0.000227532
10 *232:141 *5960:A0 3.67364e-05
11 *319:105 *5960:A0 3.34783e-05
12 *486:93 *5960:A0 7.83659e-05
*RES
1 *6365:Q *523:12 25.5143 
2 *523:12 *5960:A0 30.0857 
3 *523:12 *6532:A 9.72857 
*END

*D_NET *524 0.00268183
*CONN
*I *5969:A0 I *D sky130_fd_sc_hd__mux4_1
*I *6553:A I *D sky130_fd_sc_hd__dlygate4sd3_1
*I *6366:Q O *D sky130_fd_sc_hd__dfxtp_1
*CAP
1 *5969:A0 0.000594093
2 *6553:A 0.000246217
3 *6366:Q 0.00021319
4 *524:8 0.0010535
5 *5969:A0 *5969:A2 0.000116999
6 *5971:A0 *6553:A 0
7 *233:81 *5969:A0 3.34687e-05
8 *233:81 *6553:A 0.000105582
9 *233:98 *5969:A0 6.69718e-06
10 *233:139 *5969:A0 1.20814e-05
11 *329:50 *6553:A 2.70354e-05
12 *329:62 *6553:A 5.63018e-05
13 *484:44 *524:8 0.000216664
*RES
1 *6366:Q *524:8 16.8 
2 *524:8 *6553:A 18.4429 
3 *524:8 *5969:A0 21.4429 
*END

*D_NET *525 0.0026341
*CONN
*I *6616:A I *D sky130_fd_sc_hd__dlygate4sd3_1
*I *5978:A0 I *D sky130_fd_sc_hd__mux4_1
*I *6367:Q O *D sky130_fd_sc_hd__dfxtp_1
*CAP
1 *6616:A 0.000102907
2 *5978:A0 0.000702923
3 *6367:Q 0.00019662
4 *525:10 0.00100245
5 *5978:A0 *5978:A2 0.000127864
6 *5978:A0 *541:6 4.0342e-06
7 *6013:A *6616:A 0
8 *6013:A *525:10 0
9 *6342:D *6616:A 0
10 *6342:D *525:10 0
11 *233:98 *5978:A0 0.000152981
12 *298:37 *525:10 1.71774e-05
13 *493:71 *6616:A 0.000174805
14 *493:73 *6616:A 2.48938e-05
15 *493:73 *525:10 0.000127446
*RES
1 *6367:Q *525:10 16.8 
2 *525:10 *5978:A0 23.8536 
3 *525:10 *6616:A 16.3536 
*END

*D_NET *526 0.00422792
*CONN
*I *6539:A I *D sky130_fd_sc_hd__dlygate4sd3_1
*I *5987:A0 I *D sky130_fd_sc_hd__mux4_1
*I *6368:Q O *D sky130_fd_sc_hd__dfxtp_1
*CAP
1 *6539:A 0.000309908
2 *5987:A0 0.000729639
3 *6368:Q 0.000274375
4 *526:6 0.00131392
5 *5987:A0 *5987:A2 0.000183726
6 *5987:A0 *5987:A3 0.000160591
7 *5987:A0 *6053:A0 8.27184e-06
8 *5987:A0 *6651:A 0.000265385
9 *5987:A0 *542:6 1.24368e-05
10 *6043:S *5987:A0 8.27441e-05
11 *6043:S *6539:A 8.32242e-05
12 *6043:S *526:6 1.07719e-05
13 *6368:CLK *5987:A0 5.33433e-05
14 *6368:D *5987:A0 4.87669e-06
15 *230:128 *6539:A 0.000250208
16 *232:157 *5987:A0 0.000348111
17 *232:167 *5987:A0 4.46186e-06
18 *329:87 *6539:A 0
19 *460:80 *5987:A0 3.42616e-05
20 *485:118 *526:6 9.76689e-05
*RES
1 *6368:Q *526:6 12.7107 
2 *526:6 *5987:A0 31.7107 
3 *526:6 *6539:A 24.4607 
*END

*D_NET *527 0.00294732
*CONN
*I *6555:A I *D sky130_fd_sc_hd__dlygate4sd3_1
*I *5996:A0 I *D sky130_fd_sc_hd__mux4_1
*I *6369:Q O *D sky130_fd_sc_hd__dfxtp_1
*CAP
1 *6555:A 7.49073e-05
2 *5996:A0 0.000837457
3 *6369:Q 0.000180748
4 *527:6 0.00109311
5 *5996:A0 *5996:A3 0.000358977
6 *5996:A0 *6018:A1 0
7 *5996:A0 *6606:A 6.17227e-05
8 *6555:A *6073:A0 5.33005e-05
9 *6369:CLK *5996:A0 1.92789e-05
10 *6369:D *5996:A0 3.32132e-06
11 *298:18 *5996:A0 0
12 *298:33 *5996:A0 4.22505e-05
13 *298:33 *527:6 2.38671e-05
14 *319:12 *5996:A0 0
15 *329:10 *6555:A 6.1684e-05
16 *329:29 *6555:A 1.02504e-05
17 *493:10 *6555:A 0.000126439
*RES
1 *6369:Q *527:6 11.4786 
2 *527:6 *5996:A0 29.8 
3 *527:6 *6555:A 20.4786 
*END

*D_NET *528 0.00230289
*CONN
*I *6523:A I *D sky130_fd_sc_hd__dlygate4sd3_1
*I *5931:A1 I *D sky130_fd_sc_hd__mux4_1
*I *6354:Q O *D sky130_fd_sc_hd__dfxtp_1
*CAP
1 *6523:A 0
2 *5931:A1 0.000423505
3 *6354:Q 0.000111088
4 *528:12 0.000534593
5 *5931:A1 *5931:A3 0.000191194
6 *5931:A1 *6288:A0 5.29944e-05
7 *5931:A1 *724:151 8.51772e-05
8 *6042:A *5931:A1 0.000403817
9 *6354:D *5931:A1 8.07313e-05
10 *232:143 *528:12 0.000117189
11 *232:151 *5931:A1 0
12 *232:151 *528:12 9.25014e-06
13 *232:157 *5931:A1 9.25014e-06
14 *351:101 *528:12 9.60939e-05
15 *460:78 *5931:A1 5.98489e-05
16 *486:34 *528:12 0.000128161
*RES
1 *6354:Q *528:12 20.8893 
2 *528:12 *5931:A1 28.3 
3 *528:12 *6523:A 9.3 
*END

*D_NET *529 0.00279241
*CONN
*I *6642:A I *D sky130_fd_sc_hd__dlygate4sd3_1
*I *5942:A1 I *D sky130_fd_sc_hd__mux4_1
*I *6355:Q O *D sky130_fd_sc_hd__dfxtp_1
*CAP
1 *6642:A 0
2 *5942:A1 0.0007321
3 *6355:Q 0.000326769
4 *529:16 0.00105887
5 *5942:A1 *6043:A0 6.43808e-05
6 *529:16 *6043:A0 5.33005e-05
7 *529:16 *6061:A1 9.91086e-05
8 *5942:S1 *5942:A1 0.000213169
9 *233:191 *5942:A1 0.000143888
10 *351:119 *529:16 0.000100831
*RES
1 *6355:Q *529:16 23.1929 
2 *529:16 *5942:A1 20.0679 
3 *529:16 *6642:A 9.3 
*END

*D_NET *530 0.00326719
*CONN
*I *6653:A I *D sky130_fd_sc_hd__dlygate4sd3_1
*I *5951:A1 I *D sky130_fd_sc_hd__mux4_1
*I *6356:Q O *D sky130_fd_sc_hd__dfxtp_1
*CAP
1 *6653:A 0.000264572
2 *5951:A1 0.000988954
3 *6356:Q 0
4 *530:4 0.00125353
5 *5951:A1 *5951:A3 0
6 *5951:A1 *6045:A1 7.56854e-05
7 *5951:A1 *6292:A0 5.01213e-05
8 *5951:A1 *746:14 0
9 *5951:A0 *5951:A1 0.000137983
10 *6046:A *6653:A 9.15842e-06
11 *6063:S *5951:A1 0
12 *6356:D *5951:A1 7.26807e-05
13 *6364:CLK *5951:A1 0.000196269
14 *6490:CLK *5951:A1 5.41794e-05
15 *232:118 *5951:A1 9.69119e-06
16 *298:52 *5951:A1 5.52238e-05
17 *319:84 *5951:A1 2.59355e-05
18 *319:84 *6653:A 3.29297e-05
19 *460:66 *5951:A1 0
20 *484:96 *5951:A1 4.02852e-05
*RES
1 *6356:Q *530:4 9.3 
2 *530:4 *5951:A1 35.0857 
3 *530:4 *6653:A 22.8179 
*END

*D_NET *531 0.00218135
*CONN
*I *6521:A I *D sky130_fd_sc_hd__dlygate4sd3_1
*I *5960:A1 I *D sky130_fd_sc_hd__mux4_1
*I *6357:Q O *D sky130_fd_sc_hd__dfxtp_1
*CAP
1 *6521:A 0.000184665
2 *5960:A1 0.000690488
3 *6357:Q 0
4 *531:6 0.000875153
5 *5960:A1 *5960:A2 1.40749e-05
6 *5960:A1 *5960:A3 0.000147971
7 *5960:A0 *5960:A1 3.18676e-05
8 *5960:S0 *5960:A1 0.000186669
9 *5960:S1 *5960:A1 3.17163e-05
10 *6066:A *5960:A1 0
11 *6066:A *6521:A 0
12 *6294:S *5960:A1 0
13 *486:93 *5960:A1 1.87473e-05
*RES
1 *6357:Q *531:6 13.8 
2 *531:6 *5960:A1 24.3179 
3 *531:6 *6521:A 16.9607 
*END

*D_NET *532 0.00301788
*CONN
*I *6627:A I *D sky130_fd_sc_hd__dlygate4sd3_1
*I *5969:A1 I *D sky130_fd_sc_hd__mux4_1
*I *6358:Q O *D sky130_fd_sc_hd__dfxtp_1
*CAP
1 *6627:A 7.45054e-05
2 *5969:A1 0.000515803
3 *6358:Q 0.000149657
4 *532:6 0.000739966
5 *5969:A1 *6612:A 7.50697e-05
6 *5969:A1 *548:8 1.79387e-05
7 *5969:A1 *768:18 0
8 *6627:A *768:14 1.06172e-05
9 *6627:A *768:16 2.71192e-05
10 *6013:A *5969:A1 0
11 *6297:A *5969:A1 0.000267917
12 *6358:D *5969:A1 0.000314608
13 *6358:D *532:6 0.000214742
14 *329:50 *5969:A1 0.000148189
15 *460:43 *5969:A1 0.000385861
16 *460:66 *6627:A 7.58841e-05
*RES
1 *6358:Q *532:6 11.4786 
2 *532:6 *5969:A1 29.7286 
3 *532:6 *6627:A 19.9429 
*END

*D_NET *533 0.00329288
*CONN
*I *6622:A I *D sky130_fd_sc_hd__dlygate4sd3_1
*I *5978:A1 I *D sky130_fd_sc_hd__mux4_1
*I *6359:Q O *D sky130_fd_sc_hd__dfxtp_1
*CAP
1 *6622:A 0.000275731
2 *5978:A1 0.000780916
3 *6359:Q 0
4 *533:4 0.00105665
5 *5978:A1 *5978:A2 0.000340109
6 *5978:A1 *5978:A3 8.99641e-05
7 *5978:A1 *541:6 0.000196163
8 *5978:A1 *779:33 0
9 *6622:A *779:181 0.000244176
10 *6070:A *5978:A1 7.83659e-05
11 *6484:CLK *6622:A 0
12 *319:51 *5978:A1 0.00011623
13 *493:69 *5978:A1 0.000114577
14 *493:71 *6622:A 0
*RES
1 *6359:Q *533:4 9.3 
2 *533:4 *5978:A1 31.0857 
3 *533:4 *6622:A 23.8893 
*END

*D_NET *534 0.00300012
*CONN
*I *6651:A I *D sky130_fd_sc_hd__dlygate4sd3_1
*I *5987:A1 I *D sky130_fd_sc_hd__mux4_1
*I *6360:Q O *D sky130_fd_sc_hd__dfxtp_1
*CAP
1 *6651:A 0.000160013
2 *5987:A1 0.000236025
3 *6360:Q 0.000460302
4 *534:16 0.000856339
5 *5987:A1 *5987:A3 0.000118267
6 *5987:A1 *542:6 4.45768e-06
7 *534:16 *5987:A2 9.12033e-06
8 *534:16 *5987:A3 5.5671e-05
9 *534:16 *6053:A1 0
10 *5987:A0 *6651:A 0.000265385
11 *6054:A *6651:A 7.83659e-05
12 *6054:A *534:16 0.000106822
13 *232:157 *6651:A 0.000134504
14 *233:181 *534:16 7.2754e-05
15 *284:16 *534:16 8.46507e-06
16 *460:80 *6651:A 0.00023524
17 *485:14 *534:16 1.76135e-05
18 *485:86 *534:16 0.000180777
*RES
1 *6360:Q *534:16 25.8536 
2 *534:16 *5987:A1 12.6214 
3 *534:16 *6651:A 24.8 
*END

*D_NET *535 0.0031802
*CONN
*I *6583:A I *D sky130_fd_sc_hd__dlygate4sd3_1
*I *5996:A1 I *D sky130_fd_sc_hd__mux4_1
*I *6361:Q O *D sky130_fd_sc_hd__dfxtp_1
*CAP
1 *6583:A 0.000197115
2 *5996:A1 0.000791979
3 *6361:Q 6.94563e-05
4 *535:8 0.00105855
5 *5996:A1 *5996:A2 0.000398327
6 *5996:A1 *5996:A3 0.000149904
7 *6583:A *6055:A0 0
8 *5996:S0 *5996:A1 6.4915e-05
9 *6074:A *5996:A1 4.38604e-05
10 *6345:CLK *5996:A1 9.91031e-05
11 *6361:CLK *535:8 5.33334e-05
12 *319:12 *5996:A1 0
13 *319:51 *5996:A1 0
14 *319:51 *6583:A 5.52238e-05
15 *493:27 *5996:A1 0.000169018
16 *493:27 *6583:A 2.94103e-05
*RES
1 *6361:Q *535:8 14.7464 
2 *535:8 *5996:A1 28.3536 
3 *535:8 *6583:A 17.4964 
*END

*D_NET *536 0.0018545
*CONN
*I *5931:A2 I *D sky130_fd_sc_hd__mux4_1
*I *6618:A I *D sky130_fd_sc_hd__dlygate4sd3_1
*I *6338:Q O *D sky130_fd_sc_hd__dfxtp_1
*CAP
1 *5931:A2 0.000485078
2 *6618:A 0
3 *6338:Q 8.45048e-05
4 *536:8 0.000569583
5 *5931:A2 *6004:A0 0.000143625
6 *536:8 *6004:A0 1.33343e-05
7 *5931:A0 *5931:A2 1.14548e-05
8 *232:151 *5931:A2 6.98553e-06
9 *233:181 *5931:A2 0.00013438
10 *486:10 *5931:A2 0.000230039
11 *486:34 *5931:A2 0.000175519
*RES
1 *6338:Q *536:8 10.675 
2 *536:8 *6618:A 9.3 
3 *536:8 *5931:A2 29.5009 
*END

*D_NET *537 0.00268254
*CONN
*I *5942:A2 I *D sky130_fd_sc_hd__mux4_1
*I *6536:A I *D sky130_fd_sc_hd__dlygate4sd3_1
*I *6339:Q O *D sky130_fd_sc_hd__dfxtp_1
*CAP
1 *5942:A2 0.000358548
2 *6536:A 0
3 *6339:Q 0.000306094
4 *537:12 0.000664642
5 *5942:A2 *5942:A3 1.02504e-05
6 *5942:A2 *6043:A0 1.14548e-05
7 *5942:A2 *6043:A1 0.000512047
8 *537:12 *6043:A1 0.000121435
9 *537:12 *6290:A0 9.90367e-05
10 *537:12 *625:122 0
11 *537:12 *724:124 0.000129868
12 *5942:S1 *5942:A2 2.524e-05
13 *6043:S *5942:A2 9.80173e-05
14 *6044:A *5942:A2 7.12625e-05
15 *6290:S *537:12 0.000144773
16 *6291:A *537:12 2.79092e-05
17 *6355:CLK *5942:A2 5.71472e-05
18 *232:167 *5942:A2 3.97925e-05
19 *232:184 *5942:A2 5.01876e-06
20 *237:169 *5942:A2 0
*RES
1 *6339:Q *537:12 25.4071 
2 *537:12 *6536:A 9.3 
3 *537:12 *5942:A2 27.1973 
*END

*D_NET *538 0.00152636
*CONN
*I *5951:A2 I *D sky130_fd_sc_hd__mux4_1
*I *6605:A I *D sky130_fd_sc_hd__dlygate4sd3_1
*I *6340:Q O *D sky130_fd_sc_hd__dfxtp_1
*CAP
1 *5951:A2 0.00040727
2 *6605:A 0.00011069
3 *6340:Q 0
4 *538:4 0.000517961
5 *5951:A2 *5951:A3 5.83233e-05
6 *6605:A *6008:A0 0
7 *6605:A *746:14 4.79842e-05
8 *5951:A0 *5951:A2 3.13421e-05
9 *5951:S0 *5951:A2 1.15172e-05
10 *6063:S *5951:A2 5.66157e-05
11 *6364:CLK *6605:A 0
12 *232:141 *5951:A2 7.40946e-05
13 *484:96 *5951:A2 0.000153417
14 *484:96 *6605:A 5.71472e-05
*RES
1 *6340:Q *538:4 9.3 
2 *538:4 *6605:A 20.4786 
3 *538:4 *5951:A2 24.3223 
*END

*D_NET *539 0.00161592
*CONN
*I *5960:A2 I *D sky130_fd_sc_hd__mux4_1
*I *6634:A I *D sky130_fd_sc_hd__dlygate4sd3_1
*I *6341:Q O *D sky130_fd_sc_hd__dfxtp_1
*CAP
1 *5960:A2 0.000336083
2 *6634:A 0
3 *6341:Q 3.66591e-05
4 *539:8 0.000372743
5 *5960:A1 *5960:A2 1.40749e-05
6 *5960:S1 *5960:A2 6.08836e-05
7 *232:143 *5960:A2 0
8 *329:81 *5960:A2 0.000354435
9 *329:81 *539:8 5.52302e-05
10 *470:151 *5960:A2 0.000364837
11 *470:151 *539:8 1.39841e-05
12 *486:93 *5960:A2 6.98553e-06
*RES
1 *6341:Q *539:8 10.2643 
2 *539:8 *6634:A 9.3 
3 *539:8 *5960:A2 27.733 
*END

*D_NET *540 0.00141753
*CONN
*I *5969:A2 I *D sky130_fd_sc_hd__mux4_1
*I *6612:A I *D sky130_fd_sc_hd__dlygate4sd3_1
*I *6342:Q O *D sky130_fd_sc_hd__dfxtp_1
*CAP
1 *5969:A2 0.000216517
2 *6612:A 9.55382e-05
3 *6342:Q 2.0065e-05
4 *540:6 0.00033212
5 *5969:A0 *5969:A2 0.000116999
6 *5969:A1 *6612:A 7.50697e-05
7 *6013:A *6612:A 0
8 *233:98 *5969:A2 0.000505998
9 *233:98 *540:6 5.52238e-05
*RES
1 *6342:Q *540:6 9.83571 
2 *540:6 *6612:A 20.2464 
3 *540:6 *5969:A2 15.4295 
*END

*D_NET *541 0.00125708
*CONN
*I *5978:A2 I *D sky130_fd_sc_hd__mux4_1
*I *6571:A I *D sky130_fd_sc_hd__dlygate4sd3_1
*I *6343:Q O *D sky130_fd_sc_hd__dfxtp_1
*CAP
1 *5978:A2 0.000121347
2 *6571:A 0.000110867
3 *6343:Q 3.91072e-05
4 *541:6 0.000271321
5 *5978:A0 *5978:A2 0.000127864
6 *5978:A0 *541:6 4.0342e-06
7 *5978:A1 *5978:A2 0.000340109
8 *5978:A1 *541:6 0.000196163
9 *6014:S *6571:A 4.62632e-05
10 *460:31 *6571:A 0
*RES
1 *6343:Q *541:6 10.6571 
2 *541:6 *6571:A 20.2464 
3 *541:6 *5978:A2 13.7866 
*END

*D_NET *542 0.00193737
*CONN
*I *5987:A2 I *D sky130_fd_sc_hd__mux4_1
*I *6520:A I *D sky130_fd_sc_hd__dlygate4sd3_1
*I *6344:Q O *D sky130_fd_sc_hd__dfxtp_1
*CAP
1 *5987:A2 0.000307667
2 *6520:A 6.1151e-05
3 *6344:Q 0.000273629
4 *542:6 0.000642447
5 *5987:A2 *5987:A3 6.13217e-05
6 *5987:A2 *625:142 5.66157e-05
7 *6520:A *6650:A 0.000148189
8 *542:6 *5987:A3 1.21258e-05
9 *5987:A0 *5987:A2 0.000183726
10 *5987:A0 *542:6 1.24368e-05
11 *5987:A1 *542:6 4.45768e-06
12 *5987:S0 *5987:A2 5.52238e-05
13 *5987:S1 *5987:A2 2.49484e-05
14 *6290:S *6520:A 4.25523e-05
15 *284:16 *5987:A2 9.25014e-06
16 *460:80 *6520:A 3.25078e-05
17 *534:16 *5987:A2 9.12033e-06
*RES
1 *6344:Q *542:6 12.3 
2 *542:6 *6520:A 20.2464 
3 *542:6 *5987:A2 23.0902 
*END

*D_NET *543 0.00130082
*CONN
*I *5996:A2 I *D sky130_fd_sc_hd__mux4_1
*I *6606:A I *D sky130_fd_sc_hd__dlygate4sd3_1
*I *6345:Q O *D sky130_fd_sc_hd__dfxtp_1
*CAP
1 *5996:A2 0.000145168
2 *6606:A 0.000100237
3 *6345:Q 0
4 *543:4 0.000245405
5 *5996:A0 *6606:A 6.17227e-05
6 *5996:A1 *5996:A2 0.000398327
7 *5996:S0 *5996:A2 5.52238e-05
8 *6345:CLK *5996:A2 0.000175054
9 *298:18 *6606:A 0.000119684
10 *319:12 *6606:A 0
*RES
1 *6345:Q *543:4 9.3 
2 *543:4 *6606:A 21.1571 
3 *543:4 *5996:A2 15.0188 
*END

*D_NET *544 0.00244306
*CONN
*I *6522:A I *D sky130_fd_sc_hd__dlygate4sd3_1
*I *5931:A3 I *D sky130_fd_sc_hd__mux4_1
*I *6480:Q O *D sky130_fd_sc_hd__dfxtp_1
*CAP
1 *6522:A 0.000226336
2 *5931:A3 0.000165054
3 *6480:Q 0.000246316
4 *544:10 0.000637706
5 *544:10 *6004:A0 0
6 *544:10 *724:143 0.000123673
7 *5931:A0 *5931:A3 0.000127072
8 *5931:A1 *5931:A3 0.000191194
9 *6289:A *544:10 0
10 *232:151 *5931:A3 6.42095e-05
11 *232:157 *5931:A3 5.33005e-05
12 *460:78 *6522:A 0.000388162
13 *460:78 *544:10 0.000188951
14 *460:80 *544:10 3.10885e-05
*RES
1 *6480:Q *544:10 18.8357 
2 *544:10 *5931:A3 18.05 
3 *544:10 *6522:A 18.7821 
*END

*D_NET *545 0.00305074
*CONN
*I *5942:A3 I *D sky130_fd_sc_hd__mux4_1
*I *6646:A I *D sky130_fd_sc_hd__dlygate4sd3_1
*I *6481:Q O *D sky130_fd_sc_hd__dfxtp_1
*CAP
1 *5942:A3 9.68681e-05
2 *6646:A 0.000677944
3 *6481:Q 0.000458535
4 *545:8 0.00123335
5 *6646:A *6290:A0 4.01768e-05
6 *5942:A2 *5942:A3 1.02504e-05
7 *5945:A0 *6646:A 1.02504e-05
8 *5945:S *6646:A 3.57366e-05
9 *231:22 *6646:A 0
10 *232:184 *5942:A3 6.73313e-05
11 *232:184 *6646:A 0.000128941
12 *237:150 *6646:A 7.26753e-05
13 *237:169 *5942:A3 0
14 *237:169 *6646:A 0
15 *247:14 *6646:A 0.000218685
*RES
1 *6481:Q *545:8 18.8536 
2 *545:8 *6646:A 26.55 
3 *545:8 *5942:A3 15.7464 
*END

*D_NET *546 0.00188882
*CONN
*I *5951:A3 I *D sky130_fd_sc_hd__mux4_1
*I *6593:A I *D sky130_fd_sc_hd__dlygate4sd3_1
*I *6482:Q O *D sky130_fd_sc_hd__dfxtp_1
*CAP
1 *5951:A3 0.00053775
2 *6593:A 1.99857e-05
3 *6482:Q 8.66247e-05
4 *546:8 0.00064436
5 *5951:A3 *6292:A0 3.2534e-05
6 *5951:A1 *5951:A3 0
7 *5951:A2 *5951:A3 5.83233e-05
8 *6046:A *5951:A3 1.33343e-05
9 *6063:S *5951:A3 7.79428e-05
10 *6064:A *5951:A3 0.000148196
11 *16:5 *5951:A3 0
12 *319:84 *5951:A3 0.000215348
13 *319:84 *6593:A 1.04232e-05
14 *319:84 *546:8 4.39965e-05
*RES
1 *6482:Q *546:8 10.675 
2 *546:8 *6593:A 9.72857 
3 *546:8 *5951:A3 29.05 
*END

*D_NET *547 0.00201658
*CONN
*I *6602:A I *D sky130_fd_sc_hd__dlygate4sd3_1
*I *5960:A3 I *D sky130_fd_sc_hd__mux4_1
*I *6483:Q O *D sky130_fd_sc_hd__dfxtp_1
*CAP
1 *6602:A 9.63719e-05
2 *5960:A3 0.000238324
3 *6483:Q 0
4 *547:6 0.000334696
5 *5960:A3 *6047:A1 6.09572e-05
6 *5960:A3 *6294:A0 7.83659e-05
7 *6602:A *6047:A1 0.000160149
8 *6602:A *6294:A0 0.000202128
9 *5960:A0 *5960:A3 5.52302e-05
10 *5960:A1 *5960:A3 0.000147971
11 *5960:S0 *5960:A3 0.000186669
12 *232:141 *5960:A3 0.000268409
13 *319:105 *5960:A3 1.37292e-05
14 *319:105 *6602:A 3.19058e-05
15 *486:93 *5960:A3 0.000141677
*RES
1 *6483:Q *547:6 13.8 
2 *547:6 *5960:A3 21.8714 
3 *547:6 *6602:A 17.4964 
*END

*D_NET *548 0.00312066
*CONN
*I *5969:A3 I *D sky130_fd_sc_hd__mux4_1
*I *6552:A I *D sky130_fd_sc_hd__dlygate4sd3_1
*I *6484:Q O *D sky130_fd_sc_hd__dfxtp_1
*CAP
1 *5969:A3 0.00051608
2 *6552:A 0.000258157
3 *6484:Q 0.000153578
4 *548:8 0.000927816
5 *5969:A3 *6049:A0 0
6 *6552:A *768:14 0.000211061
7 *6552:A *768:16 0.00014261
8 *5969:A1 *548:8 1.79387e-05
9 *5969:S0 *5969:A3 1.41706e-05
10 *6068:A *5969:A3 4.13573e-05
11 *6358:CLK *5969:A3 2.56723e-05
12 *6358:CLK *548:8 0.000125005
13 *6358:D *5969:A3 0.000265438
14 *6358:D *548:8 0.000144241
15 *6366:D *5969:A3 0.000148189
16 *460:43 *6552:A 3.32662e-05
17 *460:66 *5969:A3 9.60815e-05
*RES
1 *6484:Q *548:8 13.0321 
2 *548:8 *6552:A 23.925 
3 *548:8 *5969:A3 28.6036 
*END

*D_NET *549 0.00215098
*CONN
*I *5978:A3 I *D sky130_fd_sc_hd__mux4_1
*I *6526:A I *D sky130_fd_sc_hd__dlygate4sd3_1
*I *6485:Q O *D sky130_fd_sc_hd__dfxtp_1
*CAP
1 *5978:A3 0.000468776
2 *6526:A 0.000148964
3 *6485:Q 0.000119179
4 *549:6 0.000736918
5 *5978:A3 *6298:A0 1.16543e-05
6 *5978:A3 *6298:A1 9.87041e-05
7 *5978:A1 *5978:A3 8.99641e-05
8 *5978:S0 *5978:A3 1.99099e-05
9 *6070:A *5978:A3 2.60158e-05
10 *6298:S *5978:A3 9.17718e-05
11 *6298:S *6526:A 1.06172e-05
12 *6359:D *5978:A3 0.000174954
13 *319:51 *5978:A3 8.07951e-05
14 *460:31 *5978:A3 7.27614e-05
*RES
1 *6485:Q *549:6 11.0679 
2 *549:6 *6526:A 21.1571 
3 *549:6 *5978:A3 28.6571 
*END

*D_NET *550 0.00186335
*CONN
*I *5987:A3 I *D sky130_fd_sc_hd__mux4_1
*I *6650:A I *D sky130_fd_sc_hd__dlygate4sd3_1
*I *6486:Q O *D sky130_fd_sc_hd__dfxtp_1
*CAP
1 *5987:A3 0.000142892
2 *6650:A 0.000203444
3 *6486:Q 0.000164926
4 *550:10 0.000511262
5 *6650:A *625:122 6.74815e-05
6 *6650:A *724:124 0
7 *550:10 *724:124 0
8 *5987:A0 *5987:A3 0.000160591
9 *5987:A1 *5987:A3 0.000118267
10 *5987:A2 *5987:A3 6.13217e-05
11 *5987:S0 *5987:A3 5.52238e-05
12 *6290:S *6650:A 1.18451e-05
13 *6301:A *6650:A 4.25716e-05
14 *6301:A *550:10 1.00375e-05
15 *6520:A *6650:A 0.000148189
16 *460:80 *6650:A 1.91512e-05
17 *460:80 *550:10 4.94362e-05
18 *485:20 *550:10 2.89114e-05
19 *534:16 *5987:A3 5.5671e-05
20 *542:6 *5987:A3 1.21258e-05
*RES
1 *6486:Q *550:10 16.2821 
2 *550:10 *6650:A 18.4786 
3 *550:10 *5987:A3 18.6036 
*END

*D_NET *551 0.00245031
*CONN
*I *5996:A3 I *D sky130_fd_sc_hd__mux4_1
*I *6641:A I *D sky130_fd_sc_hd__dlygate4sd3_1
*I *6487:Q O *D sky130_fd_sc_hd__dfxtp_1
*CAP
1 *5996:A3 0.000378805
2 *6641:A 0.000106927
3 *6487:Q 0.000108044
4 *551:6 0.000593776
5 *5996:A3 *6018:A0 5.04589e-05
6 *6641:A *6018:A1 5.33978e-05
7 *6641:A *636:23 2.49484e-05
8 *5996:A0 *5996:A3 0.000358977
9 *5996:A1 *5996:A3 0.000149904
10 *6019:A *551:6 2.27416e-05
11 *298:33 *5996:A3 0.000602333
12 *319:12 *5996:A3 0
13 *460:8 *6641:A 0
*RES
1 *6487:Q *551:6 11.0679 
2 *551:6 *6641:A 20.2464 
3 *551:6 *5996:A3 28.3893 
*END

*D_NET *552 0.00364784
*CONN
*I *5925:A1 I *D sky130_fd_sc_hd__mux4_1
*I *6545:A I *D sky130_fd_sc_hd__dlygate4sd3_1
*I *6346:Q O *D sky130_fd_sc_hd__dfxtp_1
*CAP
1 *5925:A1 0
2 *6545:A 0.000339144
3 *6346:Q 0.000715531
4 *552:10 0.00105467
5 *6545:A *6134:A0 0.000230482
6 *6545:A *6548:A 0.000127522
7 *552:10 *6187:A0 0
8 *552:10 *6548:A 1.17968e-05
9 *5925:S0 *6545:A 0
10 *5990:A1 *6545:A 9.31893e-05
11 *6024:A *6545:A 0.000153047
12 *6346:CLK *552:10 0.00028172
13 *6346:D *552:10 0.000417949
14 *237:124 *6545:A 0.000222784
15 *255:14 *6545:A 0
16 *255:14 *552:10 0
*RES
1 *6346:Q *552:10 24.1929 
2 *552:10 *6545:A 22.9071 
3 *552:10 *5925:A1 13.8 
*END

*D_NET *553 0.00412565
*CONN
*I *6579:A I *D sky130_fd_sc_hd__dlygate4sd3_1
*I *5940:A1 I *D sky130_fd_sc_hd__mux4_1
*I *6347:Q O *D sky130_fd_sc_hd__dfxtp_1
*CAP
1 *6579:A 0.000357583
2 *5940:A1 0.000780877
3 *6347:Q 4.00511e-05
4 *553:6 0.00117851
5 *5940:A1 *6136:A0 5.80706e-06
6 *6579:A *6025:A0 0.000611988
7 *5928:A0 *6579:A 0.000241576
8 *5941:A1 *6579:A 0.000141985
9 *6347:D *5940:A1 0.000385276
10 *225:136 *5940:A1 0
11 *226:133 *6579:A 0
12 *226:170 *6579:A 0
13 *239:180 *6579:A 8.25843e-06
14 *239:184 *6579:A 0.000111451
15 *481:35 *5940:A1 0.000246471
16 *481:35 *553:6 1.58163e-05
17 *481:41 *5940:A1 0
*RES
1 *6347:Q *553:6 9.83571 
2 *553:6 *5940:A1 29.3893 
3 *553:6 *6579:A 28.4964 
*END

*D_NET *554 0.0024804
*CONN
*I *5949:A1 I *D sky130_fd_sc_hd__mux4_1
*I *6525:A I *D sky130_fd_sc_hd__dlygate4sd3_1
*I *6348:Q O *D sky130_fd_sc_hd__dfxtp_1
*CAP
1 *5949:A1 0.000701703
2 *6525:A 0.000171902
3 *6348:Q 0
4 *554:6 0.000873606
5 *5949:A1 *5949:A2 1.14548e-05
6 *5949:A1 *5949:A3 3.14078e-05
7 *5949:A1 *570:10 6.01053e-05
8 *6525:A *625:114 7.75093e-05
9 *5949:A0 *5949:A1 2.89016e-05
10 *5949:S1 *5949:A1 1.92789e-05
11 *5954:A0 *5949:A1 0.000142358
12 *5954:A0 *6525:A 9.54798e-06
13 *6029:S *5949:A1 7.8327e-05
14 *226:204 *5949:A1 5.74562e-05
15 *226:204 *6525:A 8.22614e-05
16 *309:69 *5949:A1 4.93999e-05
17 *309:69 *6525:A 4.20719e-05
18 *411:111 *6525:A 0
19 *495:88 *5949:A1 4.31086e-05
*RES
1 *6348:Q *554:6 13.8 
2 *554:6 *6525:A 17.4964 
3 *554:6 *5949:A1 23.8714 
*END

*D_NET *555 0.00244754
*CONN
*I *6560:A I *D sky130_fd_sc_hd__dlygate4sd3_1
*I *5958:A1 I *D sky130_fd_sc_hd__mux4_1
*I *6349:Q O *D sky130_fd_sc_hd__dfxtp_1
*CAP
1 *6560:A 0.000493081
2 *5958:A1 0.00045299
3 *6349:Q 0
4 *555:4 0.000946071
5 *5958:A1 *5958:A2 8.98136e-05
6 *5958:A1 *5958:A3 0.000124609
7 *6560:A *746:45 0
8 *5958:A0 *5958:A1 0.00020054
9 *5958:S1 *5958:A1 7.6644e-05
10 *6193:S *5958:A1 1.3701e-05
11 *6389:CLK *6560:A 5.30637e-06
12 *6389:D *6560:A 4.4787e-05
13 *254:10 *6560:A 0
*RES
1 *6349:Q *555:4 9.3 
2 *555:4 *5958:A1 25.1214 
3 *555:4 *6560:A 25.3714 
*END

*D_NET *556 0.00280356
*CONN
*I *6595:A I *D sky130_fd_sc_hd__dlygate4sd3_1
*I *5967:A1 I *D sky130_fd_sc_hd__mux4_1
*I *6350:Q O *D sky130_fd_sc_hd__dfxtp_1
*CAP
1 *6595:A 0.000158369
2 *5967:A1 0.000665628
3 *6350:Q 0
4 *556:6 0.000823998
5 *5967:A1 *5967:A2 1.05613e-05
6 *5967:A1 *6195:A0 1.13406e-05
7 *5967:A1 *625:51 0
8 *5967:A1 *712:53 0.000128553
9 *6595:A *6031:A0 0.000310292
10 *5967:A0 *5967:A1 0.000291597
11 *6031:S *6595:A 0.000268403
12 *226:131 *5967:A1 7.69776e-06
13 *230:41 *5967:A1 3.88892e-05
14 *230:41 *6595:A 3.93893e-05
15 *237:97 *6595:A 1.39726e-05
16 *295:20 *5967:A1 3.48705e-05
*RES
1 *6350:Q *556:6 13.8 
2 *556:6 *5967:A1 23.3714 
3 *556:6 *6595:A 18.4429 
*END

*D_NET *557 0.00227773
*CONN
*I *6540:A I *D sky130_fd_sc_hd__dlygate4sd3_1
*I *5976:A1 I *D sky130_fd_sc_hd__mux4_1
*I *6351:Q O *D sky130_fd_sc_hd__dfxtp_1
*CAP
1 *6540:A 9.88978e-05
2 *5976:A1 0.000713392
3 *6351:Q 0
4 *557:4 0.00081229
5 *5976:A1 *5976:A3 0.000278657
6 *5976:A1 *6197:A0 7.83659e-05
7 *5976:A0 *5976:A1 0.000150625
8 *5981:A0 *5976:A1 9.10431e-06
9 *6351:D *5976:A1 0.000136395
10 *232:69 *5976:A1 0
*RES
1 *6351:Q *557:4 9.3 
2 *557:4 *5976:A1 30.9429 
3 *557:4 *6540:A 10.9786 
*END

*D_NET *558 0.0025995
*CONN
*I *6630:A I *D sky130_fd_sc_hd__dlygate4sd3_1
*I *5985:A1 I *D sky130_fd_sc_hd__mux4_1
*I *6352:Q O *D sky130_fd_sc_hd__dfxtp_1
*CAP
1 *6630:A 0.000169912
2 *5985:A1 0.000352429
3 *6352:Q 0
4 *558:4 0.000522341
5 *5985:A1 *6587:A 7.83659e-05
6 *6630:A *6035:A0 0.000229456
7 *6630:A *6199:A1 4.13595e-05
8 *5988:S0 *5985:A1 3.61629e-06
9 *5988:S0 *6630:A 7.17136e-05
10 *6352:D *5985:A1 9.31209e-05
11 *6352:D *6630:A 1.00733e-05
12 *232:25 *5985:A1 0.000511411
13 *233:41 *5985:A1 0.000162625
14 *309:52 *6630:A 0.000265453
15 *309:65 *6630:A 8.76257e-05
*RES
1 *6352:Q *558:4 9.3 
2 *558:4 *5985:A1 26.9786 
3 *558:4 *6630:A 14.675 
*END

*D_NET *559 0.00379578
*CONN
*I *6619:A I *D sky130_fd_sc_hd__dlygate4sd3_1
*I *5994:A1 I *D sky130_fd_sc_hd__mux4_1
*I *6353:Q O *D sky130_fd_sc_hd__dfxtp_1
*CAP
1 *6619:A 5.43342e-05
2 *5994:A1 0.00129583
3 *6353:Q 0
4 *559:4 0.00135016
5 *5994:A1 *5997:S1 0.000220026
6 *5994:A1 *6201:A0 0
7 *5994:A1 *791:35 0.000354105
8 *5948:S1 *5994:A1 2.80292e-05
9 *5994:S0 *5994:A1 0
10 *6353:CLK *5994:A1 8.92272e-05
11 *6353:D *5994:A1 0.000190948
12 *226:85 *5994:A1 9.69119e-06
13 *233:31 *5994:A1 0.000102736
14 *372:74 *5994:A1 4.35452e-05
15 *372:74 *6619:A 5.71472e-05
*RES
1 *6353:Q *559:4 9.3 
2 *559:4 *5994:A1 35.675 
3 *559:4 *6619:A 10.5679 
*END

*D_NET *560 0.00207211
*CONN
*I *5925:A2 I *D sky130_fd_sc_hd__mux4_1
*I *6548:A I *D sky130_fd_sc_hd__dlygate4sd3_1
*I *6394:Q O *D sky130_fd_sc_hd__dfxtp_1
*CAP
1 *5925:A2 0.000327386
2 *6548:A 0.000233
3 *6394:Q 0.000155744
4 *560:8 0.000716129
5 *6548:A *6187:A0 9.56968e-05
6 *6548:A *6187:A1 0
7 *6548:A *724:68 0
8 *5925:A0 *5925:A2 0.000194852
9 *5925:S0 *5925:A2 5.52238e-05
10 *6024:A *6548:A 0.000154762
11 *6545:A *6548:A 0.000127522
12 *552:10 *6548:A 1.17968e-05
*RES
1 *6394:Q *560:8 11.4964 
2 *560:8 *6548:A 23.8893 
3 *560:8 *5925:A2 15.983 
*END

*D_NET *561 0.00209596
*CONN
*I *5940:A2 I *D sky130_fd_sc_hd__mux4_1
*I *6544:A I *D sky130_fd_sc_hd__dlygate4sd3_1
*I *6395:Q O *D sky130_fd_sc_hd__dfxtp_1
*CAP
1 *5940:A2 0.000776851
2 *6544:A 2.37855e-05
3 *6395:Q 5.72828e-05
4 *561:6 0.00085792
5 *5940:A2 *6025:A0 1.05613e-05
6 *6347:D *5940:A2 9.93178e-05
7 *225:136 *5940:A2 0
8 *226:131 *5940:A2 1.90936e-05
9 *226:170 *5940:A2 0.00012116
10 *239:180 *5940:A2 1.66856e-05
11 *481:35 *5940:A2 0.000113306
*RES
1 *6395:Q *561:6 10.2464 
2 *561:6 *6544:A 9.72857 
3 *561:6 *5940:A2 29.0411 
*END

*D_NET *562 0.00272184
*CONN
*I *5949:A2 I *D sky130_fd_sc_hd__mux4_1
*I *6603:A I *D sky130_fd_sc_hd__dlygate4sd3_1
*I *6396:Q O *D sky130_fd_sc_hd__dfxtp_1
*CAP
1 *5949:A2 0.000764331
2 *6603:A 0.000171982
3 *6396:Q 0
4 *562:4 0.000936313
5 *5949:A2 *6027:A0 2.28598e-05
6 *5949:A2 *6027:A1 0.000269422
7 *5949:A1 *5949:A2 1.14548e-05
8 *5972:A1 *6603:A 0.000154172
9 *6029:S *5949:A2 0.00012116
10 *6348:D *5949:A2 0.000122814
11 *6388:CLK *5949:A2 5.80423e-05
12 *270:12 *6603:A 8.92923e-05
13 *495:56 *6603:A 0
*RES
1 *6396:Q *562:4 9.3 
2 *562:4 *6603:A 22.3714 
3 *562:4 *5949:A2 28.9295 
*END

*D_NET *563 0.00305305
*CONN
*I *5958:A2 I *D sky130_fd_sc_hd__mux4_1
*I *6564:A I *D sky130_fd_sc_hd__dlygate4sd3_1
*I *6397:Q O *D sky130_fd_sc_hd__dfxtp_1
*CAP
1 *5958:A2 7.65222e-05
2 *6564:A 0.000296861
3 *6397:Q 0.000513586
4 *563:10 0.000886968
5 *6564:A *6122:A1 2.28598e-05
6 *6564:A *6140:A0 0.000270326
7 *6564:A *757:83 6.57815e-05
8 *6564:A *757:87 3.34295e-05
9 *5958:A0 *5958:A2 3.55407e-05
10 *5958:A0 *6564:A 0.000169969
11 *5958:A1 *5958:A2 8.98136e-05
12 *5958:S1 *5958:A2 6.7257e-05
13 *5958:S1 *6564:A 9.14786e-05
14 *6349:D *563:10 1.76204e-05
15 *6389:D *563:10 0
16 *483:63 *5958:A2 0.00012401
17 *483:63 *563:10 0.000262116
18 *483:65 *563:10 2.89114e-05
*RES
1 *6397:Q *563:10 20.8179 
2 *563:10 *6564:A 20.7107 
3 *563:10 *5958:A2 16.5902 
*END

*D_NET *564 0.00301547
*CONN
*I *5967:A2 I *D sky130_fd_sc_hd__mux4_1
*I *6648:A I *D sky130_fd_sc_hd__dlygate4sd3_1
*I *6398:Q O *D sky130_fd_sc_hd__dfxtp_1
*CAP
1 *5967:A2 0.000584948
2 *6648:A 0.000436169
3 *6398:Q 0
4 *564:4 0.00102112
5 *5967:A2 *5967:A3 2.72545e-05
6 *5967:A2 *6195:A0 7.6644e-05
7 *5967:A2 *6573:A 2.39779e-05
8 *5967:A2 *658:24 0.000180587
9 *6648:A *658:24 0.000146986
10 *6648:A *658:30 6.65302e-05
11 *6648:A *768:93 0.000125724
12 *5967:A1 *5967:A2 1.05613e-05
13 *5967:S0 *5967:A2 0
14 *6398:D *6648:A 1.51611e-06
15 *226:114 *5967:A2 0.000313458
*RES
1 *6398:Q *564:4 9.3 
2 *564:4 *6648:A 24.9964 
3 *564:4 *5967:A2 28.5768 
*END

*D_NET *565 0.00157076
*CONN
*I *5976:A2 I *D sky130_fd_sc_hd__mux4_1
*I *6518:A I *D sky130_fd_sc_hd__dlygate4sd3_1
*I *6399:Q O *D sky130_fd_sc_hd__dfxtp_1
*CAP
1 *5976:A2 0.000400873
2 *6518:A 0.000146922
3 *6399:Q 0
4 *565:4 0.000547794
5 *6518:A *779:79 0
6 *5977:A1 *5976:A2 5.71472e-05
7 *5977:S *5976:A2 1.39841e-05
8 *5981:A0 *5976:A2 0.000228558
9 *230:81 *5976:A2 6.19181e-05
10 *233:41 *5976:A2 1.14548e-05
11 *233:41 *6518:A 0
12 *233:45 *5976:A2 2.94103e-05
13 *372:16 *6518:A 7.26935e-05
*RES
1 *6399:Q *565:4 9.3 
2 *565:4 *6518:A 21.4607 
3 *565:4 *5976:A2 25.3759 
*END

*D_NET *566 0.00142335
*CONN
*I *5985:A2 I *D sky130_fd_sc_hd__mux4_1
*I *6587:A I *D sky130_fd_sc_hd__dlygate4sd3_1
*I *6400:Q O *D sky130_fd_sc_hd__dfxtp_1
*CAP
1 *5985:A2 0.000464004
2 *6587:A 7.47774e-05
3 *6400:Q 0
4 *566:4 0.000538781
5 *5985:A2 *5985:A3 5.54183e-05
6 *5985:A2 *768:44 2.47697e-05
7 *5985:A0 *5985:A2 0.00013124
8 *5985:A1 *6587:A 7.83659e-05
9 *5985:S0 *5985:A2 3.81416e-06
10 *232:21 *5985:A2 1.05901e-05
11 *233:41 *6587:A 4.15914e-05
*RES
1 *6400:Q *566:4 9.3 
2 *566:4 *6587:A 20.0679 
3 *566:4 *5985:A2 24.3223 
*END

*D_NET *567 0.00312915
*CONN
*I *5994:A2 I *D sky130_fd_sc_hd__mux4_1
*I *6543:A I *D sky130_fd_sc_hd__dlygate4sd3_1
*I *6401:Q O *D sky130_fd_sc_hd__dfxtp_1
*CAP
1 *5994:A2 0.000248979
2 *6543:A 0.000262769
3 *6401:Q 0.000290457
4 *567:8 0.000802205
5 *5995:S *6543:A 0
6 *5999:A0 *5994:A2 2.37783e-05
7 *5999:A0 *6543:A 0.000101545
8 *5999:A1 *5994:A2 0.000158268
9 *6130:S *5994:A2 0.000392988
10 *6130:S *6543:A 2.8266e-06
11 *6148:S *6543:A 0.000268403
12 *6195:S *5994:A2 1.14548e-05
13 *237:66 *567:8 0.00032033
14 *295:20 *6543:A 0.000227539
15 *428:75 *5994:A2 0
16 *428:75 *6543:A 1.7606e-05
*RES
1 *6401:Q *567:8 18.8536 
2 *567:8 *6543:A 19.9786 
3 *567:8 *5994:A2 20.3937 
*END

*D_NET *568 0.00174366
*CONN
*I *5925:A3 I *D sky130_fd_sc_hd__mux4_1
*I *6649:A I *D sky130_fd_sc_hd__dlygate4sd3_1
*I *6418:Q O *D sky130_fd_sc_hd__dfxtp_1
*CAP
1 *5925:A3 0.000303423
2 *6649:A 0
3 *6418:Q 8.32188e-05
4 *568:8 0.000386642
5 *5925:A3 *6023:A1 0.000349907
6 *5925:A3 *6187:A0 0.00018372
7 *568:8 *6187:A0 5.7661e-06
8 *6024:A *5925:A3 0.000145019
9 *255:14 *5925:A3 0.000205141
10 *309:101 *5925:A3 8.08285e-05
*RES
1 *6418:Q *568:8 10.675 
2 *568:8 *6649:A 9.3 
3 *568:8 *5925:A3 27.675 
*END

*D_NET *569 0.00195568
*CONN
*I *5940:A3 I *D sky130_fd_sc_hd__mux4_1
*I *6645:A I *D sky130_fd_sc_hd__dlygate4sd3_1
*I *6419:Q O *D sky130_fd_sc_hd__dfxtp_1
*CAP
1 *5940:A3 0.000438468
2 *6645:A 0.000127796
3 *6419:Q 0
4 *569:4 0.000566264
5 *5940:A3 *6025:A0 5.30637e-06
6 *6645:A *6025:A1 0.00014285
7 *6645:A *6189:A0 0.00014285
8 *6645:A *724:64 0
9 *6026:A *6645:A 0
10 *239:180 *5940:A3 0.000532141
*RES
1 *6419:Q *569:4 9.3 
2 *569:4 *6645:A 21.3 
3 *569:4 *5940:A3 18.2286 
*END

*D_NET *570 0.00129995
*CONN
*I *5949:A3 I *D sky130_fd_sc_hd__mux4_1
*I *6565:A I *D sky130_fd_sc_hd__dlygate4sd3_1
*I *6420:Q O *D sky130_fd_sc_hd__dfxtp_1
*CAP
1 *5949:A3 4.75857e-05
2 *6565:A 6.63949e-05
3 *6420:Q 0.000319429
4 *570:10 0.000433409
5 *5949:A1 *5949:A3 3.14078e-05
6 *5949:A1 *570:10 6.01053e-05
7 *5949:S0 *6565:A 0.000152333
8 *6029:S *6565:A 1.00375e-05
9 *6348:D *6565:A 7.83366e-05
10 *411:111 *6565:A 7.80714e-06
11 *495:88 *570:10 9.31011e-05
*RES
1 *6420:Q *570:10 13.9786 
2 *570:10 *6565:A 20.55 
3 *570:10 *5949:A3 10.2464 
*END

*D_NET *571 0.00174251
*CONN
*I *6632:A I *D sky130_fd_sc_hd__dlygate4sd3_1
*I *5958:A3 I *D sky130_fd_sc_hd__mux4_1
*I *6421:Q O *D sky130_fd_sc_hd__dfxtp_1
*CAP
1 *6632:A 0.000183753
2 *5958:A3 0.000259637
3 *6421:Q 7.34731e-05
4 *571:8 0.000516863
5 *5958:A3 *6193:A0 0.000110293
6 *5958:A3 *757:75 3.47737e-05
7 *5958:A3 *757:79 1.41706e-05
8 *6632:A *6193:A0 0
9 *6632:A *757:56 0
10 *6632:A *757:75 3.79104e-05
11 *571:8 *757:75 2.72859e-05
12 *5958:A0 *5958:A3 0.000171257
13 *5958:A1 *5958:A3 0.000124609
14 *6029:S *6632:A 0
15 *6349:D *5958:A3 0.00012401
16 *6349:D *6632:A 9.25014e-06
17 *339:50 *6632:A 5.52238e-05
*RES
1 *6421:Q *571:8 14.7464 
2 *571:8 *5958:A3 20.6393 
3 *571:8 *6632:A 17.4964 
*END

*D_NET *572 0.000501877
*CONN
*I *5967:A3 I *D sky130_fd_sc_hd__mux4_1
*I *6573:A I *D sky130_fd_sc_hd__dlygate4sd3_1
*I *6422:Q O *D sky130_fd_sc_hd__dfxtp_1
*CAP
1 *5967:A3 4.74741e-05
2 *6573:A 2.23138e-05
3 *6422:Q 3.92359e-05
4 *572:8 0.000109024
5 *5967:A3 *6195:A0 7.6644e-05
6 *6573:A *6195:A0 9.25014e-06
7 *5967:A0 *5967:A3 6.07232e-05
8 *5967:A0 *6573:A 3.07555e-05
9 *5967:A2 *5967:A3 2.72545e-05
10 *5967:A2 *6573:A 2.39779e-05
11 *295:28 *572:8 5.52238e-05
*RES
1 *6422:Q *572:8 14.3357 
2 *572:8 *6573:A 14.5321 
3 *572:8 *5967:A3 15.4429 
*END

*D_NET *573 0.00237983
*CONN
*I *6572:A I *D sky130_fd_sc_hd__dlygate4sd3_1
*I *5976:A3 I *D sky130_fd_sc_hd__mux4_1
*I *6423:Q O *D sky130_fd_sc_hd__dfxtp_1
*CAP
1 *6572:A 0.000151059
2 *5976:A3 0.000520426
3 *6423:Q 7.61747e-05
4 *573:8 0.00074766
5 *5976:A3 *6197:A0 3.69697e-05
6 *5976:A3 *779:73 0
7 *5976:A3 *779:79 3.79085e-05
8 *6572:A *6197:A0 0.000109809
9 *6572:A *779:73 0
10 *5976:A1 *5976:A3 0.000278657
11 *5976:S0 *5976:A3 5.52238e-05
12 *5981:A0 *5976:A3 9.25014e-06
13 *6351:CLK *573:8 3.18676e-05
14 *232:69 *6572:A 0
15 *233:41 *5976:A3 8.86512e-05
16 *339:37 *6572:A 5.52238e-05
17 *382:24 *6572:A 5.52238e-05
18 *401:79 *5976:A3 0.000125724
*RES
1 *6423:Q *573:8 14.7464 
2 *573:8 *5976:A3 25.4964 
3 *573:8 *6572:A 17.4964 
*END

*D_NET *574 0.00281108
*CONN
*I *6604:A I *D sky130_fd_sc_hd__dlygate4sd3_1
*I *5985:A3 I *D sky130_fd_sc_hd__mux4_1
*I *6424:Q O *D sky130_fd_sc_hd__dfxtp_1
*CAP
1 *6604:A 0.000164977
2 *5985:A3 0.000295215
3 *6424:Q 0.000218626
4 *574:10 0.000678817
5 *5985:A3 *6199:A1 0.000189222
6 *5985:A3 *625:72 0.000185587
7 *5985:A3 *768:44 7.14252e-05
8 *6604:A *6199:A0 0.000139907
9 *6604:A *6199:A1 0.000238941
10 *6604:A *746:99 2.03008e-05
11 *6604:A *768:44 4.00094e-05
12 *574:10 *746:99 6.20765e-05
13 *5985:A2 *5985:A3 5.54183e-05
14 *5988:S0 *5985:A3 4.46641e-05
15 *6396:CLK *6604:A 0.000129868
16 *309:52 *5985:A3 0.000276027
*RES
1 *6424:Q *574:10 17.2286 
2 *574:10 *5985:A3 23.0321 
3 *574:10 *6604:A 18.3179 
*END

*D_NET *575 0.00350509
*CONN
*I *6569:A I *D sky130_fd_sc_hd__dlygate4sd3_1
*I *5994:A3 I *D sky130_fd_sc_hd__mux4_1
*I *6425:Q O *D sky130_fd_sc_hd__dfxtp_1
*CAP
1 *6569:A 9.86833e-05
2 *5994:A3 0.000570941
3 *6425:Q 0.000146851
4 *575:8 0.000816475
5 *5994:A3 *5997:S1 2.79421e-05
6 *5994:A3 *790:33 0.000438775
7 *5994:A3 *791:35 2.89967e-05
8 *5999:A1 *5994:A3 0.000244736
9 *6130:S *5994:A3 0.000126711
10 *6149:A *6569:A 0.000179739
11 *6149:A *575:8 0.000376246
12 *225:21 *575:8 4.45524e-05
13 *401:22 *6569:A 0.000119618
14 *401:22 *575:8 0.000284822
*RES
1 *6425:Q *575:8 18.7821 
2 *575:8 *5994:A3 32.2464 
3 *575:8 *6569:A 16.3893 
*END

*D_NET *576 0.00302292
*CONN
*I *5924:A0 I *D sky130_fd_sc_hd__mux4_1
*I *6578:A I *D sky130_fd_sc_hd__dlygate4sd3_1
*I *6439:Q O *D sky130_fd_sc_hd__dfxtp_1
*CAP
1 *5924:A0 0.00106809
2 *6578:A 5.96502e-05
3 *6439:Q 0
4 *576:4 0.00112774
5 *5924:A0 *5924:A1 4.99311e-05
6 *5924:A0 *5924:A2 0.000230344
7 *5924:A0 *724:107 5.33882e-05
8 *6578:A *724:22 3.18676e-05
9 *5924:S0 *5924:A0 5.52238e-05
10 *6236:A *5924:A0 0.000346682
11 *6439:D *6578:A 0
*RES
1 *6439:Q *576:4 9.3 
2 *576:4 *6578:A 10.5679 
3 *576:4 *5924:A0 33.7821 
*END

*D_NET *577 0.00274201
*CONN
*I *6623:A I *D sky130_fd_sc_hd__dlygate4sd3_1
*I *5939:A0 I *D sky130_fd_sc_hd__mux4_1
*I *6440:Q O *D sky130_fd_sc_hd__dfxtp_1
*CAP
1 *6623:A 0.000124097
2 *5939:A0 0.000849656
3 *6440:Q 8.29479e-05
4 *577:10 0.0010567
5 *5939:A0 *5939:A2 1.14548e-05
6 *5939:A0 *5939:A3 0.000205648
7 *5939:A0 *6237:A0 0.000122091
8 *6623:A *6237:A0 0.000126639
9 *577:10 *735:92 0
10 *5939:S0 *5939:A0 5.71472e-05
11 *5941:A0 *5939:A0 8.71761e-05
12 *6238:A *5939:A0 1.84536e-05
*RES
1 *6440:Q *577:10 19.6393 
2 *577:10 *5939:A0 22.2107 
3 *577:10 *6623:A 11.9071 
*END

*D_NET *578 0.00303581
*CONN
*I *6562:A I *D sky130_fd_sc_hd__dlygate4sd3_1
*I *5948:A0 I *D sky130_fd_sc_hd__mux4_1
*I *6441:Q O *D sky130_fd_sc_hd__dfxtp_1
*CAP
1 *6562:A 0.000162668
2 *5948:A0 0.000578611
3 *6441:Q 0.000199521
4 *578:10 0.0009408
5 *5948:A0 *5948:A1 6.50395e-06
6 *5948:A0 *5948:A2 0.000392492
7 *6562:A *746:109 0.000164547
8 *578:10 *746:109 0.00020112
9 *5948:S1 *5948:A0 9.0145e-05
10 *5948:S1 *578:10 5.21837e-05
11 *5950:A0 *578:10 2.26973e-05
12 *6240:A *6562:A 7.6644e-05
13 *6240:A *578:10 9.25014e-06
14 *6441:D *578:10 9.01235e-05
15 *216:14 *6562:A 4.85018e-05
16 *428:52 *6562:A 0
17 *428:75 *6562:A 0
18 *428:75 *578:10 0
*RES
1 *6441:Q *578:10 18.5143 
2 *578:10 *5948:A0 21.6393 
3 *578:10 *6562:A 17.8714 
*END

*D_NET *579 0.00265171
*CONN
*I *6647:A I *D sky130_fd_sc_hd__dlygate4sd3_1
*I *5957:A0 I *D sky130_fd_sc_hd__mux4_1
*I *6442:Q O *D sky130_fd_sc_hd__dfxtp_1
*CAP
1 *6647:A 0
2 *5957:A0 0.00032139
3 *6442:Q 0.000337957
4 *579:14 0.000659347
5 *5957:A0 *5957:A1 0.000174317
6 *5957:A0 *5957:A2 3.28686e-05
7 *5957:A0 *757:110 0.000123888
8 *5957:S0 *5957:A0 0.000142856
9 *5959:A0 *5957:A0 5.52238e-05
10 *5959:A0 *579:14 0.000139913
11 *6006:S *579:14 0
12 *6242:A *5957:A0 0.00018372
13 *6242:A *579:14 0.000385487
14 *6442:D *579:14 8.00806e-05
15 *485:30 *579:14 1.46624e-05
*RES
1 *6442:Q *579:14 25.1214 
2 *579:14 *5957:A0 17.2286 
3 *579:14 *6647:A 9.3 
*END

*D_NET *580 0.00275185
*CONN
*I *6519:A I *D sky130_fd_sc_hd__dlygate4sd3_1
*I *5966:A0 I *D sky130_fd_sc_hd__mux4_1
*I *6443:Q O *D sky130_fd_sc_hd__dfxtp_1
*CAP
1 *6519:A 0.000112315
2 *5966:A0 0.000721438
3 *6443:Q 0.000182052
4 *580:12 0.0010158
5 *5966:A0 *5966:A1 9.22131e-05
6 *5966:A0 *5966:A2 9.75337e-06
7 *5966:A0 *5966:A3 0.000241843
8 *580:12 *6243:A1 3.92757e-05
9 *6243:S *5966:A0 0.000137983
10 *6243:S *6519:A 4.27935e-05
11 *6416:CLK *580:12 0
12 *216:60 *580:12 1.72894e-05
13 *265:12 *5966:A0 6.87574e-05
14 *265:12 *6519:A 7.03295e-05
*RES
1 *6443:Q *580:12 21.0857 
2 *580:12 *5966:A0 20.8179 
3 *580:12 *6519:A 11.4964 
*END

*D_NET *581 0.00404762
*CONN
*I *6597:A I *D sky130_fd_sc_hd__dlygate4sd3_1
*I *5975:A0 I *D sky130_fd_sc_hd__mux4_1
*I *6444:Q O *D sky130_fd_sc_hd__dfxtp_1
*CAP
1 *6597:A 0
2 *5975:A0 0.000641536
3 *6444:Q 0.000393285
4 *581:12 0.00103482
5 *5975:A0 *5975:A1 6.62868e-05
6 *5975:A0 *6215:A1 3.93986e-05
7 *5975:A0 *6245:A0 8.86413e-05
8 *581:12 *768:42 0.000109266
9 *5917:A *5975:A0 0
10 *5975:S0 *5975:A0 0.000181796
11 *6241:S *581:12 0.000249109
12 *6246:A *5975:A0 0.000221634
13 *362:95 *581:12 0.000312743
14 *391:122 *5975:A0 0
15 *391:151 *5975:A0 0.000230475
16 *428:16 *5975:A0 0.000478627
*RES
1 *6444:Q *581:12 25.7821 
2 *581:12 *5975:A0 32.1393 
3 *581:12 *6597:A 9.3 
*END

*D_NET *582 0.00246156
*CONN
*I *6598:A I *D sky130_fd_sc_hd__dlygate4sd3_1
*I *5984:A0 I *D sky130_fd_sc_hd__mux4_1
*I *6445:Q O *D sky130_fd_sc_hd__dfxtp_1
*CAP
1 *6598:A 0.0001567
2 *5984:A0 0.000564268
3 *6445:Q 0
4 *582:4 0.000720968
5 *5984:A0 *5984:A2 7.90803e-05
6 *5984:S0 *5984:A0 0
7 *5986:A0 *6598:A 0
8 *6247:S *6598:A 1.3701e-05
9 *6445:CLK *5984:A0 2.36466e-05
10 *6445:D *5984:A0 0.000171906
11 *225:108 *5984:A0 0.000485543
12 *265:12 *5984:A0 3.57844e-05
13 *428:121 *6598:A 0.000209963
*RES
1 *6445:Q *582:4 9.3 
2 *582:4 *5984:A0 26.9429 
3 *582:4 *6598:A 21.5857 
*END

*D_NET *583 0.00299927
*CONN
*I *6554:A I *D sky130_fd_sc_hd__dlygate4sd3_1
*I *5993:A0 I *D sky130_fd_sc_hd__mux4_1
*I *6446:Q O *D sky130_fd_sc_hd__dfxtp_1
*CAP
1 *6554:A 5.57104e-05
2 *5993:A0 0.00124813
3 *6446:Q 0
4 *583:4 0.00130384
5 *5993:A0 *5993:A1 1.92789e-05
6 *5993:A0 *5993:A2 0.000126899
7 *5995:A0 *5993:A0 5.19842e-06
8 *6446:CLK *5993:A0 1.92789e-05
9 *6446:D *5993:A0 4.87669e-06
10 *480:37 *5993:A0 3.99614e-06
11 *488:24 *5993:A0 0.000180198
12 *488:24 *6554:A 3.18676e-05
*RES
1 *6446:Q *583:4 9.3 
2 *583:4 *5993:A0 25.8893 
3 *583:4 *6554:A 10.5679 
*END

*D_NET *584 0.0021944
*CONN
*I *6567:A I *D sky130_fd_sc_hd__dlygate4sd3_1
*I *5924:A1 I *D sky130_fd_sc_hd__mux4_1
*I *6322:Q O *D sky130_fd_sc_hd__dfxtp_1
*CAP
1 *6567:A 0
2 *5924:A1 0.000731386
3 *6322:Q 0.000158721
4 *584:12 0.000890107
5 *5924:A1 *5924:A2 0.00020348
6 *584:12 *735:105 0
7 *5924:A0 *5924:A1 4.99311e-05
8 *5928:A0 *5924:A1 2.89016e-05
9 *5928:A0 *584:12 7.6644e-05
10 *6236:A *5924:A1 5.52302e-05
11 *481:52 *584:12 0
*RES
1 *6322:Q *584:12 20.4786 
2 *584:12 *5924:A1 19.6393 
3 *584:12 *6567:A 9.3 
*END

*D_NET *585 0.00204879
*CONN
*I *6621:A I *D sky130_fd_sc_hd__dlygate4sd3_1
*I *5939:A1 I *D sky130_fd_sc_hd__mux4_1
*I *6323:Q O *D sky130_fd_sc_hd__dfxtp_1
*CAP
1 *6621:A 0
2 *5939:A1 0.000256815
3 *6323:Q 0.000367103
4 *585:12 0.000623918
5 *5939:A1 *5908:A0 0.000315158
6 *5939:A1 *601:10 0
7 *5939:A1 *735:81 2.44318e-05
8 *585:12 *5939:A2 3.71496e-05
9 *5906:S *5939:A1 0.000228558
10 *5939:S0 *5939:A1 0
11 *6323:CLK *585:12 0.000183713
12 *6411:D *5939:A1 0
13 *216:79 *5939:A1 1.19402e-05
*RES
1 *6323:Q *585:12 23.3536 
2 *585:12 *5939:A1 24.2643 
3 *585:12 *6621:A 9.3 
*END

*D_NET *586 0.00254482
*CONN
*I *5948:A1 I *D sky130_fd_sc_hd__mux4_1
*I *6585:A I *D sky130_fd_sc_hd__dlygate4sd3_1
*I *6324:Q O *D sky130_fd_sc_hd__dfxtp_1
*CAP
1 *5948:A1 0.000462601
2 *6585:A 0.000165013
3 *6324:Q 0.000186658
4 *586:10 0.000814272
5 *5948:A1 *5948:A2 0.000186725
6 *6585:A *5910:A1 9.97648e-05
7 *5948:A0 *5948:A1 6.50395e-06
8 *5948:S1 *5948:A1 3.69047e-06
9 *216:29 *6585:A 7.90803e-05
10 *401:22 *6585:A 0.000308558
11 *401:22 *586:10 0.000100969
12 *411:20 *6585:A 3.21574e-05
13 *411:20 *586:10 9.88232e-05
*RES
1 *6324:Q *586:10 17.3 
2 *586:10 *6585:A 18.8357 
3 *586:10 *5948:A1 19.9964 
*END

*D_NET *587 0.00247536
*CONN
*I *6561:A I *D sky130_fd_sc_hd__dlygate4sd3_1
*I *5957:A1 I *D sky130_fd_sc_hd__mux4_1
*I *6325:Q O *D sky130_fd_sc_hd__dfxtp_1
*CAP
1 *6561:A 0.00040018
2 *5957:A1 0.000494627
3 *6325:Q 0
4 *587:4 0.000894806
5 *5957:A1 *5957:A2 7.6644e-05
6 *5957:A1 *6175:A1 0
7 *5957:A1 *746:45 7.6644e-05
8 *5957:A1 *757:110 2.77143e-05
9 *6561:A *746:45 0
10 *5957:A0 *5957:A1 0.000174317
11 *5957:S0 *5957:A1 0.000142856
12 *6120:S *6561:A 0.000103902
13 *6242:A *6561:A 7.83659e-05
14 *6442:CLK *6561:A 5.30637e-06
*RES
1 *6325:Q *587:4 9.3 
2 *587:4 *5957:A1 25.5321 
3 *587:4 *6561:A 24.55 
*END

*D_NET *588 0.00270596
*CONN
*I *6541:A I *D sky130_fd_sc_hd__dlygate4sd3_1
*I *5966:A1 I *D sky130_fd_sc_hd__mux4_1
*I *6326:Q O *D sky130_fd_sc_hd__dfxtp_1
*CAP
1 *6541:A 0.000233184
2 *5966:A1 0.000502478
3 *6326:Q 0.000267352
4 *588:10 0.00100301
5 *5966:A1 *5966:A2 1.59935e-05
6 *5966:A1 *5966:A3 4.52758e-05
7 *6541:A *5966:A2 2.49484e-05
8 *588:10 *5966:A2 3.69697e-05
9 *5915:A *588:10 0
10 *5966:A0 *5966:A1 9.22131e-05
11 *5966:S1 *6541:A 0.000337637
12 *6443:CLK *588:10 3.17163e-05
13 *6443:D *6541:A 5.90443e-06
14 *6443:D *588:10 6.25807e-05
15 *216:44 *6541:A 0
16 *216:60 *6541:A 0
17 *216:60 *588:10 0
18 *226:114 *6541:A 3.34366e-05
19 *488:78 *588:10 1.32552e-05
20 *488:82 *588:10 0
*RES
1 *6326:Q *588:10 18.1214 
2 *588:10 *5966:A1 20.4071 
3 *588:10 *6541:A 19.3893 
*END

*D_NET *589 0.00301764
*CONN
*I *6615:A I *D sky130_fd_sc_hd__dlygate4sd3_1
*I *5975:A1 I *D sky130_fd_sc_hd__mux4_1
*I *6327:Q O *D sky130_fd_sc_hd__dfxtp_1
*CAP
1 *6615:A 0.000225921
2 *5975:A1 0.000734907
3 *6327:Q 4.18811e-05
4 *589:8 0.00100271
5 *5975:A1 *5975:A2 1.14548e-05
6 *5975:A1 *5975:A3 4.03305e-05
7 *6615:A *768:42 0
8 *5912:S *6615:A 5.52302e-05
9 *5975:A0 *5975:A1 6.62868e-05
10 *5975:S0 *5975:A1 3.47797e-05
11 *5975:S1 *5975:A1 0.00013073
12 *5977:A0 *6615:A 0.0003096
13 *6444:CLK *6615:A 2.59093e-05
14 *6444:CLK *589:8 3.92757e-05
15 *6496:A *6615:A 0.000226815
16 *230:66 *6615:A 4.10338e-05
17 *230:66 *589:8 2.56601e-05
18 *391:151 *5975:A1 5.11506e-06
*RES
1 *6327:Q *589:8 14.8357 
2 *589:8 *5975:A1 23.2821 
3 *589:8 *6615:A 19.925 
*END

*D_NET *590 0.00250075
*CONN
*I *6614:A I *D sky130_fd_sc_hd__dlygate4sd3_1
*I *5984:A1 I *D sky130_fd_sc_hd__mux4_1
*I *6328:Q O *D sky130_fd_sc_hd__dfxtp_1
*CAP
1 *6614:A 0
2 *5984:A1 0.000428955
3 *6328:Q 0.000171927
4 *590:12 0.000600881
5 *5984:A1 *5984:A2 0
6 *5984:A1 *598:10 0
7 *5984:A1 *606:12 0.000220621
8 *5984:A1 *625:32 2.00751e-05
9 *5984:A1 *625:45 4.038e-06
10 *590:12 *5918:A0 0
11 *5984:S0 *5984:A1 9.25014e-06
12 *6182:A *5984:A1 0
13 *6217:S *590:12 5.62995e-05
14 *216:60 *5984:A1 0.000356022
15 *216:60 *590:12 5.10822e-05
16 *391:59 *5984:A1 0.000281911
17 *391:73 *5984:A1 0.000299687
*RES
1 *6328:Q *590:12 20.8893 
2 *590:12 *5984:A1 30.4786 
3 *590:12 *6614:A 9.3 
*END

*D_NET *591 0.00102566
*CONN
*I *6563:A I *D sky130_fd_sc_hd__dlygate4sd3_1
*I *5993:A1 I *D sky130_fd_sc_hd__mux4_1
*I *6329:Q O *D sky130_fd_sc_hd__dfxtp_1
*CAP
1 *6563:A 6.36788e-05
2 *5993:A1 0.00031582
3 *6329:Q 0
4 *591:4 0.000379499
5 *5993:A1 *5993:A2 0.00014285
6 *5921:A *5993:A1 6.19181e-05
7 *5993:A0 *5993:A1 1.92789e-05
8 *6213:S *5993:A1 2.08081e-05
9 *6213:S *6563:A 1.92905e-05
10 *6329:CLK *5993:A1 0
11 *6329:D *5993:A1 2.51343e-06
*RES
1 *6329:Q *591:4 9.3 
2 *591:4 *5993:A1 23.4786 
3 *591:4 *6563:A 10.5679 
*END

*D_NET *592 0.00177544
*CONN
*I *5924:A2 I *D sky130_fd_sc_hd__mux4_1
*I *6637:A I *D sky130_fd_sc_hd__dlygate4sd3_1
*I *6426:Q O *D sky130_fd_sc_hd__dfxtp_1
*CAP
1 *5924:A2 0.000351235
2 *6637:A 0.000193462
3 *6426:Q 0
4 *592:4 0.000544696
5 *6637:A *6205:A0 0.00014285
6 *6637:A *658:20 5.41494e-05
7 *6637:A *724:47 0
8 *6637:A *724:64 0
9 *5924:A0 *5924:A2 0.000230344
10 *5924:A1 *5924:A2 0.00020348
11 *5924:S0 *5924:A2 5.52238e-05
12 *6322:D *6637:A 0
*RES
1 *6426:Q *592:4 9.3 
2 *592:4 *6637:A 22.5143 
3 *592:4 *5924:A2 17.9295 
*END

*D_NET *593 0.00326346
*CONN
*I *5939:A2 I *D sky130_fd_sc_hd__mux4_1
*I *6550:A I *D sky130_fd_sc_hd__dlygate4sd3_1
*I *6427:Q O *D sky130_fd_sc_hd__dfxtp_1
*CAP
1 *5939:A2 0.000684463
2 *6550:A 0.000454285
3 *6427:Q 0.000154445
4 *593:6 0.00129319
5 *6550:A *6207:A0 8.35655e-05
6 *5906:S *5939:A2 9.01334e-05
7 *5909:A *6550:A 0.000133583
8 *5939:A0 *5939:A2 1.14548e-05
9 *6323:CLK *5939:A2 0.000232264
10 *6323:D *5939:A2 5.5855e-05
11 *6323:D *6550:A 0
12 *216:79 *5939:A2 1.4211e-05
13 *216:79 *593:6 1.88573e-05
14 *481:56 *5939:A2 0
15 *585:12 *5939:A2 3.71496e-05
*RES
1 *6427:Q *593:6 11.0679 
2 *593:6 *6550:A 26.0321 
3 *593:6 *5939:A2 29.5902 
*END

*D_NET *594 0.00187688
*CONN
*I *5948:A2 I *D sky130_fd_sc_hd__mux4_1
*I *6529:A I *D sky130_fd_sc_hd__dlygate4sd3_1
*I *6428:Q O *D sky130_fd_sc_hd__dfxtp_1
*CAP
1 *5948:A2 0.000270112
2 *6529:A 0.000207034
3 *6428:Q 0
4 *594:4 0.000477146
5 *6529:A *680:10 0.000222726
6 *5911:A *6529:A 0
7 *5948:A0 *5948:A2 0.000392492
8 *5948:A1 *5948:A2 0.000186725
9 *5948:S1 *5948:A2 0
10 *6324:CLK *6529:A 0.000120645
11 *480:79 *6529:A 0
*RES
1 *6428:Q *594:4 9.3 
2 *594:4 *6529:A 23.5857 
3 *594:4 *5948:A2 17.1437 
*END

*D_NET *595 0.00253325
*CONN
*I *5957:A2 I *D sky130_fd_sc_hd__mux4_1
*I *6611:A I *D sky130_fd_sc_hd__dlygate4sd3_1
*I *6429:Q O *D sky130_fd_sc_hd__dfxtp_1
*CAP
1 *5957:A2 0.000628996
2 *6611:A 0.000310947
3 *6429:Q 0
4 *595:4 0.000939942
5 *5957:A2 *746:45 3.06282e-05
6 *6611:A *6211:A0 0.000195551
7 *5957:A0 *5957:A2 3.28686e-05
8 *5957:A1 *5957:A2 7.6644e-05
9 *5957:S1 *5957:A2 8.6229e-06
10 *5975:S1 *5957:A2 3.38578e-05
11 *6029:S *6611:A 0
12 *6241:S *6611:A 7.21117e-05
13 *6325:CLK *5957:A2 1.92905e-05
14 *6325:D *5957:A2 4.87669e-06
15 *6325:D *6611:A 0
16 *226:240 *5957:A2 0.000169668
17 *391:151 *6611:A 9.25014e-06
*RES
1 *6429:Q *595:4 9.3 
2 *595:4 *6611:A 23.8893 
3 *595:4 *5957:A2 26.8625 
*END

*D_NET *596 0.00294929
*CONN
*I *5966:A2 I *D sky130_fd_sc_hd__mux4_1
*I *6638:A I *D sky130_fd_sc_hd__dlygate4sd3_1
*I *6430:Q O *D sky130_fd_sc_hd__dfxtp_1
*CAP
1 *5966:A2 0.000620449
2 *6638:A 0.000276802
3 *6430:Q 0
4 *596:4 0.000897252
5 *6638:A *6213:A0 0.000151061
6 *5966:A0 *5966:A2 9.75337e-06
7 *5966:A1 *5966:A2 1.59935e-05
8 *6326:D *6638:A 0
9 *6430:CLK *5966:A2 5.03772e-05
10 *6443:D *5966:A2 0.000125724
11 *6541:A *5966:A2 2.49484e-05
12 *488:52 *6638:A 2.94103e-05
13 *488:78 *5966:A2 0.000710549
14 *588:10 *5966:A2 3.69697e-05
*RES
1 *6430:Q *596:4 9.3 
2 *596:4 *6638:A 24.05 
3 *596:4 *5966:A2 28.2018 
*END

*D_NET *597 0.00218286
*CONN
*I *5975:A2 I *D sky130_fd_sc_hd__mux4_1
*I *6626:A I *D sky130_fd_sc_hd__dlygate4sd3_1
*I *6431:Q O *D sky130_fd_sc_hd__dfxtp_1
*CAP
1 *5975:A2 0.000107668
2 *6626:A 0.000400112
3 *6431:Q 7.77732e-05
4 *597:8 0.000585553
5 *6626:A *6215:A0 0
6 *5917:A *5975:A2 0.000305922
7 *5917:A *6626:A 7.90803e-05
8 *5975:A1 *5975:A2 1.14548e-05
9 *233:41 *5975:A2 0.000313458
10 *233:41 *6626:A 0.000246064
11 *237:86 *6626:A 0
12 *391:151 *5975:A2 6.98553e-06
13 *411:92 *597:8 4.87854e-05
*RES
1 *6431:Q *597:8 14.7464 
2 *597:8 *6626:A 21.6036 
3 *597:8 *5975:A2 18.108 
*END

*D_NET *598 0.00225416
*CONN
*I *5984:A2 I *D sky130_fd_sc_hd__mux4_1
*I *6535:A I *D sky130_fd_sc_hd__dlygate4sd3_1
*I *6432:Q O *D sky130_fd_sc_hd__dfxtp_1
*CAP
1 *5984:A2 0.0006414
2 *6535:A 0
3 *6432:Q 0.000166573
4 *598:10 0.000807973
5 *5984:A2 *606:12 0.000163769
6 *5984:A2 *625:45 3.17067e-05
7 *598:10 *6217:A0 0
8 *598:10 *625:32 0
9 *5984:A0 *5984:A2 7.90803e-05
10 *5984:A1 *5984:A2 0
11 *5984:A1 *598:10 0
12 *6182:A *5984:A2 8.00806e-05
13 *6217:S *598:10 1.33343e-05
14 *6218:A *598:10 0
15 *6416:D *5984:A2 0
16 *265:12 *5984:A2 0.000270243
17 *428:121 *5984:A2 0
*RES
1 *6432:Q *598:10 16.2821 
2 *598:10 *6535:A 13.8 
3 *598:10 *5984:A2 33.5902 
*END

*D_NET *599 0.00213372
*CONN
*I *5993:A2 I *D sky130_fd_sc_hd__mux4_1
*I *6581:A I *D sky130_fd_sc_hd__dlygate4sd3_1
*I *6433:Q O *D sky130_fd_sc_hd__dfxtp_1
*CAP
1 *5993:A2 0.000331142
2 *6581:A 0.000203268
3 *6433:Q 7.22029e-05
4 *599:6 0.000606613
5 *6581:A *6219:A0 5.52238e-05
6 *5993:A0 *5993:A2 0.000126899
7 *5993:A1 *5993:A2 0.00014285
8 *5993:S0 *5993:A2 5.52238e-05
9 *6329:CLK *6581:A 6.35892e-05
10 *391:47 *6581:A 0.000195866
11 *480:37 *5993:A2 0.000140933
12 *480:37 *599:6 0.000139907
*RES
1 *6433:Q *599:6 10.6571 
2 *599:6 *6581:A 23.3357 
3 *599:6 *5993:A2 16.2509 
*END

*D_NET *600 0.00145432
*CONN
*I *5924:A3 I *D sky130_fd_sc_hd__mux4_1
*I *6546:A I *D sky130_fd_sc_hd__dlygate4sd3_1
*I *6410:Q O *D sky130_fd_sc_hd__dfxtp_1
*CAP
1 *5924:A3 0.000361145
2 *6546:A 0
3 *6410:Q 6.69817e-05
4 *600:8 0.000428127
5 *5924:A3 *5906:A0 6.10501e-05
6 *5906:S *5924:A3 2.89114e-05
7 *5907:A *5924:A3 0.00010096
8 *225:108 *5924:A3 0.000219887
9 *225:108 *600:8 3.48705e-05
10 *225:121 *5924:A3 5.01117e-05
11 *225:136 *5924:A3 5.0587e-05
12 *226:133 *5924:A3 9.11365e-06
13 *226:135 *5924:A3 4.25716e-05
*RES
1 *6410:Q *600:8 10.675 
2 *600:8 *6546:A 9.3 
3 *600:8 *5924:A3 26.8536 
*END

*D_NET *601 0.00141308
*CONN
*I *5939:A3 I *D sky130_fd_sc_hd__mux4_1
*I *6625:A I *D sky130_fd_sc_hd__dlygate4sd3_1
*I *6411:Q O *D sky130_fd_sc_hd__dfxtp_1
*CAP
1 *5939:A3 0.00034319
2 *6625:A 7.24779e-05
3 *6411:Q 6.36945e-05
4 *601:10 0.000479363
5 *5939:A3 *6171:A0 0.000102207
6 *6625:A *6171:A0 5.33334e-05
7 *5939:A0 *5939:A3 0.000205648
8 *5939:A1 *601:10 0
9 *5939:S0 *5939:A3 5.52238e-05
10 *6411:D *601:10 3.79467e-05
11 *391:73 *6625:A 0
*RES
1 *6411:Q *601:10 19.6393 
2 *601:10 *6625:A 10.675 
3 *601:10 *5939:A3 16.9964 
*END

*D_NET *602 0.00300448
*CONN
*I *5948:A3 I *D sky130_fd_sc_hd__mux4_1
*I *6534:A I *D sky130_fd_sc_hd__dlygate4sd3_1
*I *6412:Q O *D sky130_fd_sc_hd__dfxtp_1
*CAP
1 *5948:A3 0.000850124
2 *6534:A 2.36467e-05
3 *6412:Q 0.000216347
4 *602:10 0.00109012
5 *5948:A3 *6173:A0 9.61553e-05
6 *5948:A3 *6454:D 2.26336e-05
7 *6534:A *6173:A0 5.03772e-05
8 *602:10 *6173:A0 3.69697e-05
9 *5948:S0 *5948:A3 1.41706e-05
10 *6324:D *5948:A3 3.29354e-05
11 *6428:D *602:10 5.24274e-05
12 *391:22 *5948:A3 0.000271352
13 *391:22 *6534:A 9.90367e-05
14 *391:22 *602:10 0
15 *391:30 *602:10 0
16 *411:20 *5948:A3 0.000148189
17 *487:25 *602:10 0
18 *487:40 *602:10 0
*RES
1 *6412:Q *602:10 22.3714 
2 *602:10 *6534:A 10.2464 
3 *602:10 *5948:A3 31.4964 
*END

*D_NET *603 0.00192768
*CONN
*I *5957:A3 I *D sky130_fd_sc_hd__mux4_1
*I *6582:A I *D sky130_fd_sc_hd__dlygate4sd3_1
*I *6413:Q O *D sky130_fd_sc_hd__dfxtp_1
*CAP
1 *5957:A3 0.000512631
2 *6582:A 8.71347e-05
3 *6413:Q 0
4 *603:4 0.000599765
5 *5957:A3 *6241:A1 5.54183e-05
6 *5957:A3 *757:87 8.07951e-05
7 *5957:A3 *757:89 0.000125731
8 *6582:A *6175:A0 7.83659e-05
9 *5912:S *5957:A3 0.000199134
10 *5913:A *5957:A3 1.92789e-05
11 *5958:S1 *5957:A3 9.10992e-05
12 *6140:S *6582:A 9.25014e-06
13 *226:240 *5957:A3 6.90798e-05
14 *401:87 *6582:A 0
*RES
1 *6413:Q *603:4 9.3 
2 *603:4 *6582:A 20.0679 
3 *603:4 *5957:A3 26.925 
*END

*D_NET *604 0.00152405
*CONN
*I *5966:A3 I *D sky130_fd_sc_hd__mux4_1
*I *6596:A I *D sky130_fd_sc_hd__dlygate4sd3_1
*I *6414:Q O *D sky130_fd_sc_hd__dfxtp_1
*CAP
1 *5966:A3 0.000374724
2 *6596:A 0.00018773
3 *6414:Q 0
4 *604:4 0.000562454
5 *6596:A *6213:A1 0
6 *5915:A *5966:A3 4.58764e-05
7 *5966:A0 *5966:A3 0.000241843
8 *5966:A1 *5966:A3 4.52758e-05
9 *5966:S0 *5966:A3 6.61445e-05
10 *225:58 *6596:A 0
*RES
1 *6414:Q *604:4 9.3 
2 *604:4 *6596:A 20.8893 
3 *604:4 *5966:A3 24.9607 
*END

*D_NET *605 0.00181046
*CONN
*I *5975:A3 I *D sky130_fd_sc_hd__mux4_1
*I *6533:A I *D sky130_fd_sc_hd__dlygate4sd3_1
*I *6415:Q O *D sky130_fd_sc_hd__dfxtp_1
*CAP
1 *5975:A3 0.000362267
2 *6533:A 0.00016335
3 *6415:Q 0
4 *605:4 0.000525617
5 *5975:A1 *5975:A3 4.03305e-05
6 *5975:S0 *5975:A3 0.00035206
7 *5975:S1 *5975:A3 0
8 *237:86 *6533:A 5.93692e-05
9 *382:16 *6533:A 5.83304e-05
10 *391:122 *6533:A 7.83659e-05
11 *470:18 *6533:A 6.42242e-05
12 *470:100 *6533:A 0.000106542
*RES
1 *6415:Q *605:4 9.3 
2 *605:4 *6533:A 22.3714 
3 *605:4 *5975:A3 14.8 
*END

*D_NET *606 0.0013411
*CONN
*I *5984:A3 I *D sky130_fd_sc_hd__mux4_1
*I *6594:A I *D sky130_fd_sc_hd__dlygate4sd3_1
*I *6416:Q O *D sky130_fd_sc_hd__dfxtp_1
*CAP
1 *5984:A3 0
2 *6594:A 0.000111735
3 *6416:Q 0.000231758
4 *606:12 0.000343493
5 *6594:A *6181:A0 3.18676e-05
6 *6594:A *625:45 0.000177941
7 *5984:A1 *606:12 0.000220621
8 *5984:A2 *606:12 0.000163769
9 *391:59 *606:12 5.99141e-05
10 *428:121 *6594:A 0
*RES
1 *6416:Q *606:12 15.2286 
2 *606:12 *6594:A 21.0857 
3 *606:12 *5984:A3 9.3 
*END

*D_NET *607 0.00205698
*CONN
*I *5993:A3 I *D sky130_fd_sc_hd__mux4_1
*I *6528:A I *D sky130_fd_sc_hd__dlygate4sd3_1
*I *6417:Q O *D sky130_fd_sc_hd__dfxtp_1
*CAP
1 *5993:A3 0.000517162
2 *6528:A 9.30623e-05
3 *6417:Q 8.44297e-05
4 *607:6 0.000694654
5 *5993:A3 *5920:A0 0.000225616
6 *5921:A *5993:A3 5.12829e-05
7 *6417:D *6528:A 3.17148e-05
8 *6417:D *607:6 5.33005e-05
9 *225:27 *5993:A3 6.42145e-05
10 *226:85 *5993:A3 3.84291e-05
11 *226:95 *5993:A3 4.1331e-06
12 *391:47 *6528:A 0.000103041
13 *480:16 *6528:A 9.59415e-05
*RES
1 *6417:Q *607:6 10.2464 
2 *607:6 *6528:A 21.4607 
3 *607:6 *5993:A3 25.8179 
*END

*D_NET *608 0.00243077
*CONN
*I *6629:A I *D sky130_fd_sc_hd__dlygate4sd3_1
*I *5932:A0 I *D sky130_fd_sc_hd__mux4_1
*I *6402:Q O *D sky130_fd_sc_hd__dfxtp_1
*CAP
1 *6629:A 6.72359e-05
2 *5932:A0 0.000847678
3 *6402:Q 0
4 *608:4 0.000914914
5 *5932:A0 *6152:A1 0.000108145
6 *5932:A0 *724:188 0.00018077
7 *5932:S0 *5932:A0 0
8 *6306:S *5932:A0 9.91086e-05
9 *6527:A *5932:A0 0.00010326
10 *339:81 *5932:A0 0.000109659
*RES
1 *6402:Q *608:4 9.3 
2 *608:4 *5932:A0 30.3 
3 *608:4 *6629:A 10.5679 
*END

*D_NET *609 0.00288576
*CONN
*I *6586:A I *D sky130_fd_sc_hd__dlygate4sd3_1
*I *5943:A0 I *D sky130_fd_sc_hd__mux4_1
*I *6403:Q O *D sky130_fd_sc_hd__dfxtp_1
*CAP
1 *6586:A 0.000120042
2 *5943:A0 0.000848314
3 *6403:Q 5.77931e-05
4 *609:10 0.00102615
5 *5943:A0 *6099:A0 4.15914e-05
6 *5943:A0 *6154:A0 2.89016e-05
7 *5943:A0 *6154:A1 3.97657e-05
8 *5943:A0 *735:162 0
9 *6586:A *6154:A0 9.46929e-05
10 *5943:A2 *5943:A0 4.55807e-05
11 *5943:S0 *5943:A0 0.000191187
12 *5944:A1 *5943:A0 6.444e-05
13 *6155:A *5943:A0 0.000105163
14 *6164:S *5943:A0 0
15 *6164:S *609:10 0.00010326
16 *6309:A *5943:A0 7.50601e-05
17 *6371:CLK *5943:A0 4.38243e-05
18 *6403:CLK *5943:A0 0
19 *382:80 *5943:A0 0
*RES
1 *6403:Q *609:10 19.6393 
2 *609:10 *5943:A0 33.9429 
3 *609:10 *6586:A 11.4964 
*END

*D_NET *610 0.0023101
*CONN
*I *6530:A I *D sky130_fd_sc_hd__dlygate4sd3_1
*I *5952:A0 I *D sky130_fd_sc_hd__mux4_1
*I *6404:Q O *D sky130_fd_sc_hd__dfxtp_1
*CAP
1 *6530:A 8.27227e-05
2 *5952:A0 0.000764214
3 *6404:Q 0
4 *610:4 0.000846937
5 *5952:A0 *746:31 4.16383e-05
6 *6530:A *6156:A0 9.33978e-07
7 *5952:S0 *5952:A0 1.19402e-05
8 *6404:CLK *5952:A0 0.000233192
9 *6404:CLK *6530:A 1.04232e-05
10 *514:8 *5952:A0 0.000318101
*RES
1 *6404:Q *610:4 9.3 
2 *610:4 *5952:A0 29.1036 
3 *610:4 *6530:A 10.5679 
*END

*D_NET *611 0.00280054
*CONN
*I *6652:A I *D sky130_fd_sc_hd__dlygate4sd3_1
*I *5961:A0 I *D sky130_fd_sc_hd__mux4_1
*I *6405:Q O *D sky130_fd_sc_hd__dfxtp_1
*CAP
1 *6652:A 6.61804e-05
2 *5961:A0 0.00102724
3 *6405:Q 0
4 *611:4 0.00109342
5 *5961:A0 *6083:A0 1.56e-05
6 *5961:A2 *5961:A0 0.000397924
7 *5962:A1 *5961:A0 0.000127439
8 *6083:S *5961:A0 0
9 *6405:CLK *5961:A0 4.30382e-05
10 *6405:D *5961:A0 2.96945e-05
*RES
1 *6405:Q *611:4 9.3 
2 *611:4 *5961:A0 31.9786 
3 *611:4 *6652:A 10.5679 
*END

*D_NET *612 0.00222186
*CONN
*I *5970:A0 I *D sky130_fd_sc_hd__mux4_1
*I *6631:A I *D sky130_fd_sc_hd__dlygate4sd3_1
*I *6406:Q O *D sky130_fd_sc_hd__dfxtp_1
*CAP
1 *5970:A0 0.000704897
2 *6631:A 0
3 *6406:Q 0.000182277
4 *612:10 0.000887173
5 *5970:A0 *6105:A1 2.97021e-05
6 *5970:A2 *5970:A0 1.00442e-05
7 *6406:CLK *612:10 0.000144773
8 *230:91 *5970:A0 3.69697e-05
9 *232:81 *5970:A0 7.77751e-05
10 *270:12 *5970:A0 3.52562e-05
11 *270:12 *612:10 5.48581e-05
12 *351:79 *5970:A0 5.81317e-05
*RES
1 *6406:Q *612:10 17.1036 
2 *612:10 *6631:A 13.8 
3 *612:10 *5970:A0 23.2821 
*END

*D_NET *613 0.00207305
*CONN
*I *5979:A0 I *D sky130_fd_sc_hd__mux4_1
*I *6643:A I *D sky130_fd_sc_hd__dlygate4sd3_1
*I *6407:Q O *D sky130_fd_sc_hd__dfxtp_1
*CAP
1 *5979:A0 0.000800131
2 *6643:A 7.01202e-05
3 *6407:Q 0
4 *613:4 0.000870251
5 *5979:A0 *6087:A0 0
6 *5979:A2 *5979:A0 6.10318e-05
7 *5979:A3 *5979:A0 4.01768e-05
8 *5981:A1 *5979:A0 8.469e-05
9 *6524:A *5979:A0 6.28581e-05
10 *492:16 *5979:A0 2.32751e-05
11 *517:6 *5979:A0 6.05148e-05
*RES
1 *6407:Q *613:4 9.3 
2 *613:4 *6643:A 10.5679 
3 *613:4 *5979:A0 30.0143 
*END

*D_NET *614 0.00347613
*CONN
*I *5988:A0 I *D sky130_fd_sc_hd__mux4_1
*I *6574:A I *D sky130_fd_sc_hd__dlygate4sd3_1
*I *6408:Q O *D sky130_fd_sc_hd__dfxtp_1
*CAP
1 *5988:A0 0.000950149
2 *6574:A 3.94548e-05
3 *6408:Q 0.000136363
4 *614:10 0.00112597
5 *5988:A0 *6164:A1 0
6 *6574:A *6164:A0 0.000139907
7 *5945:A0 *5988:A0 0.00041499
8 *5945:A0 *614:10 0.000121573
9 *5988:A2 *5988:A0 8.4385e-05
10 *5988:S1 *5988:A0 0.000112648
11 *5989:A1 *5988:A0 0.000197589
12 *6319:A *5988:A0 8.03113e-05
13 *6494:D *5988:A0 1.3142e-05
14 *231:14 *6574:A 4.88515e-05
15 *482:93 *5988:A0 1.07987e-05
*RES
1 *6408:Q *614:10 15.9786 
2 *614:10 *6574:A 15.1571 
3 *614:10 *5988:A0 29.9786 
*END

*D_NET *615 0.00299282
*CONN
*I *6620:A I *D sky130_fd_sc_hd__dlygate4sd3_1
*I *5997:A0 I *D sky130_fd_sc_hd__mux4_1
*I *6409:Q O *D sky130_fd_sc_hd__dfxtp_1
*CAP
1 *6620:A 0
2 *5997:A0 0.000146688
3 *6409:Q 0.000688548
4 *615:10 0.000835235
5 *6130:S *5997:A0 0.000368834
6 *6377:CLK *5997:A0 9.41642e-05
7 *6377:CLK *615:10 0.000304394
8 *6409:D *615:10 5.05572e-05
9 *428:75 *5997:A0 0.000368834
10 *489:40 *615:10 0.000129515
11 *489:75 *615:10 6.05161e-06
*RES
1 *6409:Q *615:10 19.3179 
2 *615:10 *5997:A0 23.925 
3 *615:10 *6620:A 9.3 
*END

*D_NET *616 0.00361164
*CONN
*I *6639:A I *D sky130_fd_sc_hd__dlygate4sd3_1
*I *5932:A1 I *D sky130_fd_sc_hd__mux4_1
*I *6488:Q O *D sky130_fd_sc_hd__dfxtp_1
*CAP
1 *6639:A 0.000221822
2 *5932:A1 0.00072018
3 *6488:Q 0.000248029
4 *616:10 0.00119003
5 *6639:A *6077:A0 0.000113295
6 *6639:A *6306:A0 0.00019117
7 *616:10 *6306:A0 7.6644e-05
8 *5932:A2 *5932:A1 1.14548e-05
9 *5932:S0 *5932:A1 0.000116757
10 *5932:S1 *5932:A1 3.67142e-05
11 *5933:A1 *5932:A1 2.22891e-05
12 *5933:A1 *6639:A 2.58997e-05
13 *6488:D *616:10 0.000312215
14 *382:74 *6639:A 0.000248493
15 *382:74 *616:10 7.6644e-05
*RES
1 *6488:Q *616:10 17.8357 
2 *616:10 *5932:A1 22.8714 
3 *616:10 *6639:A 19.9607 
*END

*D_NET *617 0.00276885
*CONN
*I *6584:A I *D sky130_fd_sc_hd__dlygate4sd3_1
*I *5943:A1 I *D sky130_fd_sc_hd__mux4_1
*I *6489:Q O *D sky130_fd_sc_hd__dfxtp_1
*CAP
1 *6584:A 7.17896e-05
2 *5943:A1 0.00102792
3 *6489:Q 0
4 *617:4 0.00109971
5 *5944:A1 *5943:A1 0
6 *6306:S *5943:A1 0
7 *6489:CLK *5943:A1 0.000356035
8 *6489:D *5943:A1 9.73735e-05
9 *351:119 *5943:A1 0
10 *482:104 *5943:A1 0.000116029
*RES
1 *6489:Q *617:4 9.3 
2 *617:4 *5943:A1 31.5679 
3 *617:4 *6584:A 10.5679 
*END

*D_NET *618 0.00293229
*CONN
*I *6613:A I *D sky130_fd_sc_hd__dlygate4sd3_1
*I *5952:A1 I *D sky130_fd_sc_hd__mux4_1
*I *6490:Q O *D sky130_fd_sc_hd__dfxtp_1
*CAP
1 *6613:A 0.000168341
2 *5952:A1 0.000564675
3 *6490:Q 7.77551e-05
4 *618:8 0.000810772
5 *5952:A1 *6101:A0 3.18676e-05
6 *6613:A *6310:A0 0.000177821
7 *618:8 *757:56 4.87953e-05
8 *5952:A2 *5952:A1 0.000199758
9 *5952:S1 *5952:A1 6.5185e-05
10 *5953:A0 *5952:A1 8.03078e-05
11 *5953:A0 *6613:A 0.000241198
12 *233:150 *5952:A1 6.28257e-05
13 *233:150 *6613:A 8.6769e-05
14 *254:10 *5952:A1 0.000171368
15 *298:67 *6613:A 3.97677e-05
16 *351:101 *5952:A1 8.98423e-06
17 *470:151 *6613:A 9.60939e-05
*RES
1 *6490:Q *618:8 14.7464 
2 *618:8 *5952:A1 24.2464 
3 *618:8 *6613:A 18.7286 
*END

*D_NET *619 0.00348345
*CONN
*I *6608:A I *D sky130_fd_sc_hd__dlygate4sd3_1
*I *5961:A1 I *D sky130_fd_sc_hd__mux4_1
*I *6491:Q O *D sky130_fd_sc_hd__dfxtp_1
*CAP
1 *6608:A 0.000228067
2 *5961:A1 0.000837816
3 *6491:Q 0
4 *619:4 0.00106588
5 *5961:A1 *6083:A0 0.000123295
6 *5961:A1 *6083:A1 0.00036192
7 *6608:A *6083:A1 0.000186662
8 *6608:A *6158:A1 3.17148e-05
9 *6608:A *757:196 0.000218486
10 *5961:A2 *5961:A1 5.92605e-05
11 *5961:A3 *5961:A1 5.33433e-05
12 *5961:S0 *5961:A1 0.000148166
13 *5962:A1 *5961:A1 1.40872e-05
14 *6159:A *5961:A1 0.000150618
15 *6531:A *5961:A1 0
16 *470:151 *6608:A 4.1331e-06
*RES
1 *6491:Q *619:4 9.3 
2 *619:4 *5961:A1 31.3714 
3 *619:4 *6608:A 23.2286 
*END

*D_NET *620 0.00207768
*CONN
*I *6589:A I *D sky130_fd_sc_hd__dlygate4sd3_1
*I *5970:A1 I *D sky130_fd_sc_hd__mux4_1
*I *6492:Q O *D sky130_fd_sc_hd__dfxtp_1
*CAP
1 *6589:A 8.73275e-05
2 *5970:A1 0.000514535
3 *6492:Q 3.44989e-05
4 *620:6 0.000636361
5 *5970:A1 *6105:A0 3.69697e-05
6 *5970:A2 *6589:A 9.40137e-05
7 *6106:A *5970:A1 0
8 *6492:CLK *5970:A1 2.29377e-05
9 *6492:D *5970:A1 5.52238e-05
10 *232:103 *5970:A1 0.000266486
11 *232:103 *620:6 5.33005e-05
12 *233:81 *6589:A 0.000247778
13 *351:79 *5970:A1 2.21972e-05
14 *508:14 *5970:A1 6.05161e-06
*RES
1 *6492:Q *620:6 9.83571 
2 *620:6 *5970:A1 25.4071 
3 *620:6 *6589:A 21.4607 
*END

*D_NET *621 0.00272423
*CONN
*I *6575:A I *D sky130_fd_sc_hd__dlygate4sd3_1
*I *5979:A1 I *D sky130_fd_sc_hd__mux4_1
*I *6493:Q O *D sky130_fd_sc_hd__dfxtp_1
*CAP
1 *6575:A 0.000189114
2 *5979:A1 0.000979391
3 *6493:Q 0
4 *621:4 0.0011685
5 *6575:A *779:43 0
6 *5980:A0 *6575:A 0.000125731
7 *5996:S0 *5979:A1 2.59042e-05
8 *6493:CLK *5979:A1 0.000148629
9 *6493:D *5979:A1 1.64343e-05
10 *492:8 *5979:A1 1.52978e-05
11 *492:16 *5979:A1 5.52238e-05
12 *493:10 *5979:A1 0
13 *509:12 *5979:A1 0
*RES
1 *6493:Q *621:4 9.3 
2 *621:4 *5979:A1 31.9607 
3 *621:4 *6575:A 21.3 
*END

*D_NET *622 0.00391488
*CONN
*I *6570:A I *D sky130_fd_sc_hd__dlygate4sd3_1
*I *5988:A1 I *D sky130_fd_sc_hd__mux4_1
*I *6494:Q O *D sky130_fd_sc_hd__dfxtp_1
*CAP
1 *6570:A 0.000160032
2 *5988:A1 0.00047388
3 *6494:Q 0.000270506
4 *622:12 0.000904418
5 *5988:A1 *6109:A0 2.89114e-05
6 *5988:A1 *6318:A0 0.000100462
7 *5988:A1 *625:166 1.39726e-05
8 *5988:A1 *625:173 1.21258e-05
9 *5988:A1 *625:186 0.000579488
10 *5988:A1 *735:192 7.73006e-05
11 *6570:A *6318:A0 3.92854e-05
12 *622:12 *6318:A0 9.90431e-05
13 *622:12 *735:129 1.94945e-05
14 *5945:A0 *6570:A 6.8646e-06
15 *5945:A0 *622:12 0.000173587
16 *5988:A2 *5988:A1 1.92789e-05
17 *5988:S1 *6570:A 4.56498e-05
18 *6089:S *6570:A 8.86413e-05
19 *6110:A *5988:A1 4.58101e-05
20 *6379:D *622:12 4.46186e-06
21 *6617:A *5988:A1 0
22 *231:22 *622:12 0.000117968
23 *232:184 *6570:A 1.33343e-05
24 *237:150 *5988:A1 0.000278135
25 *237:150 *6570:A 8.24674e-05
26 *470:40 *5988:A1 9.46929e-05
27 *470:52 *5988:A1 7.67869e-06
28 *482:93 *5988:A1 2.89114e-05
29 *482:93 *622:12 9.31893e-05
30 *482:104 *5988:A1 0
31 *482:104 *622:12 3.52867e-05
*RES
1 *6494:Q *622:12 25.1571 
2 *622:12 *5988:A1 30.8357 
3 *622:12 *6570:A 22.1393 
*END

*D_NET *623 0.00302483
*CONN
*I *6624:A I *D sky130_fd_sc_hd__dlygate4sd3_1
*I *5997:A1 I *D sky130_fd_sc_hd__mux4_1
*I *6495:Q O *D sky130_fd_sc_hd__dfxtp_1
*CAP
1 *6624:A 0.000157287
2 *5997:A1 0.000996978
3 *6495:Q 5.55626e-05
4 *623:10 0.00120983
5 *5997:A2 *5997:A1 7.86304e-05
6 *6167:A *5997:A1 3.11905e-05
7 *6409:D *5997:A1 0.0001827
8 *225:160 *623:10 0.000109809
9 *489:34 *623:10 0.000202842
*RES
1 *6495:Q *623:10 20.8536 
2 *623:10 *5997:A1 21.2464 
3 *623:10 *6624:A 11.3893 
*END

*D_NET *624 0.0157842
*CONN
*I *6516:A I *D sky130_fd_sc_hd__clkbuf_4
*I *6654:X O *D sky130_fd_sc_hd__dlymetal6s2s_1
*CAP
1 *6516:A 0
2 *6654:X 2.23854e-05
3 *624:12 0.00381604
4 *624:10 0.00381604
5 *624:8 0.00297482
6 *624:6 0.0029972
7 *624:8 *746:6 0.00200341
8 *6654:A *624:8 9.90367e-05
9 *6663:A *624:8 5.52302e-05
*RES
1 *6654:X *624:6 9.72857 
2 *624:6 *624:8 60.9107 
3 *624:8 *624:10 4.5 
4 *624:10 *624:12 70.25 
5 *624:12 *6516:A 13.8 
*END

*D_NET *625 0.0372649
*CONN
*I *6247:A1 I *D sky130_fd_sc_hd__mux2_1
*I *6128:A1 I *D sky130_fd_sc_hd__mux2_1
*I *6318:A1 I *D sky130_fd_sc_hd__mux2_1
*I *6164:A1 I *D sky130_fd_sc_hd__mux2_1
*I *6089:A1 I *D sky130_fd_sc_hd__mux2_1
*I *6109:A1 I *D sky130_fd_sc_hd__mux2_1
*I *6071:A1 I *D sky130_fd_sc_hd__mux2_1
*I *6053:A1 I *D sky130_fd_sc_hd__mux2_1
*I *6300:A1 I *D sky130_fd_sc_hd__mux2_1
*I *6016:A1 I *D sky130_fd_sc_hd__mux2_1
*I *6035:A1 I *D sky130_fd_sc_hd__mux2_1
*I *6199:A1 I *D sky130_fd_sc_hd__mux2_1
*I *6146:A1 I *D sky130_fd_sc_hd__mux2_1
*I *6181:A1 I *D sky130_fd_sc_hd__mux2_1
*I *6217:A1 I *D sky130_fd_sc_hd__mux2_1
*I *5918:A1 I *D sky130_fd_sc_hd__mux2_1
*I *6655:X O *D sky130_fd_sc_hd__buf_4
*CAP
1 *6247:A1 6.54795e-05
2 *6128:A1 7.23449e-05
3 *6318:A1 0
4 *6164:A1 0.000399619
5 *6089:A1 3.82669e-05
6 *6109:A1 0
7 *6071:A1 0.000441295
8 *6053:A1 0.000189924
9 *6300:A1 0
10 *6016:A1 0.000272713
11 *6035:A1 0
12 *6199:A1 0.000559905
13 *6146:A1 0.000213222
14 *6181:A1 7.26651e-05
15 *6217:A1 0.000170193
16 *5918:A1 0
17 *6655:X 0.00123637
18 *625:186 0.000681557
19 *625:173 0.000355894
20 *625:166 8.71973e-05
21 *625:142 0.000972074
22 *625:124 0.00041816
23 *625:122 0.0011285
24 *625:116 0.00125681
25 *625:114 0.00225493
26 *625:72 0.00235551
27 *625:66 0.000583118
28 *625:51 0.00133707
29 *625:45 0.00110041
30 *625:32 0.000623726
31 *625:21 0.000509191
32 *625:12 0.00175138
33 *625:8 0.00288175
34 *6016:A1 *6016:A0 0.000189335
35 *6016:A1 *6300:A0 5.52302e-05
36 *6071:A1 *6071:A0 1.92905e-05
37 *6089:A1 *735:192 0.000103267
38 *6128:A1 *6128:A0 5.71472e-05
39 *6146:A1 *6146:A0 0.000145009
40 *6181:A1 *6181:A0 9.60875e-05
41 *6199:A1 *6035:A0 5.52238e-05
42 *6199:A1 *6199:A0 0.00015708
43 *6199:A1 *746:99 7.6644e-05
44 *6217:A1 *6217:A0 0.000198352
45 *6247:A1 *6247:A0 5.71472e-05
46 *625:12 *735:12 0.000568676
47 *625:12 *735:20 0.000934704
48 *625:21 *5918:A0 3.18676e-05
49 *625:32 *6217:A0 4.66203e-05
50 *625:32 *735:20 2.49484e-05
51 *625:66 *6146:A0 0.0003295
52 *625:72 *768:44 0.00034321
53 *625:114 *6027:A0 0.000214573
54 *625:114 *6035:A0 0.000483825
55 *625:116 *6109:A0 0.000232399
56 *625:122 *6290:A0 0
57 *625:122 *724:120 0
58 *625:122 *724:124 0
59 *625:122 *735:192 0.000378859
60 *625:122 *735:207 5.35368e-05
61 *625:124 *6300:A0 0.000227532
62 *625:142 *6016:A0 2.77258e-05
63 *625:142 *6300:A0 0.000181796
64 *625:166 *6109:A0 4.38128e-05
65 *625:186 *6318:A0 5.52238e-05
66 *5919:A *6217:A1 2.89016e-05
67 *5919:A *625:21 2.89114e-05
68 *5919:A *625:32 0.000337644
69 *5950:A1 *625:114 0.000191888
70 *5954:A0 *625:114 0.000163587
71 *5954:A0 *625:116 0.000276211
72 *5954:A1 *625:116 0.000144773
73 *5967:A1 *625:51 0
74 *5984:A1 *625:32 2.00751e-05
75 *5984:A1 *625:45 4.038e-06
76 *5984:A2 *625:45 3.17067e-05
77 *5984:S0 *625:45 9.99989e-05
78 *5985:A3 *6199:A1 0.000189222
79 *5985:A3 *625:72 0.000185587
80 *5986:S *6146:A1 5.33005e-05
81 *5987:A2 *625:142 5.66157e-05
82 *5987:S1 *6071:A1 5.80706e-06
83 *5988:A0 *6164:A1 0
84 *5988:A1 *625:166 1.39726e-05
85 *5988:A1 *625:173 1.21258e-05
86 *5988:A1 *625:186 0.000579488
87 *5988:S1 *6164:A1 0.000215896
88 *6007:A *625:122 2.56694e-05
89 *6031:S *625:51 9.24395e-05
90 *6036:A *6199:A1 5.26184e-05
91 *6129:A *6128:A1 3.97677e-05
92 *6129:A *625:66 2.89016e-05
93 *6217:S *625:32 0
94 *6290:S *625:122 0.000322446
95 *6291:A *625:122 4.15914e-05
96 *6328:D *625:32 0.00017309
97 *6352:D *6199:A1 0
98 *6388:D *625:114 9.41642e-05
99 *6392:CLK *625:51 5.30234e-05
100 *6525:A *625:114 7.75093e-05
101 *6594:A *625:45 0.000177941
102 *6604:A *6199:A1 0.000238941
103 *6617:A *625:116 0.000139097
104 *6630:A *6199:A1 4.13595e-05
105 *6650:A *625:122 6.74815e-05
106 *216:60 *625:12 1.02504e-05
107 *216:79 *625:21 3.57366e-05
108 *225:79 *625:45 0.000111796
109 *225:79 *625:51 0.000357048
110 *226:114 *625:51 0
111 *226:204 *625:114 7.75093e-05
112 *230:41 *625:51 0.000542969
113 *230:41 *625:66 2.24646e-05
114 *230:66 *6199:A1 0
115 *230:66 *625:66 0.000404174
116 *230:140 *6164:A1 0
117 *232:157 *6053:A1 0.000175118
118 *232:157 *625:142 3.55008e-05
119 *232:167 *625:142 0.000115072
120 *233:181 *6053:A1 0
121 *233:181 *6071:A1 6.75651e-05
122 *237:124 *625:116 2.89114e-05
123 *237:150 *6164:A1 0
124 *237:150 *625:116 0.000184634
125 *265:12 *625:51 0.000791819
126 *284:16 *6071:A1 0.000117543
127 *284:16 *6089:A1 5.33978e-05
128 *284:16 *625:122 0
129 *284:16 *625:142 0.000103032
130 *309:52 *6199:A1 7.64153e-05
131 *309:52 *625:51 6.9253e-05
132 *309:52 *625:66 2.16719e-05
133 *309:65 *625:114 0.000798551
134 *309:101 *625:114 0.000155926
135 *362:51 *6128:A1 9.90431e-05
136 *391:59 *625:45 7.83587e-05
137 *391:73 *625:32 7.83587e-05
138 *391:73 *625:45 0.000121333
139 *428:105 *6247:A1 0.000218045
140 *428:105 *625:51 0.000374225
141 *428:121 *625:45 0
142 *470:40 *6164:A1 3.64365e-05
143 *482:93 *6164:A1 7.58075e-05
144 *485:14 *6053:A1 0.000103275
145 *534:16 *6053:A1 0
146 *537:12 *625:122 0
147 *598:10 *625:32 0
*RES
1 *6655:X *625:8 34.4607 
2 *625:8 *625:12 45.6071 
3 *625:12 *5918:A1 9.3 
4 *625:12 *625:21 2.19643 
5 *625:21 *6217:A1 13.5321 
6 *625:21 *625:32 11 
7 *625:32 *6181:A1 14.7464 
8 *625:32 *625:45 12.5179 
9 *625:45 *625:51 25.25 
10 *625:51 *6146:A1 16.8 
11 *625:51 *625:66 13.5 
12 *625:66 *625:72 13.375 
13 *625:72 *6199:A1 28.4607 
14 *625:72 *6035:A1 9.3 
15 *625:72 *625:114 44.4821 
16 *625:114 *625:116 12.4464 
17 *625:116 *625:122 24.9107 
18 *625:122 *625:124 2.17857 
19 *625:124 *6016:A1 13.1214 
20 *625:124 *6300:A1 9.3 
21 *625:122 *625:142 11.1161 
22 *625:142 *6053:A1 18.3268 
23 *625:142 *6071:A1 21.2018 
24 *625:116 *625:166 0.946429 
25 *625:166 *6109:A1 9.3 
26 *625:166 *625:173 0.535714 
27 *625:173 *6089:A1 19.6393 
28 *625:173 *625:186 5.875 
29 *625:186 *6164:A1 26.0143 
30 *625:186 *6318:A1 9.3 
31 *625:66 *6128:A1 11.0679 
32 *625:45 *6247:A1 11.4786 
*END

*D_NET *626 0.00102286
*CONN
*I *6237:A0 I *D sky130_fd_sc_hd__mux2_1
*I *6623:X O *D sky130_fd_sc_hd__dlygate4sd3_1
*CAP
1 *6237:A0 0.000338059
2 *6623:X 0.000338059
3 *5939:A0 *6237:A0 0.000122091
4 *5941:A0 *6237:A0 9.80173e-05
5 *6623:A *6237:A0 0.000126639
*RES
1 *6623:X *6237:A0 25.7071 
*END

*D_NET *627 0.000524568
*CONN
*I *6320:A0 I *D sky130_fd_sc_hd__mux2_1
*I *6624:X O *D sky130_fd_sc_hd__dlygate4sd3_1
*CAP
1 *6320:A0 0.00024833
2 *6624:X 0.00024833
3 *225:160 *6320:A0 2.79092e-05
4 *237:86 *6320:A0 0
*RES
1 *6624:X *6320:A0 30.8143 
*END

*D_NET *628 0.000777109
*CONN
*I *6171:A0 I *D sky130_fd_sc_hd__mux2_1
*I *6625:X O *D sky130_fd_sc_hd__dlygate4sd3_1
*CAP
1 *6171:A0 0.000185304
2 *6625:X 0.000185304
3 *6171:A0 *6171:A1 5.71472e-05
4 *5939:A3 *6171:A0 0.000102207
5 *6172:A *6171:A0 0.000137515
6 *6625:A *6171:A0 5.33334e-05
7 *391:73 *6171:A0 5.62995e-05
*RES
1 *6625:X *6171:A0 23.6536 
*END

*D_NET *629 0.00158748
*CONN
*I *6215:A0 I *D sky130_fd_sc_hd__mux2_1
*I *6626:X O *D sky130_fd_sc_hd__dlygate4sd3_1
*CAP
1 *6215:A0 0.000641223
2 *6626:X 0.000641223
3 *6431:CLK *6215:A0 2.6269e-05
4 *6431:D *6215:A0 0.000168033
5 *6626:A *6215:A0 0
6 *237:86 *6215:A0 0
7 *411:77 *6215:A0 5.33334e-05
8 *411:92 *6215:A0 5.74021e-05
*RES
1 *6626:X *6215:A0 36.2964 
*END

*D_NET *630 0.00116772
*CONN
*I *6049:A0 I *D sky130_fd_sc_hd__mux2_1
*I *6627:X O *D sky130_fd_sc_hd__dlygate4sd3_1
*CAP
1 *6049:A0 0.000356146
2 *6627:X 0.000356146
3 *6049:A0 *6049:A1 5.71472e-05
4 *5969:A3 *6049:A0 0
5 *6050:A *6049:A0 5.25361e-05
6 *6358:D *6049:A0 0.000101777
7 *319:59 *6049:A0 1.54142e-05
8 *319:84 *6049:A0 0.000228558
*RES
1 *6627:X *6049:A0 34.975 
*END

*D_NET *631 0.00101219
*CONN
*I *6111:A0 I *D sky130_fd_sc_hd__mux2_1
*I *6628:X O *D sky130_fd_sc_hd__dlygate4sd3_1
*CAP
1 *6111:A0 0.000192351
2 *6628:X 0.000192351
3 *6111:A0 *636:65 0.000219711
4 *6199:S *6111:A0 0.000299248
5 *6495:D *6111:A0 5.52302e-05
6 *6628:A *6111:A0 5.33005e-05
*RES
1 *6628:X *6111:A0 23.6536 
*END

*D_NET *632 0.00116254
*CONN
*I *6152:A0 I *D sky130_fd_sc_hd__mux2_1
*I *6629:X O *D sky130_fd_sc_hd__dlygate4sd3_1
*CAP
1 *6152:A0 0.000533055
2 *6629:X 0.000533055
3 *6152:A0 *6152:A1 5.71472e-05
4 *239:228 *6152:A0 3.92854e-05
*RES
1 *6629:X *6152:A0 34.1 
*END

*D_NET *633 0.00113367
*CONN
*I *6035:A0 I *D sky130_fd_sc_hd__mux2_1
*I *6630:X O *D sky130_fd_sc_hd__dlygate4sd3_1
*CAP
1 *6035:A0 0.000102242
2 *6630:X 0.000102242
3 *6199:A1 *6035:A0 5.52238e-05
4 *6630:A *6035:A0 0.000229456
5 *309:65 *6035:A0 0.000160679
6 *625:114 *6035:A0 0.000483825
*RES
1 *6630:X *6035:A0 23.6536 
*END

*D_NET *634 0.000716547
*CONN
*I *6160:A0 I *D sky130_fd_sc_hd__mux2_1
*I *6631:X O *D sky130_fd_sc_hd__dlygate4sd3_1
*CAP
1 *6160:A0 0.00030705
2 *6631:X 0.00030705
3 *6160:A0 *6160:A1 2.89114e-05
4 *6160:S *6160:A0 1.39726e-05
5 *230:91 *6160:A0 5.9563e-05
*RES
1 *6631:X *6160:A0 23.6536 
*END

*D_NET *635 0.00147643
*CONN
*I *6099:A0 I *D sky130_fd_sc_hd__mux2_1
*I *6633:X O *D sky130_fd_sc_hd__dlygate4sd3_1
*CAP
1 *6099:A0 0.000303683
2 *6633:X 0.000303683
3 *6099:A0 *735:129 5.71472e-05
4 *6099:A0 *735:133 1.69961e-05
5 *5943:A0 *6099:A0 4.15914e-05
6 *6099:S *6099:A0 4.18895e-05
7 *6109:S *6099:A0 5.71472e-05
8 *6308:S *6099:A0 0.000165079
9 *6403:CLK *6099:A0 4.15914e-05
10 *470:52 *6099:A0 0.000447622
*RES
1 *6633:X *6099:A0 35.9571 
*END

*D_NET *636 0.0357847
*CONN
*I *6073:A1 I *D sky130_fd_sc_hd__mux2_1
*I *6091:A1 I *D sky130_fd_sc_hd__mux2_1
*I *6111:A1 I *D sky130_fd_sc_hd__mux2_1
*I *6320:A1 I *D sky130_fd_sc_hd__mux2_1
*I *6037:A1 I *D sky130_fd_sc_hd__mux2_1
*I *6148:A1 I *D sky130_fd_sc_hd__mux2_1
*I *6201:A1 I *D sky130_fd_sc_hd__mux2_1
*I *5920:A1 I *D sky130_fd_sc_hd__mux2_1
*I *6183:A1 I *D sky130_fd_sc_hd__mux2_1
*I *6219:A1 I *D sky130_fd_sc_hd__mux2_1
*I *6249:A1 I *D sky130_fd_sc_hd__mux2_1
*I *6130:A1 I *D sky130_fd_sc_hd__mux2_1
*I *6166:A1 I *D sky130_fd_sc_hd__mux2_1
*I *6055:A1 I *D sky130_fd_sc_hd__mux2_1
*I *6018:A1 I *D sky130_fd_sc_hd__mux2_1
*I *6302:A1 I *D sky130_fd_sc_hd__mux2_1
*I *6656:X O *D sky130_fd_sc_hd__buf_4
*CAP
1 *6073:A1 2.23854e-05
2 *6091:A1 0
3 *6111:A1 0
4 *6320:A1 0.000664465
5 *6037:A1 0.000151852
6 *6148:A1 0
7 *6201:A1 0.000273783
8 *5920:A1 0.000110551
9 *6183:A1 1.5559e-05
10 *6219:A1 0.000289543
11 *6249:A1 0.000775166
12 *6130:A1 9.55426e-05
13 *6166:A1 0
14 *6055:A1 1.43215e-05
15 *6018:A1 7.94777e-05
16 *6302:A1 0
17 *6656:X 0
18 *636:130 0.000720286
19 *636:126 0.000856944
20 *636:111 0.00142141
21 *636:109 0.000588814
22 *636:107 0.000429483
23 *636:90 0.000735911
24 *636:84 0.000774963
25 *636:80 0.0011121
26 *636:73 0.000276971
27 *636:65 0.00055864
28 *636:57 0.000439136
29 *636:53 0.00131006
30 *636:51 0.00121038
31 *636:47 0.000268737
32 *636:38 0.000661539
33 *636:23 0.000694894
34 *636:12 0.000438854
35 *636:6 0.00303036
36 *636:4 0.00278367
37 *6183:A1 *6183:A0 5.71472e-05
38 *6201:A1 *6201:A0 7.86995e-05
39 *6249:A1 *5920:A0 0.00029513
40 *636:23 *6302:A0 0.000274288
41 *636:47 *6073:A0 3.18676e-05
42 *636:57 *6091:A0 2.59355e-05
43 *636:65 *658:30 0
44 *636:84 *5997:S0 0.00017348
45 *636:84 *5997:S1 0.0003012
46 *636:107 *6148:A0 0.000181803
47 *636:130 *6183:A0 0.000579959
48 *5921:A *5920:A1 3.34295e-05
49 *5994:A0 *6201:A1 0
50 *5994:A0 *636:107 5.19842e-06
51 *5994:S1 *636:84 0.000218128
52 *5995:A1 *636:90 0
53 *5996:A0 *6018:A1 0
54 *5997:A2 *636:73 2.93225e-05
55 *5997:A2 *636:84 0.000151333
56 *5997:A3 *636:65 0.00021084
57 *5997:A3 *636:84 0.000128146
58 *5998:A0 *636:73 0.000385854
59 *5998:A0 *636:84 0
60 *6055:S *6055:A1 2.08464e-05
61 *6055:S *636:38 6.54721e-05
62 *6055:S *636:47 3.18676e-05
63 *6074:A *636:53 0
64 *6091:S *636:53 0.00180414
65 *6091:S *636:57 1.21258e-05
66 *6111:A0 *636:65 0.000219711
67 *6130:S *6130:A1 0.000188586
68 *6130:S *636:84 0
69 *6130:S *636:90 0
70 *6131:A *6037:A1 0
71 *6131:A *636:90 3.86333e-06
72 *6148:S *6201:A1 4.25523e-05
73 *6148:S *636:111 0.000135793
74 *6166:S *636:65 0.000216304
75 *6166:S *636:73 0.000149886
76 *6167:A *6320:A1 0.000181796
77 *6167:A *636:73 0.000140933
78 *6167:A *636:80 5.33005e-05
79 *6183:S *636:130 3.99614e-06
80 *6184:A *6219:A1 9.64602e-05
81 *6195:S *6037:A1 0.00048939
82 *6195:S *6201:A1 8.10623e-05
83 *6201:S *6201:A1 5.7661e-06
84 *6321:A *6320:A1 0.000113348
85 *6369:D *636:53 0
86 *6393:CLK *636:107 6.18194e-05
87 *6393:D *636:107 0.000182101
88 *6409:D *636:84 0
89 *6495:D *6320:A1 1.76204e-05
90 *6505:A *636:84 0
91 *6505:A *636:90 0
92 *6542:A *6130:A1 0.000268061
93 *6542:A *636:90 0.000126439
94 *6641:A *6018:A1 5.33978e-05
95 *6641:A *636:23 2.49484e-05
96 *216:29 *5920:A1 0.000123903
97 *225:39 *6249:A1 0
98 *226:83 *6201:A1 9.41642e-05
99 *226:85 *6201:A1 0
100 *226:85 *6249:A1 0
101 *226:85 *636:111 0
102 *226:95 *6249:A1 0.000490416
103 *230:16 *6130:A1 0.000123288
104 *230:16 *636:90 0.00017152
105 *237:66 *6130:A1 0
106 *237:80 *6130:A1 2.9214e-06
107 *239:168 *6130:A1 2.44318e-05
108 *287:22 *6037:A1 0.000218246
109 *287:22 *636:84 2.95466e-05
110 *292:12 *636:53 0.00100309
111 *295:20 *636:111 2.15154e-05
112 *298:18 *6018:A1 5.80706e-06
113 *329:10 *636:53 0.00166314
114 *351:31 *636:53 0.000123518
115 *362:12 *636:53 0.00145186
116 *391:30 *6183:A1 9.90431e-05
117 *391:47 *6219:A1 0
118 *401:22 *6201:A1 4.58194e-05
119 *411:30 *6219:A1 0.00059042
120 *428:75 *6201:A1 0
121 *428:75 *6249:A1 0
122 *428:75 *636:111 0
123 *460:8 *6018:A1 0
124 *460:31 *6055:A1 0
125 *460:31 *636:38 0.000457029
126 *460:31 *636:47 0.00012358
127 *470:18 *6320:A1 5.62995e-05
128 *480:16 *5920:A1 0
129 *488:39 *6249:A1 0
130 *511:10 *636:57 4.45768e-06
131 *519:10 *636:65 0.000101545
*RES
1 *6656:X *636:4 9.3 
2 *636:4 *636:6 46.125 
3 *636:6 *636:12 13.375 
4 *636:12 *6302:A1 9.3 
5 *636:12 *636:23 8.42857 
6 *636:23 *6018:A1 15.4429 
7 *636:23 *636:38 10.8036 
8 *636:38 *6055:A1 9.72857 
9 *636:38 *636:47 4.23214 
10 *636:47 *636:51 4.92857 
11 *636:51 *636:53 47.1786 
12 *636:53 *636:57 5.85714 
13 *636:57 *636:65 15.25 
14 *636:65 *636:73 15.3393 
15 *636:73 *6166:A1 9.3 
16 *636:73 *636:80 0.535714 
17 *636:80 *636:84 16.3125 
18 *636:84 *636:90 4.08036 
19 *636:90 *6130:A1 17.6393 
20 *636:90 *636:107 9.96429 
21 *636:107 *636:109 4.5 
22 *636:109 *636:111 6.19643 
23 *636:111 *6249:A1 27.0679 
24 *636:111 *636:126 9.14286 
25 *636:126 *636:130 8.25 
26 *636:130 *6219:A1 25.9429 
27 *636:130 *6183:A1 10.2464 
28 *636:126 *5920:A1 21.1571 
29 *636:109 *6201:A1 20.1036 
30 *636:107 *6148:A1 9.3 
31 *636:84 *6037:A1 19.2554 
32 *636:80 *6320:A1 19.8357 
33 *636:65 *6111:A1 9.3 
34 *636:57 *6091:A1 9.3 
35 *636:47 *6073:A1 9.72857 
*END

*D_NET *637 0.00109374
*CONN
*I *6010:A0 I *D sky130_fd_sc_hd__mux2_1
*I *6634:X O *D sky130_fd_sc_hd__dlygate4sd3_1
*CAP
1 *6010:A0 0.000309303
2 *6634:X 0.000309303
3 *6010:A0 *757:33 0.000358977
4 *6010:A0 *757:56 1.21258e-05
5 *232:143 *6010:A0 7.83659e-05
6 *319:105 *6010:A0 2.56694e-05
*RES
1 *6634:X *6010:A0 32.4571 
*END

*D_NET *638 0.000855009
*CONN
*I *6091:A0 I *D sky130_fd_sc_hd__mux2_1
*I *6635:X O *D sky130_fd_sc_hd__dlygate4sd3_1
*CAP
1 *6091:A0 0.000275901
2 *6635:X 0.000275901
3 *6091:S *6091:A0 9.41642e-05
4 *6216:A *6091:A0 0.00010096
5 *6635:A *6091:A0 8.21467e-05
6 *636:57 *6091:A0 2.59355e-05
*RES
1 *6635:X *6091:A0 24.2071 
*END

*D_NET *639 0.00137988
*CONN
*I *6077:A0 I *D sky130_fd_sc_hd__mux2_1
*I *6636:X O *D sky130_fd_sc_hd__dlygate4sd3_1
*CAP
1 *6077:A0 0.000537176
2 *6636:X 0.000537176
3 *6077:A0 *6077:A1 5.71472e-05
4 *5933:A1 *6077:A0 3.92854e-05
5 *6077:S *6077:A0 1.74352e-05
6 *6639:A *6077:A0 0.000113295
7 *382:74 *6077:A0 7.83659e-05
*RES
1 *6636:X *6077:A0 34.9214 
*END

*D_NET *640 0.000853244
*CONN
*I *6205:A0 I *D sky130_fd_sc_hd__mux2_1
*I *6637:X O *D sky130_fd_sc_hd__dlygate4sd3_1
*CAP
1 *6205:A0 0.000239737
2 *6637:X 0.000239737
3 *6205:A0 *6205:A1 9.71197e-05
4 *6205:A0 *658:20 8.20393e-05
5 *6205:S *6205:A0 4.43256e-05
6 *6637:A *6205:A0 0.00014285
7 *411:125 *6205:A0 7.43578e-06
*RES
1 *6637:X *6205:A0 23.6536 
*END

*D_NET *641 0.00170143
*CONN
*I *6213:A0 I *D sky130_fd_sc_hd__mux2_1
*I *6638:X O *D sky130_fd_sc_hd__dlygate4sd3_1
*CAP
1 *6213:A0 0.000676645
2 *6638:X 0.000676645
3 *6213:A0 *6213:A1 7.77652e-05
4 *6213:S *6213:A0 0.00010096
5 *6214:A *6213:A0 0
6 *6414:D *6213:A0 9.10431e-06
7 *6638:A *6213:A0 0.000151061
8 *488:39 *6213:A0 9.25014e-06
*RES
1 *6638:X *6213:A0 38.0821 
*END

*D_NET *642 0.00188271
*CONN
*I *6306:A0 I *D sky130_fd_sc_hd__mux2_1
*I *6639:X O *D sky130_fd_sc_hd__dlygate4sd3_1
*CAP
1 *6306:A0 0.000518324
2 *6639:X 0.000518324
3 *5933:A1 *6306:A0 0.000103267
4 *5943:S1 *6306:A0 0
5 *6307:A *6306:A0 1.29722e-05
6 *6488:CLK *6306:A0 0.000273269
7 *6488:D *6306:A0 0.000188743
8 *6639:A *6306:A0 0.00019117
9 *233:264 *6306:A0 0
10 *616:10 *6306:A0 7.6644e-05
*RES
1 *6639:X *6306:A0 36.5286 
*END

*D_NET *643 0.00169733
*CONN
*I *6079:A0 I *D sky130_fd_sc_hd__mux2_1
*I *6640:X O *D sky130_fd_sc_hd__dlygate4sd3_1
*CAP
1 *6079:A0 0.000499276
2 *6640:X 0.000499276
3 *5932:S0 *6079:A0 4.15914e-05
4 *6080:A *6079:A0 0.000486435
5 *6089:S *6079:A0 2.79092e-05
6 *247:14 *6079:A0 0.000142847
*RES
1 *6640:X *6079:A0 37.4036 
*END

*D_NET *644 0.000851287
*CONN
*I *6302:A0 I *D sky130_fd_sc_hd__mux2_1
*I *6641:X O *D sky130_fd_sc_hd__dlygate4sd3_1
*CAP
1 *6302:A0 0.000153224
2 *6641:X 0.000153224
3 *460:14 *6302:A0 5.23057e-05
4 *460:31 *6302:A0 0.000218246
5 *636:23 *6302:A0 0.000274288
*RES
1 *6641:X *6302:A0 23.6536 
*END

*D_NET *645 0.00185955
*CONN
*I *6043:A0 I *D sky130_fd_sc_hd__mux2_1
*I *6642:X O *D sky130_fd_sc_hd__dlygate4sd3_1
*CAP
1 *6043:A0 0.000762625
2 *6642:X 0.000762625
3 *5942:A1 *6043:A0 6.43808e-05
4 *5942:A2 *6043:A0 1.14548e-05
5 *5942:S1 *6043:A0 8.52065e-05
6 *230:128 *6043:A0 4.15914e-05
7 *232:167 *6043:A0 7.83659e-05
8 *529:16 *6043:A0 5.33005e-05
*RES
1 *6642:X *6043:A0 37.3857 
*END

*D_NET *646 0.000749011
*CONN
*I *6061:A0 I *D sky130_fd_sc_hd__mux2_1
*I *6644:X O *D sky130_fd_sc_hd__dlygate4sd3_1
*CAP
1 *6061:A0 0.000346356
2 *6644:X 0.000346356
3 *6061:S *6061:A0 5.62995e-05
*RES
1 *6644:X *6061:A0 23.6536 
*END

*D_NET *647 0.0128767
*CONN
*I *6479:RESET_B I *D sky130_fd_sc_hd__dfrtp_4
*I *6514:A I *D sky130_fd_sc_hd__clkbuf_8
*I *6657:X O *D sky130_fd_sc_hd__clkbuf_2
*CAP
1 *6479:RESET_B 0.00104747
2 *6514:A 0
3 *6657:X 0
4 *647:16 0.00203249
5 *647:8 0.00475965
6 *647:6 0.00377463
7 *6479:RESET_B *6447:D 0.000288564
8 *6479:RESET_B *6462:D 9.25014e-06
9 *6479:RESET_B *6558:A 4.66511e-05
10 *647:16 *712:10 7.15962e-05
11 *6222:A1 *6479:RESET_B 6.74911e-05
12 *6462:CLK *6479:RESET_B 0.000753293
13 *6462:CLK *647:16 1.02132e-05
14 *6656:A *647:8 1.53908e-05
15 *6665:A *647:8 0
*RES
1 *6657:X *647:6 13.8 
2 *647:6 *647:8 69.6429 
3 *647:8 *647:16 21.5 
4 *647:16 *6514:A 9.3 
5 *647:16 *6479:RESET_B 29.2946 
*END

*D_NET *648 0.00103623
*CONN
*I *6189:A0 I *D sky130_fd_sc_hd__mux2_1
*I *6645:X O *D sky130_fd_sc_hd__dlygate4sd3_1
*CAP
1 *6189:A0 0.000291512
2 *6645:X 0.000291512
3 *6189:A0 *6025:A1 0.00025706
4 *6189:A0 *6189:A1 5.33005e-05
5 *6645:A *6189:A0 0.00014285
*RES
1 *6645:X *6189:A0 24.0643 
*END

*D_NET *649 0.00137873
*CONN
*I *6290:A0 I *D sky130_fd_sc_hd__mux2_1
*I *6646:X O *D sky130_fd_sc_hd__dlygate4sd3_1
*CAP
1 *6290:A0 0.000371173
2 *6646:X 0.000371173
3 *6290:A0 *6043:A1 5.33005e-05
4 *6290:A0 *735:192 0.000105347
5 *6290:A0 *735:207 0.000128901
6 *6481:CLK *6290:A0 0.000125724
7 *6481:D *6290:A0 8.39e-05
8 *6646:A *6290:A0 4.01768e-05
9 *284:16 *6290:A0 0
10 *537:12 *6290:A0 9.90367e-05
11 *625:122 *6290:A0 0
*RES
1 *6646:X *6290:A0 35.6893 
*END

*D_NET *650 0.00129744
*CONN
*I *6241:A0 I *D sky130_fd_sc_hd__mux2_1
*I *6647:X O *D sky130_fd_sc_hd__dlygate4sd3_1
*CAP
1 *6241:A0 0.000423077
2 *6647:X 0.000423077
3 *6241:A0 *6241:A1 5.52302e-05
4 *6241:S *6241:A0 9.99644e-06
5 *6339:CLK *6241:A0 0.000152921
6 *6442:D *6241:A0 8.00806e-05
7 *485:30 *6241:A0 0.000153054
*RES
1 *6647:X *6241:A0 34.0643 
*END

*D_NET *651 0.000830474
*CONN
*I *6142:A0 I *D sky130_fd_sc_hd__mux2_1
*I *6648:X O *D sky130_fd_sc_hd__dlygate4sd3_1
*CAP
1 *6142:A0 0.000132922
2 *6648:X 0.000132922
3 *6196:A *6142:A0 0.000139913
4 *225:160 *6142:A0 0.00010326
5 *295:20 *6142:A0 0.000271345
6 *488:14 *6142:A0 5.01117e-05
*RES
1 *6648:X *6142:A0 31.5286 
*END

*D_NET *652 0.00121837
*CONN
*I *6187:A0 I *D sky130_fd_sc_hd__mux2_1
*I *6649:X O *D sky130_fd_sc_hd__dlygate4sd3_1
*CAP
1 *6187:A0 0.000286884
2 *6649:X 0.000286884
3 *6187:A0 *6187:A1 0.000144633
4 *5925:A3 *6187:A0 0.00018372
5 *6024:A *6187:A0 5.52238e-05
6 *6135:A *6187:A0 0
7 *6187:S *6187:A0 5.62995e-05
8 *6346:D *6187:A0 0.00010326
9 *6548:A *6187:A0 9.56968e-05
10 *552:10 *6187:A0 0
11 *568:8 *6187:A0 5.7661e-06
*RES
1 *6649:X *6187:A0 34.9214 
*END

*D_NET *653 0.00118861
*CONN
*I *6300:A0 I *D sky130_fd_sc_hd__mux2_1
*I *6650:X O *D sky130_fd_sc_hd__dlygate4sd3_1
*CAP
1 *6300:A0 0.000144436
2 *6650:X 0.000144436
3 *6300:A0 *6016:A0 0.000301837
4 *6016:A1 *6300:A0 5.52302e-05
5 *6290:S *6300:A0 3.25247e-05
6 *232:167 *6300:A0 0.000100823
7 *625:124 *6300:A0 0.000227532
8 *625:142 *6300:A0 0.000181796
*RES
1 *6650:X *6300:A0 33.1714 
*END

*D_NET *654 0.000574893
*CONN
*I *6053:A0 I *D sky130_fd_sc_hd__mux2_1
*I *6651:X O *D sky130_fd_sc_hd__dlygate4sd3_1
*CAP
1 *6053:A0 0.000183246
2 *6651:X 0.000183246
3 *5987:A0 *6053:A0 8.27184e-06
4 *6043:S *6053:A0 9.60939e-05
5 *233:181 *6053:A0 2.56694e-05
6 *485:10 *6053:A0 7.83659e-05
*RES
1 *6651:X *6053:A0 30.4036 
*END

*D_NET *655 0.000974146
*CONN
*I *6158:A0 I *D sky130_fd_sc_hd__mux2_1
*I *6652:X O *D sky130_fd_sc_hd__dlygate4sd3_1
*CAP
1 *6158:A0 0.000460401
2 *6652:X 0.000460401
3 *6158:S *6158:A0 5.33433e-05
*RES
1 *6652:X *6158:A0 35.5464 
*END

*D_NET *656 0.000562464
*CONN
*I *6045:A0 I *D sky130_fd_sc_hd__mux2_1
*I *6653:X O *D sky130_fd_sc_hd__dlygate4sd3_1
*CAP
1 *6045:A0 0.000218013
2 *6653:X 0.000218013
3 *6045:A0 *6045:A1 5.66971e-05
4 *319:84 *6045:A0 1.62025e-05
5 *319:95 *6045:A0 5.35386e-05
*RES
1 *6653:X *6045:A0 30.8143 
*END

*D_NET *657 0.00103001
*CONN
*I *6243:A0 I *D sky130_fd_sc_hd__mux2_1
*I *6519:X O *D sky130_fd_sc_hd__dlygate4sd3_1
*CAP
1 *6243:A0 0.000220791
2 *6519:X 0.000220791
3 *6243:A0 *6243:A1 5.52238e-05
4 *265:12 *6243:A0 0.000533203
*RES
1 *6519:X *6243:A0 23.6536 
*END

*D_NET *658 0.0303111
*CONN
*I *5904:A I *D sky130_fd_sc_hd__buf_8
*I *6658:X O *D sky130_fd_sc_hd__clkbuf_2
*CAP
1 *5904:A 0
2 *6658:X 0.00113174
3 *658:30 0.00190212
4 *658:24 0.00260091
5 *658:20 0.00285244
6 *658:10 0.0071065
7 *658:8 0.00608459
8 *658:10 *6000:A1 0.000360894
9 *658:10 *6118:A0 0.000881776
10 *658:30 *5997:S1 0
11 *658:30 *6142:A1 3.88323e-05
12 *658:30 *6215:A1 0
13 *658:30 *768:93 4.34666e-05
14 *5967:A2 *658:24 0.000180587
15 *5995:A1 *658:30 0
16 *5998:A1 *658:30 6.32633e-05
17 *6000:A0 *658:10 0.00367108
18 *6001:A *658:10 0.00010096
19 *6038:A *658:30 0.000100671
20 *6143:A *658:30 4.15914e-05
21 *6166:S *658:30 0
22 *6205:A0 *658:20 8.20393e-05
23 *6205:S *658:20 4.87953e-05
24 *6206:A *658:20 3.06878e-06
25 *6216:A *658:30 8.00806e-05
26 *6321:A *658:30 0.00031397
27 *6322:D *658:20 4.9773e-05
28 *6353:CLK *658:30 0
29 *6353:D *658:30 0
30 *6398:CLK *658:30 1.76039e-05
31 *6398:D *658:24 8.95186e-05
32 *6398:D *658:30 0
33 *6409:D *658:30 0.000411455
34 *6415:D *658:30 8.06427e-05
35 *6495:D *658:30 3.4323e-05
36 *6505:A *658:30 0.000178037
37 *6637:A *658:20 5.41494e-05
38 *6648:A *658:24 0.000146986
39 *6648:A *658:30 6.65302e-05
40 *6658:A *658:8 3.18676e-05
41 *215:10 *658:30 5.52238e-05
42 *216:44 *658:24 0.000747401
43 *225:136 *658:20 9.24395e-05
44 *226:133 *658:20 8.68665e-05
45 *237:80 *658:30 0.000264178
46 *309:14 *658:30 0
47 *391:122 *658:30 2.89016e-05
48 *411:125 *658:20 0.000114874
49 *479:86 *658:30 4.65158e-06
50 *481:52 *658:20 6.62983e-05
51 *488:8 *658:30 0
52 *488:14 *658:30 0
53 *636:65 *658:30 0
*RES
1 *6658:X *658:8 22.7911 
2 *658:8 *658:10 92.7411 
3 *658:10 *658:20 37.1518 
4 *658:20 *658:24 20.4375 
5 *658:24 *658:30 42.1964 
6 *658:30 *5904:A 9.3 
*END

*D_NET *659 0.00148402
*CONN
*I *6016:A0 I *D sky130_fd_sc_hd__mux2_1
*I *6520:X O *D sky130_fd_sc_hd__dlygate4sd3_1
*CAP
1 *6016:A0 0.000319346
2 *6520:X 0.000319346
3 *6006:S *6016:A0 0.00014285
4 *6016:A1 *6016:A0 0.000189335
5 *6300:A0 *6016:A0 0.000301837
6 *6300:S *6016:A0 0.000120969
7 *6301:A *6016:A0 6.26078e-05
8 *625:142 *6016:A0 2.77258e-05
*RES
1 *6520:X *6016:A0 27.9036 
*END

*D_NET *660 0.000724756
*CONN
*I *6047:A0 I *D sky130_fd_sc_hd__mux2_1
*I *6521:X O *D sky130_fd_sc_hd__dlygate4sd3_1
*CAP
1 *6047:A0 0.000168331
2 *6521:X 0.000168331
3 *6047:A0 *6047:A1 5.71472e-05
4 *6047:A0 *779:12 0.00026875
5 *6047:S *6047:A0 6.2198e-05
*RES
1 *6521:X *6047:A0 23.6536 
*END

*D_NET *661 0.00158748
*CONN
*I *6288:A0 I *D sky130_fd_sc_hd__mux2_1
*I *6522:X O *D sky130_fd_sc_hd__dlygate4sd3_1
*CAP
1 *6288:A0 0.000371309
2 *6522:X 0.000371309
3 *5931:A1 *6288:A0 5.29944e-05
4 *6042:A *6288:A0 0.000172233
5 *6480:CLK *6288:A0 0.00022459
6 *232:157 *6288:A0 0.000171368
7 *319:105 *6288:A0 6.62243e-05
8 *319:109 *6288:A0 0.000157455
*RES
1 *6522:X *6288:A0 35.6714 
*END

*D_NET *662 0.00114896
*CONN
*I *6041:A0 I *D sky130_fd_sc_hd__mux2_1
*I *6523:X O *D sky130_fd_sc_hd__dlygate4sd3_1
*CAP
1 *6041:A0 0.000404047
2 *6523:X 0.000404047
3 *6041:A0 *724:151 2.89114e-05
4 *6041:A0 *724:164 0.000233592
5 *233:171 *6041:A0 7.83659e-05
6 *329:85 *6041:A0 0
*RES
1 *6523:X *6041:A0 33.2786 
*END

*D_NET *663 0.000924834
*CONN
*I *6087:A0 I *D sky130_fd_sc_hd__mux2_1
*I *6524:X O *D sky130_fd_sc_hd__dlygate4sd3_1
*CAP
1 *6087:A0 0.000411369
2 *6524:X 0.000411369
3 *6087:A0 *6087:A1 5.33005e-05
4 *5979:A0 *6087:A0 0
5 *6087:S *6087:A0 4.87953e-05
6 *232:69 *6087:A0 0
*RES
1 *6524:X *6087:A0 34.1179 
*END

*D_NET *664 0.00181635
*CONN
*I *6027:A0 I *D sky130_fd_sc_hd__mux2_1
*I *6525:X O *D sky130_fd_sc_hd__dlygate4sd3_1
*CAP
1 *6027:A0 0.00051766
2 *6525:X 0.00051766
3 *6027:A0 *6027:A1 5.52238e-05
4 *5949:A2 *6027:A0 2.28598e-05
5 *5950:A0 *6027:A0 2.06112e-05
6 *5954:A0 *6027:A0 3.78226e-05
7 *6028:A *6027:A0 0.000127503
8 *6388:CLK *6027:A0 0.000117553
9 *6388:D *6027:A0 5.7298e-05
10 *226:204 *6027:A0 0.000127585
11 *625:114 *6027:A0 0.000214573
*RES
1 *6525:X *6027:A0 37.7964 
*END

*D_NET *665 0.000586615
*CONN
*I *6298:A0 I *D sky130_fd_sc_hd__mux2_1
*I *6526:X O *D sky130_fd_sc_hd__dlygate4sd3_1
*CAP
1 *6298:A0 0.000197444
2 *6526:X 0.000197444
3 *6298:A0 *6298:A1 0.000102659
4 *5978:A3 *6298:A0 1.16543e-05
5 *6359:D *6298:A0 7.74135e-05
*RES
1 *6526:X *6298:A0 30.8143 
*END

*D_NET *666 0.00113429
*CONN
*I *6097:A0 I *D sky130_fd_sc_hd__mux2_1
*I *6527:X O *D sky130_fd_sc_hd__dlygate4sd3_1
*CAP
1 *6097:A0 0.000136533
2 *6527:X 0.000136533
3 *6097:A0 *6097:A1 5.7661e-06
4 *6097:A0 *724:179 3.18676e-05
5 *6097:A0 *724:188 0.000432762
6 *6402:CLK *6097:A0 0.000291793
7 *6527:A *6097:A0 9.90367e-05
*RES
1 *6527:X *6097:A0 24.2071 
*END

*D_NET *667 0.00105989
*CONN
*I *6183:A0 I *D sky130_fd_sc_hd__mux2_1
*I *6528:X O *D sky130_fd_sc_hd__dlygate4sd3_1
*CAP
1 *6183:A0 0.000160291
2 *6528:X 0.000160291
3 *6183:A1 *6183:A0 5.71472e-05
4 *391:30 *6183:A0 2.44318e-05
5 *391:47 *6183:A0 7.77652e-05
6 *636:130 *6183:A0 0.000579959
*RES
1 *6528:X *6183:A0 24.0643 
*END

*D_NET *668 0.00152516
*CONN
*I *6156:A0 I *D sky130_fd_sc_hd__mux2_1
*I *6530:X O *D sky130_fd_sc_hd__dlygate4sd3_1
*CAP
1 *6156:A0 0.00067691
2 *6530:X 0.00067691
3 *6156:A0 *6156:A1 2.27416e-05
4 *6157:A *6156:A0 0.000113844
5 *6530:A *6156:A0 9.33978e-07
6 *298:73 *6156:A0 2.34204e-05
7 *339:65 *6156:A0 1.03968e-05
*RES
1 *6530:X *6156:A0 36.2964 
*END

*D_NET *669 0.0380572
*CONN
*I *828:DIODE I *D sky130_fd_sc_hd__diode_2
*I *6669:A I *D sky130_fd_sc_hd__clkbuf_4
*I *5899:Y O *D sky130_fd_sc_hd__inv_2
*CAP
1 *828:DIODE 0.000182811
2 *6669:A 0
3 *5899:Y 0.0124141
4 *669:18 0.000182811
5 *669:16 0.00608425
6 *669:14 0.0184983
7 *669:14 *6449:RESET_B 9.15186e-06
8 empty *828:DIODE 5.52302e-05
9 empty *669:16 0
10 *5950:A0 *669:14 0
11 *5988:S0 *669:14 0.000630538
12 *6109:S *669:14 0
13 *470:40 *669:14 0
*RES
1 *5899:Y *669:14 47.4643 
2 *669:14 *669:16 111.688 
3 *669:16 *669:18 4.5 
4 *669:18 *6669:A 9.3 
5 *669:18 *828:DIODE 12.3 
*END

*D_NET *670 0.00138638
*CONN
*I *6083:A0 I *D sky130_fd_sc_hd__mux2_1
*I *6531:X O *D sky130_fd_sc_hd__dlygate4sd3_1
*CAP
1 *6083:A0 0.000386496
2 *6531:X 0.000386496
3 *5961:A0 *6083:A0 1.56e-05
4 *5961:A1 *6083:A0 0.000123295
5 *5961:A2 *6083:A0 0.000166416
6 *6313:A *6083:A0 3.67257e-05
7 *6405:CLK *6083:A0 0.000271345
8 *6531:A *6083:A0 0
*RES
1 *6531:X *6083:A0 36.0286 
*END

*D_NET *671 0.00118364
*CONN
*I *6065:A0 I *D sky130_fd_sc_hd__mux2_1
*I *6532:X O *D sky130_fd_sc_hd__dlygate4sd3_1
*CAP
1 *6065:A0 0.000314042
2 *6532:X 0.000314042
3 *6065:S *6065:A0 0.00010096
4 *6365:D *6065:A0 0
5 *470:151 *6065:A0 0.000360894
6 *486:106 *6065:A0 9.37018e-05
7 *523:12 *6065:A0 0
*RES
1 *6532:X *6065:A0 35.3857 
*END

*D_NET *672 0.000980754
*CONN
*I *6179:A0 I *D sky130_fd_sc_hd__mux2_1
*I *6533:X O *D sky130_fd_sc_hd__dlygate4sd3_1
*CAP
1 *6179:A0 0.000303791
2 *6533:X 0.000303791
3 *6179:A0 *6179:A1 0.000181796
4 *6179:A0 *779:81 2.56694e-05
5 *6179:A0 *779:109 0.000142856
6 *233:41 *6179:A0 0
7 *428:16 *6179:A0 2.28499e-05
*RES
1 *6533:X *6179:A0 32.0464 
*END

*D_NET *673 0.00121308
*CONN
*I *6173:A0 I *D sky130_fd_sc_hd__mux2_1
*I *6534:X O *D sky130_fd_sc_hd__dlygate4sd3_1
*CAP
1 *6173:A0 0.000485383
2 *6534:X 0.000485383
3 *6173:A0 *6173:A1 1.6539e-05
4 *5948:A3 *6173:A0 9.61553e-05
5 *6428:CLK *6173:A0 5.30637e-06
6 *6534:A *6173:A0 5.03772e-05
7 *391:22 *6173:A0 3.69697e-05
8 *602:10 *6173:A0 3.69697e-05
*RES
1 *6534:X *6173:A0 34.4393 
*END

*D_NET *674 0.00127408
*CONN
*I *6217:A0 I *D sky130_fd_sc_hd__mux2_1
*I *6535:X O *D sky130_fd_sc_hd__dlygate4sd3_1
*CAP
1 *6217:A0 0.000428007
2 *6535:X 0.000428007
3 *6217:A1 *6217:A0 0.000198352
4 *6217:S *6217:A0 0
5 *6218:A *6217:A0 0
6 *6328:D *6217:A0 0.00017309
7 *598:10 *6217:A0 0
8 *625:32 *6217:A0 4.66203e-05
*RES
1 *6535:X *6217:A0 34.8857 
*END

*D_NET *675 0.00137041
*CONN
*I *6006:A0 I *D sky130_fd_sc_hd__mux2_1
*I *6536:X O *D sky130_fd_sc_hd__dlygate4sd3_1
*CAP
1 *6006:A0 0.0004613
2 *6536:X 0.0004613
3 *5942:A0 *6006:A0 4.67211e-05
4 *6291:A *6006:A0 0.000311183
5 *233:191 *6006:A0 8.9904e-05
*RES
1 *6536:X *6006:A0 34.1 
*END

*D_NET *676 0.000771679
*CONN
*I *6122:A0 I *D sky130_fd_sc_hd__mux2_1
*I *6537:X O *D sky130_fd_sc_hd__dlygate4sd3_1
*CAP
1 *6122:A0 0.000297748
2 *6537:X 0.000297748
3 *6122:A0 *6122:A1 5.71472e-05
4 *5958:A0 *6122:A0 7.32173e-05
5 *6537:A *6122:A0 4.58194e-05
*RES
1 *6537:X *6122:A0 23.6536 
*END

*D_NET *677 0.000996516
*CONN
*I *6081:A0 I *D sky130_fd_sc_hd__mux2_1
*I *6538:X O *D sky130_fd_sc_hd__dlygate4sd3_1
*CAP
1 *6081:A0 0.000323762
2 *6538:X 0.000323762
3 *6081:A0 *746:37 2.44318e-05
4 *6081:A0 *746:45 0.000139907
5 *382:53 *6081:A0 0.000184654
*RES
1 *6538:X *6081:A0 24.8857 
*END

*D_NET *678 0.00164321
*CONN
*I *6071:A0 I *D sky130_fd_sc_hd__mux2_1
*I *6539:X O *D sky130_fd_sc_hd__dlygate4sd3_1
*CAP
1 *6071:A0 0.000570705
2 *6539:X 0.000570705
3 *6071:A0 *724:179 8.7968e-05
4 *6071:A1 *6071:A0 1.92905e-05
5 *6378:D *6071:A0 0.000125731
6 *231:22 *6071:A0 0.00016727
7 *351:111 *6071:A0 0
8 *351:119 *6071:A0 0.000101545
*RES
1 *6539:X *6071:A0 37.725 
*END

*D_NET *679 0.00070107
*CONN
*I *5914:A0 I *D sky130_fd_sc_hd__mux2_1
*I *6541:X O *D sky130_fd_sc_hd__dlygate4sd3_1
*CAP
1 *5914:A0 0.000189854
2 *6541:X 0.000189854
3 *5914:A0 *6243:A1 0.000185643
4 *5914:A0 *768:119 5.71472e-05
5 *6243:S *5914:A0 3.92854e-05
6 *216:44 *5914:A0 3.92854e-05
*RES
1 *6541:X *5914:A0 30.8143 
*END

*D_NET *680 0.0127688
*CONN
*I *6670:A I *D sky130_fd_sc_hd__clkbuf_4
*I *5891:Y O *D sky130_fd_sc_hd__nor2_1
*CAP
1 *6670:A 0.000120167
2 *5891:Y 0.00145449
3 *680:24 0.00250022
4 *680:10 0.00383455
5 *6670:A *705:12 0.000101545
6 *680:10 *6173:A1 3.69697e-05
7 *680:10 *6209:A0 8.06331e-05
8 *680:10 *6454:D 9.10778e-05
9 *680:10 *6610:A 0
10 *680:10 *791:14 0
11 *680:24 *6336:CLK 0.000221369
12 *680:24 *705:6 0.000126639
13 *680:24 *705:12 0.000136707
14 *680:24 *711:92 0.000230035
15 *680:24 *711:115 0.000916761
16 *680:24 *791:14 0.000224583
17 full *6670:A 1.40415e-05
18 *5891:A *680:10 4.25523e-05
19 *5992:A *6670:A 0
20 *6228:A2 *680:10 0.000242913
21 *6267:A *680:24 0.000285216
22 *6267:B *680:24 0
23 *6269:A0 *680:24 0.000161357
24 *6324:CLK *680:10 0
25 *6324:D *680:10 0
26 *6336:D *680:24 0.000144186
27 *6468:D *680:24 1.40415e-05
28 *6497:A *680:10 0.000215073
29 *6529:A *680:10 0.000222726
30 *225:247 *680:24 5.04589e-05
31 *226:14 *680:10 0.000145618
32 *226:14 *680:24 0.000170261
33 *226:18 *680:24 2.88018e-06
34 *239:30 *680:24 0.000890639
35 *391:22 *680:10 0
36 *411:30 *680:10 0
37 *420:10 *680:10 9.25014e-06
38 *479:51 *680:10 8.18594e-05
39 *480:8 *680:10 0
40 *480:79 *680:10 0
41 *487:25 *680:10 0
42 *487:40 *680:10 0
*RES
1 *5891:Y *680:10 47.8714 
2 *680:10 *680:24 49.4821 
3 *680:24 *6670:A 15.9786 
*END

*D_NET *681 0.00123865
*CONN
*I *6130:A0 I *D sky130_fd_sc_hd__mux2_1
*I *6542:X O *D sky130_fd_sc_hd__dlygate4sd3_1
*CAP
1 *6130:A0 0.000355669
2 *6542:X 0.000355669
3 *239:168 *6130:A0 0.000527311
*RES
1 *6542:X *6130:A0 23.6536 
*END

*D_NET *682 0.000977033
*CONN
*I *6148:A0 I *D sky130_fd_sc_hd__mux2_1
*I *6543:X O *D sky130_fd_sc_hd__dlygate4sd3_1
*CAP
1 *6148:A0 0.000238692
2 *6543:X 0.000238692
3 *6148:S *6148:A0 0.000105037
4 *295:20 *6148:A0 8.00806e-05
5 *428:75 *6148:A0 0.000132729
6 *636:107 *6148:A0 0.000181803
*RES
1 *6543:X *6148:A0 33.5464 
*END

*D_NET *683 0.00166822
*CONN
*I *6136:A0 I *D sky130_fd_sc_hd__mux2_1
*I *6544:X O *D sky130_fd_sc_hd__dlygate4sd3_1
*CAP
1 *6136:A0 0.000501321
2 *6544:X 0.000501321
3 *5940:A1 *6136:A0 5.80706e-06
4 *295:28 *6136:A0 0.000659769
5 *481:41 *6136:A0 0
*RES
1 *6544:X *6136:A0 34.9214 
*END

*D_NET *684 0.000753152
*CONN
*I *6023:A0 I *D sky130_fd_sc_hd__mux2_1
*I *6545:X O *D sky130_fd_sc_hd__dlygate4sd3_1
*CAP
1 *6023:A0 0.00023613
2 *6545:X 0.00023613
3 *5925:S0 *6023:A0 4.15914e-05
4 *5990:A1 *6023:A0 1.33343e-05
5 *6025:S *6023:A0 2.56694e-05
6 *286:16 *6023:A0 2.24763e-05
7 *479:132 *6023:A0 0.000177821
*RES
1 *6545:X *6023:A0 31.225 
*END

*D_NET *685 0.0016197
*CONN
*I *6169:A0 I *D sky130_fd_sc_hd__mux2_1
*I *6546:X O *D sky130_fd_sc_hd__dlygate4sd3_1
*CAP
1 *6169:A0 0.000485237
2 *6546:X 0.000485237
3 *6169:A0 *724:43 0.000624797
4 *5984:S1 *6169:A0 2.44318e-05
5 *225:108 *6169:A0 0
*RES
1 *6546:X *6169:A0 34.9214 
*END

*D_NET *686 0.00138971
*CONN
*I *6116:A0 I *D sky130_fd_sc_hd__mux2_1
*I *6547:X O *D sky130_fd_sc_hd__dlygate4sd3_1
*CAP
1 *6116:A0 0.000347552
2 *6547:X 0.000347552
3 *6116:A0 *735:117 8.16036e-05
4 *5940:A0 *6116:A0 0.000613001
*RES
1 *6547:X *6116:A0 35.8321 
*END

*D_NET *687 0.00109528
*CONN
*I *6134:A0 I *D sky130_fd_sc_hd__mux2_1
*I *6548:X O *D sky130_fd_sc_hd__dlygate4sd3_1
*CAP
1 *6134:A0 8.65069e-05
2 *6548:X 8.65069e-05
3 *6134:A0 *724:64 5.52238e-05
4 *5990:A1 *6134:A0 0.00053026
5 *6134:S *6134:A0 2.44318e-05
6 *6545:A *6134:A0 0.000230482
7 *237:124 *6134:A0 8.18698e-05
*RES
1 *6548:X *6134:A0 23.6536 
*END

*D_NET *688 0.00245476
*CONN
*I *6059:A0 I *D sky130_fd_sc_hd__mux2_1
*I *6549:X O *D sky130_fd_sc_hd__dlygate4sd3_1
*CAP
1 *6059:A0 0.00071743
2 *6549:X 0.00071743
3 *6059:A0 *6077:A1 0.000315165
4 *6059:A0 *724:171 0.000482601
5 *6370:D *6059:A0 0.000175519
6 *339:71 *6059:A0 4.66203e-05
7 *351:111 *6059:A0 0
*RES
1 *6549:X *6059:A0 38.9929 
*END

*D_NET *689 0.00164531
*CONN
*I *6207:A0 I *D sky130_fd_sc_hd__mux2_1
*I *6550:X O *D sky130_fd_sc_hd__dlygate4sd3_1
*CAP
1 *6207:A0 0.000768037
2 *6550:X 0.000768037
3 *6207:A0 *5918:A0 2.56694e-05
4 *6427:CLK *6207:A0 0
5 *6550:A *6207:A0 8.35655e-05
*RES
1 *6550:X *6207:A0 38.1714 
*END

*D_NET *690 0.000581794
*CONN
*I *6296:A0 I *D sky130_fd_sc_hd__mux2_1
*I *6552:X O *D sky130_fd_sc_hd__dlygate4sd3_1
*CAP
1 *6296:A0 0.000241774
2 *6552:X 0.000241774
3 *6296:A0 *6296:A1 1.58163e-05
4 *6296:A0 *768:14 2.48421e-05
5 *6296:S *6296:A0 1.19813e-05
6 *460:43 *6296:A0 2.09607e-05
7 *460:66 *6296:A0 2.46444e-05
*RES
1 *6552:X *6296:A0 31.975 
*END

*D_NET *691 0.0166189
*CONN
*I *6671:A I *D sky130_fd_sc_hd__buf_2
*I *5937:A1 I *D sky130_fd_sc_hd__mux2_1
*I *6330:Q O *D sky130_fd_sc_hd__dfxtp_1
*CAP
1 *6671:A 0
2 *5937:A1 0.00046494
3 *6330:Q 0
4 *691:29 0.00194558
5 *691:27 0.00194558
6 *691:25 0.00368543
7 *691:23 0.00378323
8 *691:6 0.000562741
9 *691:29 *701:23 0.00402311
10 *691:29 *757:14 0.000153054
11 r_data[0] *691:29 0
12 *5937:S *5937:A1 5.52302e-05
13 *6664:A *691:29 0
*RES
1 *6330:Q *691:6 13.8 
2 *691:6 *5937:A1 22.0321 
3 *691:6 *691:23 6.14286 
4 *691:23 *691:25 61.3214 
5 *691:25 *691:27 4.5 
6 *691:27 *691:29 53.5536 
7 *691:29 *6671:A 13.8 
*END

*D_NET *692 0.000967063
*CONN
*I *6067:A0 I *D sky130_fd_sc_hd__mux2_1
*I *6553:X O *D sky130_fd_sc_hd__dlygate4sd3_1
*CAP
1 *6067:A0 0.000238752
2 *6553:X 0.000238752
3 *6067:A0 *6067:A1 2.89114e-05
4 *329:50 *6067:A0 1.21289e-05
5 *329:62 *6067:A0 0.00044852
*RES
1 *6553:X *6067:A0 23.6536 
*END

*D_NET *693 0.00200248
*CONN
*I *6249:A0 I *D sky130_fd_sc_hd__mux2_1
*I *6554:X O *D sky130_fd_sc_hd__dlygate4sd3_1
*CAP
1 *6249:A0 0.000168735
2 *6554:X 0.000168735
3 *6249:A0 *768:93 0.000150625
4 *226:95 *6249:A0 0.000758153
5 *428:75 *6249:A0 0.00010096
6 *428:84 *6249:A0 0.000655269
*RES
1 *6554:X *6249:A0 36.6536 
*END

*D_NET *694 0.000978104
*CONN
*I *6073:A0 I *D sky130_fd_sc_hd__mux2_1
*I *6555:X O *D sky130_fd_sc_hd__dlygate4sd3_1
*CAP
1 *6073:A0 0.000171693
2 *6555:X 0.000171693
3 *6555:A *6073:A0 5.33005e-05
4 *298:37 *6073:A0 1.92905e-05
5 *460:31 *6073:A0 0.00053026
6 *636:47 *6073:A0 3.18676e-05
*RES
1 *6555:X *6073:A0 23.6536 
*END

*D_NET *695 0.00092709
*CONN
*I *6103:A0 I *D sky130_fd_sc_hd__mux2_1
*I *6556:X O *D sky130_fd_sc_hd__dlygate4sd3_1
*CAP
1 *6103:A0 0.000196943
2 *6556:X 0.000196943
3 *6103:A0 *757:24 0.000476056
4 *6103:A0 *757:33 5.71472e-05
*RES
1 *6556:X *6103:A0 23.6536 
*END

*D_NET *696 0.00082296
*CONN
*I *6225:A0 I *D sky130_fd_sc_hd__mux2_1
*I *6557:X O *D sky130_fd_sc_hd__dlygate4sd3_1
*CAP
1 *6225:A0 0.000273374
2 *6557:X 0.000273374
3 *6225:A0 *5874:A 0
4 *6225:A1 *6225:A0 0.000276211
*RES
1 *6557:X *6225:A0 31.6357 
*END

*D_NET *697 0.000970038
*CONN
*I *6222:A0 I *D sky130_fd_sc_hd__mux2_1
*I *6558:X O *D sky130_fd_sc_hd__dlygate4sd3_1
*CAP
1 *6222:A0 0.00037511
2 *6558:X 0.00037511
3 *6222:A0 *5885:A 0
4 *6222:A0 *6447:D 0
5 *6222:A0 *6558:A 0
6 *6222:S *6222:A0 0.000219818
*RES
1 *6558:X *6222:A0 34.1179 
*END

*D_NET *698 0.000501259
*CONN
*I *6229:A0 I *D sky130_fd_sc_hd__mux2_1
*I *6559:X O *D sky130_fd_sc_hd__dlygate4sd3_1
*CAP
1 *6229:A0 0.000198995
2 *6559:X 0.000198995
3 *6229:A0 *5876:A 0
4 *6229:A0 *6461:RESET_B 1.24368e-05
5 *6229:A0 *710:32 0
6 *6229:A0 *710:34 0
7 *6229:A1 *6229:A0 7.32272e-05
8 *6229:S *6229:A0 1.76039e-05
*RES
1 *6559:X *6229:A0 31.3143 
*END

*D_NET *699 0.012001
*CONN
*I *6672:A I *D sky130_fd_sc_hd__buf_2
*I *5946:A1 I *D sky130_fd_sc_hd__mux2_1
*I *6331:Q O *D sky130_fd_sc_hd__dfxtp_1
*CAP
1 *6672:A 0.000240027
2 *5946:A1 0.0003703
3 *6331:Q 6.80945e-05
4 *699:19 0.00555599
5 *699:10 0.00575435
6 r_data[1] *6672:A 1.21955e-05
7 *239:228 *699:10 0
*RES
1 *6331:Q *699:10 19.3357 
2 *699:10 *5946:A1 13.5321 
3 *699:10 *699:19 62.1429 
4 *699:19 *6672:A 22.675 
*END

*D_NET *700 0.0195315
*CONN
*I *6673:A I *D sky130_fd_sc_hd__clkbuf_4
*I *5955:A1 I *D sky130_fd_sc_hd__mux2_1
*I *6332:Q O *D sky130_fd_sc_hd__dfxtp_1
*CAP
1 *6673:A 0
2 *5955:A1 0.000606366
3 *6332:Q 0
4 *700:27 0.00200459
5 *700:25 0.00200459
6 *700:23 0.00469261
7 *700:21 0.00570508
8 *700:4 0.00161884
9 *5955:A1 *712:83 0.000147319
10 *700:27 *724:16 0.00253443
11 *6332:D *5955:A1 0.000217636
12 *6658:A *700:27 0
13 *239:206 *5955:A1 0
*RES
1 *6332:Q *700:4 9.3 
2 *700:4 *5955:A1 26.4429 
3 *700:4 *700:21 12.2411 
4 *700:21 *700:23 54.9554 
5 *700:23 *700:25 4.5 
6 *700:25 *700:27 47.4821 
7 *700:27 *6673:A 13.8 
*END

*D_NET *701 0.0190146
*CONN
*I *6674:A I *D sky130_fd_sc_hd__clkbuf_4
*I *5964:A1 I *D sky130_fd_sc_hd__mux2_1
*I *6333:Q O *D sky130_fd_sc_hd__dfxtp_1
*CAP
1 *6674:A 0
2 *5964:A1 0.000269818
3 *6333:Q 0.000127508
4 *701:23 0.00312039
5 *701:21 0.00312039
6 *701:19 0.0039621
7 *701:10 0.00435942
8 r_data[0] *701:23 0
9 *5964:S *5964:A1 3.18676e-05
10 *691:29 *701:23 0.00402311
*RES
1 *6333:Q *701:10 20.55 
2 *701:10 *5964:A1 13.5321 
3 *701:10 *701:19 60.9107 
4 *701:19 *701:21 4.5 
5 *701:21 *701:23 74.5 
6 *701:23 *6674:A 13.8 
*END

*D_NET *702 0.0165159
*CONN
*I *6513:A I *D sky130_fd_sc_hd__buf_6
*I *6472:RESET_B I *D sky130_fd_sc_hd__dfrtp_1
*I *6659:X O *D sky130_fd_sc_hd__clkbuf_2
*CAP
1 *6513:A 0.000469556
2 *6472:RESET_B 0.000873501
3 *6659:X 0.000713285
4 *702:22 0.00181784
5 *702:14 0.00156037
6 *702:10 0.00351474
7 *702:8 0.00408155
8 *6472:RESET_B *5895:A 7.89825e-05
9 *6472:RESET_B *6265:A1 9.56968e-05
10 *6472:RESET_B *709:90 0
11 *6472:RESET_B *712:29 4.85567e-05
12 *6472:RESET_B *794:34 0.000201595
13 *702:22 *711:92 0.000145584
14 *702:22 *794:16 0.000169409
15 *702:22 *794:25 0.000388599
16 *702:22 *794:34 0.000797514
17 *5897:B *6472:RESET_B 0
18 *5898:A *702:22 5.33882e-05
19 *6270:A *6513:A 0.000143375
20 *6473:D *702:22 0
21 *239:30 *702:22 0.000111805
22 *239:41 *702:22 0.000418914
23 *239:54 *6472:RESET_B 0.000726367
24 *239:54 *702:22 2.69614e-05
25 *239:67 *6472:RESET_B 7.8327e-05
*RES
1 *6659:X *702:8 22.1393 
2 *702:8 *702:10 62.0536 
3 *702:10 *702:14 6.67857 
4 *702:14 *702:22 30.6518 
5 *702:22 *6472:RESET_B 27.1964 
6 *702:14 *6513:A 16.8357 
*END

*D_NET *703 0.00894165
*CONN
*I *6675:A I *D sky130_fd_sc_hd__clkbuf_4
*I *5973:A1 I *D sky130_fd_sc_hd__mux2_1
*I *6334:Q O *D sky130_fd_sc_hd__dfxtp_1
*CAP
1 *6675:A 0
2 *5973:A1 0.000494557
3 *6334:Q 0
4 *703:27 0.00337296
5 *703:25 0.00378784
6 *703:4 0.000909441
7 *5973:A1 *712:64 3.27727e-05
8 *703:25 *712:64 3.79711e-05
9 *5973:A0 *5973:A1 0
10 *5974:A *5973:A1 0
11 *6000:S *703:27 4.94362e-05
12 *6001:A *703:27 7.6644e-05
13 *6337:D *703:25 1.2747e-05
14 *239:184 *5973:A1 2.44318e-05
15 *239:193 *5973:A1 0.00014285
*RES
1 *6334:Q *703:4 9.3 
2 *703:4 *5973:A1 26.2464 
3 *703:4 *703:25 9.55357 
4 *703:25 *703:27 62.6607 
5 *703:27 *6675:A 13.8 
*END

*D_NET *704 0.00182385
*CONN
*I *5982:A1 I *D sky130_fd_sc_hd__mux2_1
*I *6676:A I *D sky130_fd_sc_hd__clkbuf_4
*I *6335:Q O *D sky130_fd_sc_hd__dfxtp_1
*CAP
1 *5982:A1 0.000219184
2 *6676:A 0.000608194
3 *6335:Q 0
4 *704:4 0.000827378
5 *6676:A *709:90 0
6 *6676:A *711:38 0
7 r_data[5] *6676:A 3.18676e-05
8 *5983:A *6676:A 0
9 *6335:D *6676:A 8.00806e-05
10 *279:24 *5982:A1 5.71472e-05
*RES
1 *6335:Q *704:4 9.3 
2 *704:4 *6676:A 27.8893 
3 *704:4 *5982:A1 11.8893 
*END

*D_NET *705 0.00617437
*CONN
*I *5991:A1 I *D sky130_fd_sc_hd__mux2_1
*I *6677:A I *D sky130_fd_sc_hd__clkbuf_4
*I *6336:Q O *D sky130_fd_sc_hd__dfxtp_1
*CAP
1 *5991:A1 0.00018815
2 *6677:A 0
3 *6336:Q 0.000143702
4 *705:12 0.00249926
5 *705:6 0.00283111
6 *5991:A1 *711:73 0
7 *705:12 *6336:CLK 3.06878e-06
8 full *705:12 0
9 *5992:A *5991:A1 0
10 *6336:D *705:12 0.000144186
11 *6670:A *705:12 0.000101545
12 *680:24 *705:6 0.000126639
13 *680:24 *705:12 0.000136707
*RES
1 *6336:Q *705:6 11.4786 
2 *705:6 *705:12 48.9286 
3 *705:12 *6677:A 13.8 
4 *705:6 *5991:A1 21.4607 
*END

*D_NET *706 0.0135269
*CONN
*I *6678:A I *D sky130_fd_sc_hd__clkbuf_4
*I *6000:A1 I *D sky130_fd_sc_hd__mux2_1
*I *6337:Q O *D sky130_fd_sc_hd__dfxtp_1
*CAP
1 *6678:A 0
2 *6000:A1 0.000300759
3 *6337:Q 0
4 *706:23 0.00340629
5 *706:21 0.00628222
6 *706:4 0.00317669
7 *6000:S *6000:A1 0
8 *658:10 *6000:A1 0.000360894
*RES
1 *6337:Q *706:4 9.3 
2 *706:4 *6000:A1 22.7464 
3 *706:4 *706:21 37.8929 
4 *706:21 *706:23 62.6607 
5 *706:23 *6678:A 13.8 
*END

*D_NET *707 0.000907513
*CONN
*I *6284:A I *D sky130_fd_sc_hd__inv_2
*I *6667:X O *D sky130_fd_sc_hd__clkbuf_1
*CAP
1 *6284:A 0.000222829
2 *6667:X 0.000222829
3 *5874:B *6284:A 0.000188586
4 *6285:A1 *6284:A 0.000273269
*RES
1 *6667:X *6284:A 23.975 
*END

*D_NET *708 0.000568277
*CONN
*I *5884:B I *D sky130_fd_sc_hd__xnor2_1
*I *5875:A1 I *D sky130_fd_sc_hd__mux2_1
*I *6668:X O *D sky130_fd_sc_hd__buf_1
*CAP
1 *5884:B 0.000138196
2 *5875:A1 2.03441e-05
3 *6668:X 9.36431e-05
4 *708:12 0.000252183
5 *5871:A *708:12 0
6 *5875:S *5875:A1 5.7661e-06
7 *5875:S *5884:B 5.81455e-05
8 *5875:S *708:12 0
*RES
1 *6668:X *708:12 19.7643 
2 *708:12 *5875:A1 9.72857 
3 *708:12 *5884:B 11.9071 
*END

*D_NET *709 0.0226266
*CONN
*I *6449:RESET_B I *D sky130_fd_sc_hd__dfrtp_1
*I *6454:RESET_B I *D sky130_fd_sc_hd__dfrtp_1
*I *6467:RESET_B I *D sky130_fd_sc_hd__dfrtp_4
*I *6468:RESET_B I *D sky130_fd_sc_hd__dfrtp_1
*I *6470:RESET_B I *D sky130_fd_sc_hd__dfrtp_1
*I *6469:RESET_B I *D sky130_fd_sc_hd__dfrtp_2
*I *6452:RESET_B I *D sky130_fd_sc_hd__dfrtp_1
*I *6471:RESET_B I *D sky130_fd_sc_hd__dfrtp_1
*I *6447:RESET_B I *D sky130_fd_sc_hd__dfrtp_1
*I *6448:RESET_B I *D sky130_fd_sc_hd__dfrtp_1
*I *6453:RESET_B I *D sky130_fd_sc_hd__dfrtp_1
*I *6451:RESET_B I *D sky130_fd_sc_hd__dfrtp_1
*I *6456:RESET_B I *D sky130_fd_sc_hd__dfrtp_1
*I *6450:RESET_B I *D sky130_fd_sc_hd__dfrtp_1
*I *6455:RESET_B I *D sky130_fd_sc_hd__dfrtp_1
*I *6474:RESET_B I *D sky130_fd_sc_hd__dfrtp_1
*I *6475:RESET_B I *D sky130_fd_sc_hd__dfrtp_2
*I *6473:RESET_B I *D sky130_fd_sc_hd__dfrtp_1
*I *6513:X O *D sky130_fd_sc_hd__buf_6
*CAP
1 *6449:RESET_B 0.000775167
2 *6454:RESET_B 3.73839e-05
3 *6467:RESET_B 7.8521e-05
4 *6468:RESET_B 0
5 *6470:RESET_B 0.000216377
6 *6469:RESET_B 0.00116861
7 *6452:RESET_B 0.00021902
8 *6471:RESET_B 0.000371921
9 *6447:RESET_B 4.3538e-05
10 *6448:RESET_B 4.35743e-05
11 *6453:RESET_B 0
12 *6451:RESET_B 4.35293e-05
13 *6456:RESET_B 0
14 *6450:RESET_B 4.83031e-05
15 *6455:RESET_B 0
16 *6474:RESET_B 5.54833e-05
17 *6475:RESET_B 0.00144646
18 *6473:RESET_B 0
19 *6513:X 0.000179599
20 *709:211 0.00123158
21 *709:187 0.0003452
22 *709:185 0.000783932
23 *709:177 0.00139671
24 *709:113 0.000415459
25 *709:111 0.000545023
26 *709:99 0.000509449
27 *709:90 0.000937506
28 *709:80 0.00104149
29 *709:71 0.000597657
30 *709:59 0.000678117
31 *709:48 0.00047297
32 *709:38 0.000925546
33 *709:17 0.00178155
34 *709:10 0.000376756
35 *6447:RESET_B *6447:D 2.64739e-05
36 *6448:RESET_B *6448:D 2.74303e-05
37 *6449:RESET_B *5888:A 0
38 *6449:RESET_B *6449:CLK 6.05161e-06
39 *6449:RESET_B *6599:A 0
40 *6449:RESET_B *712:39 0.000176234
41 *6449:RESET_B *825:16 0
42 *6450:RESET_B *6450:D 1.92789e-05
43 *6451:RESET_B *6451:D 9.13501e-05
44 *6452:RESET_B *711:24 2.51837e-05
45 *6452:RESET_B *712:14 0
46 *6454:RESET_B *6454:D 0.000180002
47 *6454:RESET_B *825:16 5.17901e-05
48 *6469:RESET_B *792:8 0.000436807
49 *6469:RESET_B *792:18 0.00023814
50 *6469:RESET_B *797:19 0.000234532
51 *6470:RESET_B *5934:A 0
52 *6471:RESET_B *6447:D 0.00044468
53 *6471:RESET_B *712:14 0
54 *6475:RESET_B *711:73 0
55 *6475:RESET_B *794:16 0.000122209
56 *709:17 *797:10 7.40992e-05
57 *709:17 *797:19 6.16744e-05
58 *709:38 *6273:A1 0.000129868
59 *709:38 *711:69 0
60 *709:38 *711:73 0
61 *709:48 *6273:A1 4.13573e-05
62 *709:48 *798:21 3.34687e-05
63 *709:59 *6455:D 2.56694e-05
64 *709:80 *6456:D 2.79092e-05
65 *709:90 *5894:B 0
66 *709:90 *712:14 0.000139783
67 *709:99 *6453:D 3.92854e-05
68 *709:99 *712:14 3.92169e-05
69 *709:111 *712:14 0
70 *709:185 *5926:A 5.62995e-05
71 *709:211 *6599:A 0
72 *5899:A *6449:RESET_B 3.67257e-05
73 *5927:A *709:177 0
74 *5983:A *709:90 7.83659e-05
75 *5991:S *6475:RESET_B 5.03772e-05
76 *5991:S *709:38 5.03076e-05
77 *5998:S *709:185 4.17014e-05
78 *6174:A *709:177 0
79 *6174:A *709:185 7.77751e-05
80 *6174:A *709:211 0
81 *6268:B *709:10 0
82 *6270:A *709:10 6.31431e-05
83 *6270:A *709:17 3.69375e-05
84 *6273:A0 *709:38 0.000154762
85 *6277:B *6469:RESET_B 7.60306e-05
86 *6277:B *6475:RESET_B 1.05901e-05
87 *6335:D *709:90 0
88 *6385:CLK *6449:RESET_B 3.02581e-06
89 *6412:D *709:185 9.80173e-05
90 *6412:D *709:211 0
91 *6469:D *6469:RESET_B 0.000109371
92 *6471:D *6471:RESET_B 4.57445e-05
93 *6472:D *709:90 0
94 *6472:RESET_B *709:90 0
95 *6475:D *6475:RESET_B 1.60158e-05
96 *6475:D *709:38 9.09013e-05
97 *6676:A *709:90 0
98 *210:12 *709:177 5.01213e-05
99 *210:12 *709:211 0
100 *229:6 *709:185 1.74352e-05
101 *230:8 *709:185 0.000172839
102 *230:8 *709:187 7.61856e-05
103 *230:263 *6467:RESET_B 2.27812e-05
104 *237:24 *709:10 0
105 *237:24 *709:17 0
106 *239:30 *6475:RESET_B 2.94103e-05
107 *239:41 *6475:RESET_B 2.49484e-05
108 *239:41 *709:38 0
109 *239:54 *709:38 2.11543e-05
110 *239:54 *709:48 9.31149e-05
111 *239:54 *709:59 1.62372e-05
112 *239:54 *709:71 0
113 *239:54 *709:80 0
114 *239:54 *709:90 0
115 *239:67 *709:90 0
116 *391:30 *6470:RESET_B 0.000383296
117 *391:30 *709:185 0.000549016
118 *391:30 *709:187 0.000289016
119 *411:30 *6470:RESET_B 0
120 *411:30 *709:185 0
121 *411:30 *709:187 0
122 *479:51 *709:185 4.58194e-05
123 *479:61 *6449:RESET_B 0.000217785
124 *487:10 *709:185 0
125 *487:65 *6449:RESET_B 5.33005e-05
126 *669:14 *6449:RESET_B 9.15186e-06
*RES
1 *6513:X *709:10 17.3 
2 *709:10 *6473:RESET_B 4.5 
3 *709:10 *709:17 4.07143 
4 *709:17 *6475:RESET_B 24 
5 *6475:RESET_B *709:38 17.5804 
6 *709:38 *6474:RESET_B 5.38393 
7 *709:38 *709:48 4.98214 
8 *709:48 *6455:RESET_B 4.5 
9 *709:48 *709:59 4.44643 
10 *709:59 *6450:RESET_B 5.40179 
11 *709:59 *709:71 7.10714 
12 *709:71 *6456:RESET_B 4.5 
13 *709:71 *709:80 3.69643 
14 *709:80 *6451:RESET_B 5.38393 
15 *709:80 *709:90 15 
16 *709:90 *6453:RESET_B 4.5 
17 *709:90 *709:99 2.78571 
18 *709:99 *6448:RESET_B 5.40179 
19 *709:99 *709:111 4.98214 
20 *709:111 *709:113 4.5 
21 *709:113 *6447:RESET_B 0.901786 
22 *709:113 *6471:RESET_B 16.9732 
23 *709:111 *6452:RESET_B 7.65179 
24 *709:17 *6469:RESET_B 21.8482 
25 *6469:RESET_B *709:177 19.1786 
26 *709:177 *709:185 22.8036 
27 *709:185 *709:187 3.76786 
28 *709:187 *6470:RESET_B 9.48214 
29 *709:187 *6468:RESET_B 4.5 
30 *709:185 *6467:RESET_B 5.8125 
31 *709:177 *709:211 7.41071 
32 *709:211 *6454:RESET_B 6.20536 
33 *709:211 *6449:RESET_B 27.4196 
*END

*D_NET *710 0.0218083
*CONN
*I *6457:RESET_B I *D sky130_fd_sc_hd__dfrtp_1
*I *6476:RESET_B I *D sky130_fd_sc_hd__dfrtp_1
*I *6478:RESET_B I *D sky130_fd_sc_hd__dfrtp_4
*I *6477:RESET_B I *D sky130_fd_sc_hd__dfrtp_4
*I *6462:RESET_B I *D sky130_fd_sc_hd__dfrtp_1
*I *6434:RESET_B I *D sky130_fd_sc_hd__dfrtp_1
*I *6435:RESET_B I *D sky130_fd_sc_hd__dfrtp_1
*I *6463:RESET_B I *D sky130_fd_sc_hd__dfrtp_1
*I *6458:RESET_B I *D sky130_fd_sc_hd__dfrtp_1
*I *6466:RESET_B I *D sky130_fd_sc_hd__dfrtp_1
*I *6461:RESET_B I *D sky130_fd_sc_hd__dfrtp_1
*I *6436:RESET_B I *D sky130_fd_sc_hd__dfrtp_1
*I *6464:RESET_B I *D sky130_fd_sc_hd__dfrtp_1
*I *6437:RESET_B I *D sky130_fd_sc_hd__dfrtp_1
*I *6465:RESET_B I *D sky130_fd_sc_hd__dfrtp_1
*I *6460:RESET_B I *D sky130_fd_sc_hd__dfrtp_1
*I *6459:RESET_B I *D sky130_fd_sc_hd__dfrtp_1
*I *6438:RESET_B I *D sky130_fd_sc_hd__dfrtp_1
*I *6514:X O *D sky130_fd_sc_hd__clkbuf_8
*CAP
1 *6457:RESET_B 0.000317425
2 *6476:RESET_B 0.000298874
3 *6478:RESET_B 0.000152376
4 *6477:RESET_B 0.000865905
5 *6462:RESET_B 0.000243154
6 *6434:RESET_B 3.56703e-05
7 *6435:RESET_B 0.000100721
8 *6463:RESET_B 0.000174583
9 *6458:RESET_B 5.64157e-05
10 *6466:RESET_B 0
11 *6461:RESET_B 0.000413122
12 *6436:RESET_B 0.000335345
13 *6464:RESET_B 0.000102863
14 *6437:RESET_B 0.000251976
15 *6465:RESET_B 0
16 *6460:RESET_B 0.000351577
17 *6459:RESET_B 0.000159313
18 *6438:RESET_B 5.96129e-05
19 *6514:X 0
20 *710:217 1.49236e-05
21 *710:185 0.00100929
22 *710:149 0.00117729
23 *710:135 0.000661937
24 *710:109 0.000230999
25 *710:72 0.00119659
26 *710:60 0.00101036
27 *710:38 0.000591469
28 *710:36 0.000356615
29 *710:34 0.000441471
30 *710:32 0.000708175
31 *710:30 0.000521062
32 *710:16 0.0007843
33 *710:12 0.000656348
34 *710:10 0.000997445
35 *710:8 0.000766195
36 *710:6 0.000495077
37 *6436:RESET_B *6449:D 0.000568432
38 *6437:RESET_B *6559:A 5.71472e-05
39 *6458:RESET_B *712:29 0.000161185
40 *6459:RESET_B *6454:CLK 8.81343e-05
41 *6459:RESET_B *825:16 0
42 *6460:RESET_B *6588:A 0.00021528
43 *6461:RESET_B *6566:A 4.01768e-05
44 *6462:RESET_B *5885:A 1.76135e-05
45 *6462:RESET_B *5885:B 0
46 *6463:RESET_B *712:29 0.000524619
47 *6464:RESET_B *5888:A 0.00012401
48 *6464:RESET_B *712:33 4.80435e-05
49 *6476:RESET_B *810:6 0
50 *6476:RESET_B *810:75 6.73939e-05
51 *6477:RESET_B *5885:B 5.62995e-05
52 *6477:RESET_B *810:12 0.000134714
53 *6478:RESET_B *810:75 0.000243635
54 *710:16 *6463:D 0
55 *710:30 *6231:A0 0.000232399
56 *710:30 *813:10 0
57 *710:36 *6450:D 0
58 *710:36 *6465:D 5.99125e-05
59 *710:36 *825:16 0
60 *710:38 *6465:D 5.24274e-05
61 *710:38 *825:16 0
62 *710:149 *6558:A 5.52302e-05
63 *710:185 *810:12 2.56601e-05
64 *5879:A *710:185 7.77751e-05
65 *5898:B *710:36 0
66 *6222:A1 *710:10 0
67 *6229:A0 *6461:RESET_B 1.24368e-05
68 *6229:A0 *710:32 0
69 *6229:A0 *710:34 0
70 *6229:S *710:16 0
71 *6229:S *710:30 0.000215147
72 *6229:S *710:32 9.24395e-05
73 *6230:A *6461:RESET_B 0.000274294
74 *6231:A1 *710:16 0
75 *6232:A *710:30 0
76 *6279:A1 *710:185 5.33334e-05
77 *6434:D *710:8 1.00375e-05
78 *6434:D *710:10 2.56694e-05
79 *6435:CLK *6435:RESET_B 5.36121e-05
80 *6435:D *710:10 0
81 *6435:D *710:12 0
82 *6457:CLK *6457:RESET_B 0
83 *6457:CLK *710:8 0
84 *6460:CLK *6460:RESET_B 0.000135972
85 *6476:D *6476:RESET_B 3.69697e-05
86 *6476:D *6478:RESET_B 4.02462e-05
87 *6477:D *710:185 0
88 *6478:D *6478:RESET_B 0
89 *6479:CLK *710:8 0
90 *6479:CLK *710:10 0
91 *182:14 *710:185 0.000146513
92 *198:16 *6477:RESET_B 0.00014285
93 *226:51 *6459:RESET_B 0
94 *226:51 *710:12 0.00019197
95 *226:51 *710:16 0.000324422
96 *226:51 *710:30 0
97 *226:51 *710:32 0
98 *226:51 *710:34 0
99 *226:51 *710:36 0
100 *226:51 *710:38 0
101 *420:51 *710:16 0
102 *420:85 *6478:RESET_B 0
103 *420:87 *710:185 7.28784e-05
104 *460:8 *6478:RESET_B 0
105 *487:65 *6436:RESET_B 0.000313235
106 *487:65 *6464:RESET_B 8.94203e-05
107 *490:12 *710:10 0
108 *490:12 *710:12 0
109 *490:20 *6458:RESET_B 0.000308491
110 *490:20 *6463:RESET_B 9.61553e-05
111 *491:20 *710:185 3.0285e-05
112 *491:22 *6477:RESET_B 0.000179737
113 *491:35 *6434:RESET_B 4.96254e-05
114 *491:35 *6477:RESET_B 9.29172e-05
115 *491:35 *710:149 0.000431089
116 *491:52 *710:8 0
*RES
1 *6514:X *710:6 13.8 
2 *710:6 *710:8 3.16071 
3 *710:8 *710:10 9.83929 
4 *710:10 *710:12 6.5 
5 *710:12 *710:16 12.2143 
6 *710:16 *6438:RESET_B 0.883929 
7 *710:16 *710:30 13.3214 
8 *710:30 *710:32 2.55357 
9 *710:32 *710:34 2.55357 
10 *710:34 *710:36 4.98214 
11 *710:36 *710:38 1.64286 
12 *710:38 *6459:RESET_B 7.96429 
13 *710:38 *6460:RESET_B 11.1339 
14 *710:36 *6465:RESET_B 4.5 
15 *710:34 *710:60 4.5 
16 *710:60 *6437:RESET_B 4.50893 
17 *710:60 *710:72 11.2143 
18 *710:72 *6464:RESET_B 11.5268 
19 *710:72 *6436:RESET_B 8.27679 
20 *710:32 *6461:RESET_B 12.4018 
21 *710:30 *6466:RESET_B 4.5 
22 *710:12 *710:109 4.5 
23 *710:109 *6458:RESET_B 2.9375 
24 *710:109 *6463:RESET_B 5.41964 
25 *710:10 *6435:RESET_B 6.11607 
26 *710:8 *710:135 4.5 
27 *710:135 *6434:RESET_B 1.3125 
28 *710:135 *710:149 10.5357 
29 *710:149 *6462:RESET_B 12.7589 
30 *710:149 *6477:RESET_B 7.74107 
31 *6477:RESET_B *710:185 21.5357 
32 *710:185 *6478:RESET_B 8.26786 
33 *710:185 *6476:RESET_B 9.02679 
34 *710:6 *6457:RESET_B 8.72321 
35 *6457:RESET_B *710:217 0.285714 
*END

*D_NET *711 0.0223415
*CONN
*I *6471:CLK I *D sky130_fd_sc_hd__dfrtp_1
*I *6452:CLK I *D sky130_fd_sc_hd__dfrtp_1
*I *6447:CLK I *D sky130_fd_sc_hd__dfrtp_1
*I *6448:CLK I *D sky130_fd_sc_hd__dfrtp_1
*I *6453:CLK I *D sky130_fd_sc_hd__dfrtp_1
*I *6335:CLK I *D sky130_fd_sc_hd__dfxtp_1
*I *6451:CLK I *D sky130_fd_sc_hd__dfrtp_1
*I *6456:CLK I *D sky130_fd_sc_hd__dfrtp_1
*I *6450:CLK I *D sky130_fd_sc_hd__dfrtp_1
*I *6455:CLK I *D sky130_fd_sc_hd__dfrtp_1
*I *6475:CLK I *D sky130_fd_sc_hd__dfrtp_2
*I *6454:CLK I *D sky130_fd_sc_hd__dfrtp_1
*I *6469:CLK I *D sky130_fd_sc_hd__dfrtp_2
*I *6468:CLK I *D sky130_fd_sc_hd__dfrtp_1
*I *6470:CLK I *D sky130_fd_sc_hd__dfrtp_1
*I *6473:CLK I *D sky130_fd_sc_hd__dfrtp_1
*I *6336:CLK I *D sky130_fd_sc_hd__dfxtp_1
*I *6474:CLK I *D sky130_fd_sc_hd__dfrtp_1
*I *6515:X O *D sky130_fd_sc_hd__buf_4
*CAP
1 *6471:CLK 0
2 *6452:CLK 0
3 *6447:CLK 0
4 *6448:CLK 0
5 *6453:CLK 0.000232791
6 *6335:CLK 0
7 *6451:CLK 0
8 *6456:CLK 0
9 *6450:CLK 0.000224105
10 *6455:CLK 0
11 *6475:CLK 4.10292e-05
12 *6454:CLK 0.000753053
13 *6469:CLK 0
14 *6468:CLK 0
15 *6470:CLK 0.000294498
16 *6473:CLK 0
17 *6336:CLK 0.000476441
18 *6474:CLK 0.000122181
19 *6515:X 0.000116267
20 *711:135 0.00104623
21 *711:115 0.000496836
22 *711:109 0.00174436
23 *711:92 0.00187437
24 *711:73 0.00128672
25 *711:69 0.00123843
26 *711:54 0.00143055
27 *711:50 0.000408396
28 *711:48 0.000789588
29 *711:46 0.000778319
30 *711:38 0.000609345
31 *711:34 0.000836141
32 *711:32 0.000912585
33 *711:30 0.000396999
34 *711:28 0.000425427
35 *711:24 0.00092694
36 *711:14 0.00088729
37 *6450:CLK *6450:D 1.05901e-05
38 *6454:CLK *6465:D 7.43578e-06
39 *6454:CLK *825:16 9.9322e-05
40 *6470:CLK *712:53 0
41 *6470:CLK *713:8 0
42 *711:14 *5896:A 0.000150508
43 *711:14 *712:14 6.42242e-05
44 *711:24 *5896:A 1.15172e-05
45 *711:28 *6452:D 4.48113e-05
46 *711:46 *6451:D 5.33334e-05
47 *711:109 *797:10 1.1979e-05
48 *711:115 *5936:A 0.000184745
49 *711:115 *6254:A2 0.00014285
50 r_data[5] *711:38 0
51 *5991:A0 *711:69 0
52 *5991:A0 *711:73 0
53 *5991:A1 *711:73 0
54 *5991:S *6475:CLK 1.5546e-05
55 *6253:A *711:135 7.15521e-05
56 *6254:A3 *711:115 5.52302e-05
57 *6255:B *711:115 5.52302e-05
58 *6255:B *711:135 0
59 *6258:B *711:109 1.02504e-05
60 *6258:C *711:109 0
61 *6269:A0 *711:109 5.19842e-06
62 *6335:D *711:34 0
63 *6335:D *711:38 0
64 *6452:RESET_B *711:24 2.51837e-05
65 *6459:RESET_B *6454:CLK 8.81343e-05
66 *6468:D *6470:CLK 5.80706e-06
67 *6473:D *711:109 9.99014e-05
68 *6474:D *711:54 3.34366e-05
69 *6475:D *6475:CLK 1.3701e-05
70 *6475:RESET_B *711:73 0
71 *6676:A *711:38 0
72 *210:12 *6454:CLK 0
73 *210:12 *711:135 0
74 *225:237 *6470:CLK 8.32171e-05
75 *225:247 *711:115 0.000119667
76 *225:262 *6454:CLK 5.85135e-05
77 *225:262 *711:109 4.1331e-06
78 *225:262 *711:135 0.000186507
79 *226:14 *711:115 7.62726e-05
80 *237:14 *711:109 8.18783e-05
81 *237:24 *711:109 5.76121e-05
82 *239:30 *711:73 0
83 *239:117 *711:109 0.000235099
84 *239:117 *711:135 0.00012401
85 *239:134 *711:109 3.57366e-05
86 *239:160 *6470:CLK 0.000100031
87 *391:30 *6470:CLK 0
88 *437:12 *711:109 0
89 *438:10 *711:135 5.26184e-05
90 *680:24 *6336:CLK 0.000221369
91 *680:24 *711:92 0.000230035
92 *680:24 *711:115 0.000916761
93 *702:22 *711:92 0.000145584
94 *705:12 *6336:CLK 3.06878e-06
95 *709:38 *711:69 0
96 *709:38 *711:73 0
*RES
1 *6515:X *711:14 21.3179 
2 *711:14 *711:24 10.3571 
3 *711:24 *711:28 7.05357 
4 *711:28 *711:30 4.98214 
5 *711:30 *711:32 2.25 
6 *711:32 *711:34 10.1429 
7 *711:34 *711:38 9.48214 
8 *711:38 *711:46 9.35714 
9 *711:46 *711:48 8.01786 
10 *711:48 *711:50 1.94643 
11 *711:50 *711:54 10.0893 
12 *711:54 *6474:CLK 10.9786 
13 *711:54 *711:69 19.4821 
14 *711:69 *711:73 7.05357 
15 *711:73 *6336:CLK 15.9071 
16 *711:73 *711:92 18.875 
17 *711:92 *6473:CLK 9.3 
18 *711:92 *711:109 22.1071 
19 *711:109 *711:115 13.6786 
20 *711:115 *6470:CLK 23.7107 
21 *711:115 *6468:CLK 9.3 
22 *711:109 *711:135 7.10714 
23 *711:135 *6469:CLK 13.8 
24 *711:135 *6454:CLK 28.4071 
25 *711:69 *6475:CLK 14.6884 
26 *711:50 *6455:CLK 13.8 
27 *711:48 *6450:CLK 16.7107 
28 *711:46 *6456:CLK 13.8 
29 *711:38 *6451:CLK 9.3 
30 *711:34 *6335:CLK 13.8 
31 *711:32 *6453:CLK 17.6214 
32 *711:30 *6448:CLK 13.8 
33 *711:28 *6447:CLK 13.8 
34 *711:24 *6452:CLK 9.3 
35 *711:14 *6471:CLK 9.3 
*END

*D_NET *712 0.042482
*CONN
*I *6515:A I *D sky130_fd_sc_hd__buf_4
*I *6449:CLK I *D sky130_fd_sc_hd__dfrtp_1
*I *6467:CLK I *D sky130_fd_sc_hd__dfrtp_4
*I *6337:CLK I *D sky130_fd_sc_hd__dfxtp_1
*I *6333:CLK I *D sky130_fd_sc_hd__dfxtp_1
*I *6330:CLK I *D sky130_fd_sc_hd__dfxtp_1
*I *6331:CLK I *D sky130_fd_sc_hd__dfxtp_1
*I *6332:CLK I *D sky130_fd_sc_hd__dfxtp_1
*I *6334:CLK I *D sky130_fd_sc_hd__dfxtp_1
*I *6472:CLK I *D sky130_fd_sc_hd__dfrtp_1
*I *6516:X O *D sky130_fd_sc_hd__clkbuf_4
*CAP
1 *6515:A 3.72884e-05
2 *6449:CLK 3.03658e-05
3 *6467:CLK 0
4 *6337:CLK 0
5 *6333:CLK 0.000113015
6 *6330:CLK 0
7 *6331:CLK 0
8 *6332:CLK 0
9 *6334:CLK 0
10 *6472:CLK 0.000483501
11 *6516:X 0.00024602
12 *712:96 0.00122694
13 *712:83 0.0024203
14 *712:72 0.00177019
15 *712:64 0.00127803
16 *712:53 0.00716429
17 *712:39 0.00728547
18 *712:33 0.00113619
19 *712:29 0.00299326
20 *712:14 0.00414746
21 *712:10 0.00112444
22 *712:14 *5894:A 0
23 *712:14 *5894:B 0
24 *712:14 *5896:A 0
25 *712:14 *6453:D 7.83659e-05
26 *712:29 *5876:A 0
27 *712:29 *5882:B1_N 8.15939e-05
28 *712:29 *5884:A 0.000187902
29 *712:29 *5888:A 0
30 *712:29 *6458:D 0.000185547
31 *712:29 *6464:D 9.25014e-06
32 *712:29 *805:8 0.000122091
33 *712:33 *5888:A 9.90431e-05
34 *712:53 *5936:A 0
35 *5875:S *712:29 0.0002371
36 *5889:D1 *712:29 0
37 *5927:A *712:39 5.33882e-05
38 *5938:A *6333:CLK 2.48938e-05
39 *5938:A *712:96 0.000129868
40 *5955:A1 *712:83 0.000147319
41 *5964:S *6333:CLK 0
42 *5964:S *712:96 0
43 *5967:A1 *712:53 0.000128553
44 *5973:A0 *712:53 0.0007609
45 *5973:A1 *712:64 3.27727e-05
46 *6001:A *712:72 0
47 *6164:S *712:83 8.27403e-05
48 *6174:A *712:39 0
49 *6261:S *712:29 2.79421e-05
50 *6332:D *712:72 9.90431e-05
51 *6332:D *712:83 0.00013001
52 *6334:D *712:53 8.07313e-05
53 *6334:D *712:64 3.52992e-05
54 *6337:D *712:72 6.65302e-05
55 *6449:RESET_B *6449:CLK 6.05161e-06
56 *6449:RESET_B *712:39 0.000176234
57 *6452:RESET_B *712:14 0
58 *6458:CLK *712:29 1.91789e-05
59 *6458:RESET_B *712:29 0.000161185
60 *6463:RESET_B *712:29 0.000524619
61 *6464:RESET_B *712:33 4.80435e-05
62 *6467:D *712:39 1.02504e-05
63 *6467:D *712:53 0.000106056
64 *6468:D *712:53 9.01238e-05
65 *6470:CLK *712:53 0
66 *6471:D *712:14 4.48206e-05
67 *6471:RESET_B *712:14 0
68 *6472:RESET_B *712:29 4.85567e-05
69 *198:16 *712:29 0
70 *225:237 *712:53 7.80714e-06
71 *226:131 *712:53 0.00329368
72 *230:16 *712:53 0
73 *230:37 *712:53 0.000677223
74 *239:160 *712:53 5.43491e-05
75 *239:206 *712:72 0
76 *239:206 *712:83 7.04538e-05
77 *239:219 *712:83 0
78 *239:228 *712:83 0
79 *239:228 *712:96 0
80 *247:14 *712:83 0.000445214
81 *382:74 *6333:CLK 8.56812e-05
82 *382:74 *712:96 0.000330259
83 *382:80 *712:83 0.000615972
84 *382:80 *712:96 0.000127453
85 *391:30 *712:39 0.000211431
86 *391:30 *712:53 0
87 *479:61 *712:39 0.000416179
88 *487:65 *6449:CLK 1.21258e-05
89 *487:65 *712:33 0.000135221
90 *490:20 *712:29 3.14882e-05
91 *494:86 *712:53 0.000121926
92 *647:16 *712:10 7.15962e-05
93 *703:25 *712:64 3.79711e-05
94 *709:90 *712:14 0.000139783
95 *709:99 *712:14 3.92169e-05
96 *709:111 *712:14 0
97 *711:14 *712:14 6.42242e-05
*RES
1 *6516:X *712:10 17.5143 
2 *712:10 *712:14 20.7143 
3 *712:14 *6472:CLK 15.0857 
4 *712:14 *712:29 48.9107 
5 *712:29 *712:33 8.73214 
6 *712:33 *712:39 25 
7 *712:39 *712:53 38.2536 
8 *712:53 *6334:CLK 9.3 
9 *712:53 *712:64 10.625 
10 *712:64 *712:72 17.3571 
11 *712:72 *6332:CLK 9.3 
12 *712:72 *712:83 34.8571 
13 *712:83 *6331:CLK 13.8 
14 *712:83 *712:96 23.0536 
15 *712:96 *6330:CLK 13.8 
16 *712:96 *6333:CLK 16.3536 
17 *712:64 *6337:CLK 9.3 
18 *712:39 *6467:CLK 13.8 
19 *712:33 *6449:CLK 9.83571 
20 *712:10 *6515:A 14.3357 
*END

*D_NET *713 0.00840033
*CONN
*I *5936:A I *D sky130_fd_sc_hd__nand2_8
*I *6254:A2 I *D sky130_fd_sc_hd__a31o_1
*I *6660:X O *D sky130_fd_sc_hd__buf_2
*CAP
1 *5936:A 0.000200636
2 *6254:A2 3.27053e-05
3 *6660:X 0
4 *713:10 0.000233341
5 *713:8 0.00368059
6 *713:6 0.00368059
7 *6254:A3 *5936:A 0
8 *6258:A *713:8 0
9 *6259:B *713:8 0
10 *6468:D *5936:A 0
11 *6470:CLK *713:8 0
12 *6470:D *713:8 0
13 *210:12 *5936:A 0
14 *225:245 *713:8 8.68665e-05
15 *225:247 *6254:A2 5.52238e-05
16 *226:14 *5936:A 6.79057e-05
17 *226:14 *6254:A2 1.92789e-05
18 *226:18 *6254:A2 1.56e-05
19 *239:160 *713:8 0
20 *711:115 *5936:A 0.000184745
21 *711:115 *6254:A2 0.00014285
22 *712:53 *5936:A 0
*RES
1 *6660:X *713:6 13.8 
2 *713:6 *713:8 67.5179 
3 *713:8 *713:10 4.5 
4 *713:10 *6254:A2 10.6571 
5 *713:10 *5936:A 22.6214 
*END

*D_NET *714 0.000365245
*CONN
*I *6463:D I *D sky130_fd_sc_hd__dfrtp_1
*I *6517:X O *D sky130_fd_sc_hd__dlygate4sd3_1
*CAP
1 *6463:D 0.00015975
2 *6517:X 0.00015975
3 *420:51 *6463:D 4.57445e-05
4 *710:16 *6463:D 0
*RES
1 *6517:X *6463:D 30.1893 
*END

*D_NET *715 0.000256105
*CONN
*I *6466:D I *D sky130_fd_sc_hd__dfrtp_1
*I *6566:X O *D sky130_fd_sc_hd__dlygate4sd3_1
*CAP
1 *6466:D 0.000113602
2 *6566:X 0.000113602
3 *6466:CLK *6466:D 2.89016e-05
*RES
1 *6566:X *6466:D 20.3679 
*END

*D_NET *716 0.000554617
*CONN
*I *6462:D I *D sky130_fd_sc_hd__dfrtp_1
*I *6577:X O *D sky130_fd_sc_hd__dlygate4sd3_1
*CAP
1 *6462:D 0.000272683
2 *6577:X 0.000272683
3 *6479:RESET_B *6462:D 9.25014e-06
*RES
1 *6577:X *6462:D 31.1179 
*END

*D_NET *717 0.00106067
*CONN
*I *6465:D I *D sky130_fd_sc_hd__dfrtp_1
*I *6588:X O *D sky130_fd_sc_hd__dlygate4sd3_1
*CAP
1 *6465:D 0.00045025
2 *6588:X 0.00045025
3 *6465:D *825:16 0
4 *6454:CLK *6465:D 7.43578e-06
5 *210:8 *6465:D 4.03902e-05
6 *710:36 *6465:D 5.99125e-05
7 *710:38 *6465:D 5.24274e-05
*RES
1 *6588:X *6465:D 34.158 
*END

*D_NET *718 0.000603889
*CONN
*I *6464:D I *D sky130_fd_sc_hd__dfrtp_1
*I *6599:X O *D sky130_fd_sc_hd__dlygate4sd3_1
*CAP
1 *6464:D 0.000238023
2 *6599:X 0.000238023
3 *6464:D *5876:A 0
4 *6464:D *5888:A 0
5 *487:65 *6464:D 0.000118592
6 *712:29 *6464:D 9.25014e-06
*RES
1 *6599:X *6464:D 32.2429 
*END

*D_NET *719 0.000708768
*CONN
*I *6228:A1 I *D sky130_fd_sc_hd__o21ba_1
*I *6610:X O *D sky130_fd_sc_hd__dlygate4sd3_1
*CAP
1 *6228:A1 0.00017646
2 *6610:X 0.00017646
3 *6228:A1 *6610:A 5.52302e-05
4 *391:122 *6228:A1 0.000300618
*RES
1 *6610:X *6228:A1 23.6536 
*END

*D_NET *720 0.00126759
*CONN
*I *5908:A0 I *D sky130_fd_sc_hd__mux2_1
*I *6621:X O *D sky130_fd_sc_hd__dlygate4sd3_1
*CAP
1 *5908:A0 0.000123034
2 *6621:X 0.000123034
3 *5908:A0 *735:81 5.71472e-05
4 *5908:A0 *735:92 0.000527311
5 *5906:S *5908:A0 2.28598e-05
6 *5939:A1 *5908:A0 0.000315158
7 *6323:CLK *5908:A0 9.90431e-05
*RES
1 *6621:X *5908:A0 24.0643 
*END

*D_NET *721 0.00133667
*CONN
*I *6193:A0 I *D sky130_fd_sc_hd__mux2_1
*I *6632:X O *D sky130_fd_sc_hd__dlygate4sd3_1
*CAP
1 *6193:A0 0.000451
2 *6632:X 0.000451
3 *6193:A0 *6029:A1 5.58941e-05
4 *6193:A0 *757:56 9.40167e-05
5 *5958:A3 *6193:A0 0.000110293
6 *6029:S *6193:A0 0.000148903
7 *6193:S *6193:A0 2.55587e-05
8 *6632:A *6193:A0 0
9 *483:63 *6193:A0 0
*RES
1 *6632:X *6193:A0 34.8857 
*END

*D_NET *722 0.00123777
*CONN
*I *6162:A0 I *D sky130_fd_sc_hd__mux2_1
*I *6643:X O *D sky130_fd_sc_hd__dlygate4sd3_1
*CAP
1 *6162:A0 0.000424828
2 *6643:X 0.000424828
3 *6162:A0 *779:62 5.33005e-05
4 *6162:A0 *779:73 0.000140933
5 *232:69 *6162:A0 0
6 *339:37 *6162:A0 0.000193883
*RES
1 *6643:X *6162:A0 33.6893 
*END

*D_NET *723 0.000745197
*CONN
*I *6144:A0 I *D sky130_fd_sc_hd__mux2_1
*I *6518:X O *D sky130_fd_sc_hd__dlygate4sd3_1
*CAP
1 *6144:A0 0.000248991
2 *6518:X 0.000248991
3 *372:20 *6144:A0 0.000247216
*RES
1 *6518:X *6144:A0 23.6536 
*END

*D_NET *724 0.0519608
*CONN
*I *6288:A1 I *D sky130_fd_sc_hd__mux2_1
*I *6077:A1 I *D sky130_fd_sc_hd__mux2_1
*I *6306:A1 I *D sky130_fd_sc_hd__mux2_1
*I *6152:A1 I *D sky130_fd_sc_hd__mux2_1
*I *6097:A1 I *D sky130_fd_sc_hd__mux2_1
*I *6059:A1 I *D sky130_fd_sc_hd__mux2_1
*I *6041:A1 I *D sky130_fd_sc_hd__mux2_1
*I *6004:A1 I *D sky130_fd_sc_hd__mux2_1
*I *6116:A1 I *D sky130_fd_sc_hd__mux2_1
*I *6235:A1 I *D sky130_fd_sc_hd__mux2_1
*I *6169:A1 I *D sky130_fd_sc_hd__mux2_1
*I *6134:A1 I *D sky130_fd_sc_hd__mux2_1
*I *6187:A1 I *D sky130_fd_sc_hd__mux2_1
*I *6023:A1 I *D sky130_fd_sc_hd__mux2_1
*I *6205:A1 I *D sky130_fd_sc_hd__mux2_1
*I *5906:A1 I *D sky130_fd_sc_hd__mux2_1
*I *6661:X O *D sky130_fd_sc_hd__clkbuf_8
*CAP
1 *6288:A1 0
2 *6077:A1 0.00020317
3 *6306:A1 0.000129883
4 *6152:A1 0.000367632
5 *6097:A1 2.03441e-05
6 *6059:A1 0
7 *6041:A1 0
8 *6004:A1 0.000232015
9 *6116:A1 0.000106094
10 *6235:A1 0
11 *6169:A1 0
12 *6134:A1 0
13 *6187:A1 0.000279896
14 *6023:A1 0.000388087
15 *6205:A1 7.03212e-05
16 *5906:A1 0.00053921
17 *6661:X 0.00112554
18 *724:188 0.000703717
19 *724:179 0.000471103
20 *724:171 0.0006334
21 *724:164 0.000739759
22 *724:151 0.000830067
23 *724:143 0.000389671
24 *724:124 0.00188693
25 *724:120 0.0025198
26 *724:107 0.00187483
27 *724:68 0.000805451
28 *724:64 0.000800376
29 *724:47 0.000993923
30 *724:43 0.000715977
31 *724:41 0.000610342
32 *724:24 0.00077425
33 *724:22 0.00361912
34 *724:18 0.00629845
35 *724:16 0.00479449
36 *724:12 0.00237055
37 *5906:A1 *5906:A0 1.87174e-05
38 *6004:A1 *6004:A0 0.000140933
39 *724:41 *6235:A0 0.000224577
40 *724:43 *6235:A0 5.71472e-05
41 *724:47 *735:46 0.000262719
42 *724:64 *735:46 7.63087e-05
43 *724:107 *735:117 0.000265107
44 *724:120 *735:117 0
45 *724:120 *735:192 0
46 *724:124 *6004:A0 0.000125304
47 r_data[2] *724:12 2.19651e-05
48 r_data[2] *724:16 5.0302e-05
49 *5906:S *5906:A1 5.52238e-05
50 *5924:A0 *724:107 5.33882e-05
51 *5925:A3 *6023:A1 0.000349907
52 *5931:A1 *724:151 8.51772e-05
53 *5932:A0 *6152:A1 0.000108145
54 *5932:A0 *724:188 0.00018077
55 *5932:A2 *6306:A1 5.52302e-05
56 *5933:A0 *724:164 0
57 *5940:A0 *6116:A1 0.000136951
58 *5941:A0 *724:41 0.000123295
59 *5941:A0 *724:107 0
60 *5941:S *724:107 0.000146983
61 *5941:S *724:120 0.000613266
62 *5943:S1 *6152:A1 4.57445e-05
63 *5950:S *724:120 0.000272304
64 *5984:S1 *724:43 0.00110084
65 *5990:A1 *724:64 0.000119203
66 *6006:S *724:124 0.000215208
67 *6007:A *724:124 2.56694e-05
68 *6041:A0 *724:151 2.89114e-05
69 *6041:A0 *724:164 0.000233592
70 *6042:A *724:151 7.02611e-05
71 *6059:A0 *6077:A1 0.000315165
72 *6059:A0 *724:171 0.000482601
73 *6071:A0 *724:179 8.7968e-05
74 *6077:A0 *6077:A1 5.71472e-05
75 *6077:S *6077:A1 5.33433e-05
76 *6078:A *6077:A1 9.80173e-05
77 *6097:A0 *6097:A1 5.7661e-06
78 *6097:A0 *724:179 3.18676e-05
79 *6097:A0 *724:188 0.000432762
80 *6098:A *724:179 0.000375261
81 *6098:A *724:188 1.33343e-05
82 *6110:A *724:120 0
83 *6116:S *724:107 5.92066e-05
84 *6134:A0 *724:64 5.52238e-05
85 *6134:S *724:64 0.000274294
86 *6135:A *6187:A1 0
87 *6135:A *724:68 0
88 *6136:S *724:64 0.000736167
89 *6152:A0 *6152:A1 5.71472e-05
90 *6153:A *6152:A1 5.30637e-06
91 *6169:A0 *724:43 0.000624797
92 *6187:A0 *6187:A1 0.000144633
93 *6189:S *724:64 1.08359e-05
94 *6189:S *724:68 0
95 *6205:A0 *6205:A1 9.71197e-05
96 *6236:A *724:43 0.00010096
97 *6237:S *724:41 6.86693e-05
98 *6288:S *724:143 2.89114e-05
99 *6301:A *724:124 0.000150618
100 *6306:S *6306:A1 5.52302e-05
101 *6339:D *724:124 0
102 *6347:D *724:64 0
103 *6378:D *724:179 0.000125731
104 *6402:CLK *6152:A1 1.7859e-05
105 *6402:CLK *724:188 1.21289e-05
106 *6402:D *6152:A1 5.96733e-05
107 *6439:CLK *5906:A1 7.77751e-05
108 *6439:D *5906:A1 0.000162735
109 *6439:D *724:24 5.52302e-05
110 *6439:D *724:107 4.15914e-05
111 *6480:CLK *6004:A1 3.9846e-05
112 *6480:CLK *724:143 0.000353073
113 *6480:D *6004:A1 0.00017924
114 *6486:D *724:124 0.00010326
115 *6548:A *6187:A1 0
116 *6548:A *724:68 0
117 *6578:A *724:22 3.18676e-05
118 *6617:A *724:120 3.26264e-05
119 *6637:A *724:47 0
120 *6637:A *724:64 0
121 *6645:A *724:64 0
122 *6650:A *724:124 0
123 *6661:A *724:12 5.62995e-05
124 *230:157 *724:120 0.000388139
125 *230:211 *724:164 0.000181368
126 *231:22 *724:179 0
127 *232:157 *724:151 6.81366e-05
128 *233:171 *724:164 0
129 *233:175 *724:164 0
130 *233:247 *724:164 0.000316184
131 *255:14 *6023:A1 0.00010096
132 *259:18 *724:164 0
133 *286:16 *724:120 0
134 *298:77 *6004:A1 4.72164e-05
135 *298:77 *724:124 0
136 *329:85 *724:164 0.000738644
137 *339:65 *724:151 2.95726e-05
138 *339:65 *724:164 0.000130408
139 *339:71 *6077:A1 5.03772e-05
140 *339:81 *6152:A1 0
141 *339:81 *6306:A1 7.17932e-05
142 *351:111 *724:179 0.000143034
143 *428:121 *724:41 2.95641e-05
144 *428:121 *724:43 0.000167219
145 *460:78 *724:151 0.000381362
146 *460:80 *724:124 0
147 *482:42 *724:120 0
148 *537:12 *724:124 0.000129868
149 *544:10 *724:143 0.000123673
150 *550:10 *724:124 0
151 *625:122 *724:120 0
152 *625:122 *724:124 0
153 *700:27 *724:16 0.00253443
*RES
1 *6661:X *724:12 35.1304 
2 *724:12 *724:16 38.6339 
3 *724:16 *724:18 54.5446 
4 *724:18 *724:22 42.4375 
5 *724:22 *724:24 1.35714 
6 *724:24 *5906:A1 16.425 
7 *724:24 *724:41 12.8214 
8 *724:41 *724:43 14.5 
9 *724:43 *724:47 10.6964 
10 *724:47 *6205:A1 14.7464 
11 *724:47 *724:64 20.5 
12 *724:64 *724:68 6.44643 
13 *724:68 *6023:A1 21.3357 
14 *724:68 *6187:A1 18.7821 
15 *724:64 *6134:A1 9.3 
16 *724:43 *6169:A1 9.3 
17 *724:41 *6235:A1 9.3 
18 *724:22 *724:107 18.8929 
19 *724:107 *6116:A1 15.1571 
20 *724:107 *724:120 21.0625 
21 *724:120 *724:124 35.8304 
22 *724:124 *6004:A1 22.9607 
23 *724:124 *724:143 3.83929 
24 *724:143 *724:151 16.1607 
25 *724:151 *6041:A1 9.3 
26 *724:151 *724:164 25.2321 
27 *724:164 *6059:A1 9.3 
28 *724:164 *724:171 4.64286 
29 *724:171 *724:179 16.9464 
30 *724:179 *6097:A1 9.72857 
31 *724:179 *724:188 5.05357 
32 *724:188 *6152:A1 26.1214 
33 *724:188 *6306:A1 20.7821 
34 *724:171 *6077:A1 14.7643 
35 *724:143 *6288:A1 9.3 
*END

*D_NET *725 0.00100285
*CONN
*I *6209:A0 I *D sky130_fd_sc_hd__mux2_1
*I *6529:X O *D sky130_fd_sc_hd__dlygate4sd3_1
*CAP
1 *6209:A0 0.000304206
2 *6529:X 0.000304206
3 *5911:A *6209:A0 5.71472e-05
4 *5998:S *6209:A0 0.000211328
5 *411:30 *6209:A0 3.92757e-05
6 *479:51 *6209:A0 6.05161e-06
7 *487:10 *6209:A0 0
8 *487:25 *6209:A0 0
9 *680:10 *6209:A0 8.06331e-05
*RES
1 *6529:X *6209:A0 34.2071 
*END

*D_NET *726 0.0011275
*CONN
*I *6033:A0 I *D sky130_fd_sc_hd__mux2_1
*I *6540:X O *D sky130_fd_sc_hd__dlygate4sd3_1
*CAP
1 *6033:A0 0.000416318
2 *6540:X 0.000416318
3 *6033:A0 *6126:A1 0.00018372
4 *6033:A0 *768:42 2.56694e-05
5 *6033:A0 *779:141 5.71472e-05
6 *270:12 *6033:A0 0
7 *401:83 *6033:A0 2.83294e-05
*RES
1 *6540:X *6033:A0 33.2786 
*END

*D_NET *727 0.000921692
*CONN
*I *6120:A0 I *D sky130_fd_sc_hd__mux2_1
*I *6551:X O *D sky130_fd_sc_hd__dlygate4sd3_1
*CAP
1 *6120:A0 0.000321246
2 *6551:X 0.000321246
3 *6120:S *6120:A0 0.000103267
4 *6551:A *6120:A0 6.05161e-06
5 *254:10 *6120:A0 0.00014699
6 *498:10 *6120:A0 2.2892e-05
*RES
1 *6551:X *6120:A0 32.5464 
*END

*D_NET *728 0.00128269
*CONN
*I *6029:A0 I *D sky130_fd_sc_hd__mux2_1
*I *6560:X O *D sky130_fd_sc_hd__dlygate4sd3_1
*CAP
1 *6029:A0 0.00040967
2 *6560:X 0.00040967
3 *6029:A0 *6029:A1 5.71472e-05
4 *6029:S *6029:A0 2.44318e-05
5 *6338:CLK *6029:A0 0.000381775
*RES
1 *6560:X *6029:A0 26.5286 
*END

*D_NET *729 0.00106922
*CONN
*I *5912:A0 I *D sky130_fd_sc_hd__mux2_1
*I *6561:X O *D sky130_fd_sc_hd__dlygate4sd3_1
*CAP
1 *5912:A0 0.000510219
2 *6561:X 0.000510219
3 *5912:S *5912:A0 4.87854e-05
*RES
1 *6561:X *5912:A0 25.7071 
*END

*D_NET *730 0.000790571
*CONN
*I *6239:A0 I *D sky130_fd_sc_hd__mux2_1
*I *6562:X O *D sky130_fd_sc_hd__dlygate4sd3_1
*CAP
1 *6239:A0 0.000219506
2 *6562:X 0.000219506
3 *6239:A0 *746:99 0.000229456
4 *6239:A0 *746:109 5.71472e-05
5 *6377:CLK *6239:A0 3.92854e-05
6 *428:52 *6239:A0 2.56694e-05
*RES
1 *6562:X *6239:A0 31.225 
*END

*D_NET *731 0.00143809
*CONN
*I *5920:A0 I *D sky130_fd_sc_hd__mux2_1
*I *6563:X O *D sky130_fd_sc_hd__dlygate4sd3_1
*CAP
1 *5920:A0 0.000305295
2 *6563:X 0.000305295
3 *5921:A *5920:A0 3.69047e-06
4 *5993:A3 *5920:A0 0.000225616
5 *6249:A1 *5920:A0 0.00029513
6 *216:44 *5920:A0 0.00019243
7 *226:85 *5920:A0 5.26091e-05
8 *226:95 *5920:A0 5.80217e-05
*RES
1 *6563:X *5920:A0 36.0107 
*END

*D_NET *732 0.00104997
*CONN
*I *6140:A0 I *D sky130_fd_sc_hd__mux2_1
*I *6564:X O *D sky130_fd_sc_hd__dlygate4sd3_1
*CAP
1 *6140:A0 0.000145125
2 *6564:X 0.000145125
3 *6140:A0 *757:83 0.00048939
4 *6564:A *6140:A0 0.000270326
*RES
1 *6564:X *6140:A0 23.6536 
*END

*D_NET *733 0.000939513
*CONN
*I *6191:A0 I *D sky130_fd_sc_hd__mux2_1
*I *6565:X O *D sky130_fd_sc_hd__dlygate4sd3_1
*CAP
1 *6191:A0 0.000146916
2 *6565:X 0.000146916
3 *6191:A0 *746:64 0.000250588
4 *6191:A0 *746:85 2.59355e-05
5 *5949:A0 *6191:A0 0.000323337
6 *6191:S *6191:A0 4.58194e-05
*RES
1 *6565:X *6191:A0 23.6536 
*END

*D_NET *734 0.00170173
*CONN
*I *5906:A0 I *D sky130_fd_sc_hd__mux2_1
*I *6567:X O *D sky130_fd_sc_hd__dlygate4sd3_1
*CAP
1 *5906:A0 0.000623642
2 *6567:X 0.000623642
3 *5906:A1 *5906:A0 1.87174e-05
4 *5906:S *5906:A0 4.70553e-05
5 *5907:A *5906:A0 0
6 *5924:A3 *5906:A0 6.10501e-05
7 *5941:A0 *5906:A0 7.6644e-05
8 *6439:CLK *5906:A0 5.41609e-05
9 *6439:D *5906:A0 0.000196817
*RES
1 *6567:X *5906:A0 36.7786 
*END

*D_NET *735 0.03962
*CONN
*I *6118:A1 I *D sky130_fd_sc_hd__mux2_1
*I *6043:A1 I *D sky130_fd_sc_hd__mux2_1
*I *6290:A1 I *D sky130_fd_sc_hd__mux2_1
*I *6006:A1 I *D sky130_fd_sc_hd__mux2_1
*I *6099:A1 I *D sky130_fd_sc_hd__mux2_1
*I *6308:A1 I *D sky130_fd_sc_hd__mux2_1
*I *6079:A1 I *D sky130_fd_sc_hd__mux2_1
*I *6061:A1 I *D sky130_fd_sc_hd__mux2_1
*I *6154:A1 I *D sky130_fd_sc_hd__mux2_1
*I *6237:A1 I *D sky130_fd_sc_hd__mux2_1
*I *5908:A1 I *D sky130_fd_sc_hd__mux2_1
*I *6025:A1 I *D sky130_fd_sc_hd__mux2_1
*I *6189:A1 I *D sky130_fd_sc_hd__mux2_1
*I *6136:A1 I *D sky130_fd_sc_hd__mux2_1
*I *6171:A1 I *D sky130_fd_sc_hd__mux2_1
*I *6207:A1 I *D sky130_fd_sc_hd__mux2_1
*I *6662:X O *D sky130_fd_sc_hd__buf_4
*CAP
1 *6118:A1 0
2 *6043:A1 0.000429698
3 *6290:A1 0
4 *6006:A1 0
5 *6099:A1 0
6 *6308:A1 0
7 *6079:A1 0
8 *6061:A1 0.000432659
9 *6154:A1 0.000200305
10 *6237:A1 0
11 *5908:A1 0
12 *6025:A1 0.000478956
13 *6189:A1 2.9238e-05
14 *6136:A1 0
15 *6171:A1 1.98342e-05
16 *6207:A1 0
17 *6662:X 0.00165884
18 *735:207 0.000537961
19 *735:192 0.000494632
20 *735:162 0.00153986
21 *735:135 0.0013075
22 *735:133 0.00062248
23 *735:129 0.00148168
24 *735:117 0.00249843
25 *735:105 0.00187245
26 *735:92 0.00158681
27 *735:81 0.00135392
28 *735:57 0.000717799
29 *735:46 0.000821435
30 *735:35 0.000870103
31 *735:27 0.000870889
32 *735:20 0.00147646
33 *735:12 0.00288955
34 *6154:A1 *6154:A0 3.18676e-05
35 *735:133 *6308:A0 2.89016e-05
36 *5908:A0 *735:81 5.71472e-05
37 *5908:A0 *735:92 0.000527311
38 *5919:A *735:20 7.83659e-05
39 *5928:A0 *735:105 0
40 *5932:S0 *6061:A1 0.000258126
41 *5939:A1 *735:81 2.44318e-05
42 *5940:A0 *6025:A1 0.000222784
43 *5940:A0 *735:117 0.000285271
44 *5941:A0 *735:92 1.02504e-05
45 *5941:A0 *735:105 0.00107781
46 *5942:A2 *6043:A1 0.000512047
47 *5943:A0 *6154:A1 3.97657e-05
48 *5943:A0 *735:162 0
49 *5943:A2 *735:162 0.000107158
50 *5943:A3 *735:162 5.32863e-05
51 *5943:S1 *735:162 0.000298877
52 *5945:A0 *735:129 2.11419e-05
53 *5988:A1 *735:192 7.73006e-05
54 *6000:A0 *735:105 0.000178847
55 *6026:A *6025:A1 0.000318107
56 *6089:A1 *735:192 0.000103267
57 *6099:A0 *735:129 5.71472e-05
58 *6099:A0 *735:133 1.69961e-05
59 *6100:A *735:129 1.00073e-05
60 *6109:S *735:129 0.00106058
61 *6109:S *735:192 0.00015384
62 *6110:A *735:117 0
63 *6110:A *735:192 0
64 *6116:A0 *735:117 8.16036e-05
65 *6116:S *735:117 0.0002644
66 *6118:S *735:105 5.52302e-05
67 *6136:S *735:46 5.80706e-06
68 *6136:S *735:57 0.000292311
69 *6169:S *735:35 2.19684e-05
70 *6169:S *735:46 0.000123409
71 *6171:A0 *6171:A1 5.71472e-05
72 *6172:A *6171:A1 9.90431e-05
73 *6189:A0 *6025:A1 0.00025706
74 *6189:A0 *6189:A1 5.33005e-05
75 *6208:A *735:27 2.77217e-05
76 *6208:A *735:35 3.65526e-05
77 *6217:S *735:20 0
78 *6236:A *735:105 0
79 *6237:S *735:92 3.57844e-05
80 *6238:A *735:105 0
81 *6290:A0 *6043:A1 5.33005e-05
82 *6290:A0 *735:192 0.000105347
83 *6290:A0 *735:207 0.000128901
84 *6308:S *735:133 0.000262428
85 *6309:A *735:162 2.74584e-05
86 *6323:CLK *735:92 2.44318e-05
87 *6328:CLK *735:20 0.000708454
88 *6328:CLK *735:27 0.000186662
89 *6371:D *735:162 5.95099e-05
90 *6410:D *735:46 0
91 *6411:D *735:27 0.000234761
92 *6411:D *735:35 0
93 *6411:D *735:81 0.000186669
94 *6427:D *735:35 0
95 *6440:D *735:92 5.09882e-05
96 *6481:CLK *735:192 0.000387083
97 *6645:A *6025:A1 0.00014285
98 *216:60 *735:20 5.0725e-05
99 *230:140 *735:117 0
100 *284:16 *735:117 3.59846e-05
101 *284:16 *735:192 4.01933e-05
102 *286:16 *735:117 0.000705478
103 *339:81 *735:162 2.79421e-05
104 *351:119 *6061:A1 0.000322257
105 *362:61 *735:105 0.000137983
106 *382:80 *735:162 0
107 *391:73 *6171:A1 1.39841e-05
108 *411:111 *735:46 0.000173097
109 *411:111 *735:57 0.000561369
110 *470:40 *735:129 2.33162e-05
111 *470:52 *735:133 0.000451463
112 *482:76 *735:117 0.000320024
113 *494:18 *735:46 0
114 *494:20 *735:46 0
115 *494:22 *735:35 0
116 *494:22 *735:46 0
117 *513:10 *735:162 0.000179025
118 *529:16 *6061:A1 9.91086e-05
119 *537:12 *6043:A1 0.000121435
120 *577:10 *735:92 0
121 *584:12 *735:105 0
122 *622:12 *735:129 1.94945e-05
123 *625:12 *735:12 0.000568676
124 *625:12 *735:20 0.000934704
125 *625:32 *735:20 2.49484e-05
126 *625:122 *735:192 0.000378859
127 *625:122 *735:207 5.35368e-05
128 *724:47 *735:46 0.000262719
129 *724:64 *735:46 7.63087e-05
130 *724:107 *735:117 0.000265107
131 *724:120 *735:117 0
132 *724:120 *735:192 0
*RES
1 *6662:X *735:12 47.8625 
2 *735:12 *735:20 34.8304 
3 *735:20 *6207:A1 9.3 
4 *735:20 *735:27 5.05357 
5 *735:27 *735:35 9.03571 
6 *735:35 *6171:A1 14.7464 
7 *735:35 *735:46 14.0893 
8 *735:46 *6136:A1 13.8 
9 *735:46 *735:57 11.9107 
10 *735:57 *6189:A1 9.83571 
11 *735:57 *6025:A1 21.0679 
12 *735:27 *735:81 6.42857 
13 *735:81 *5908:A1 9.3 
14 *735:81 *735:92 18.5536 
15 *735:92 *6237:A1 13.8 
16 *735:92 *735:105 20.0536 
17 *735:105 *735:117 39.6875 
18 *735:117 *735:129 17.0507 
19 *735:129 *735:133 9.17857 
20 *735:133 *735:135 4.5 
21 *735:135 *6154:A1 16.6036 
22 *735:135 *735:162 22.7679 
23 *735:162 *6061:A1 29.8179 
24 *735:162 *6079:A1 9.3 
25 *735:133 *6308:A1 9.3 
26 *735:129 *6099:A1 9.3 
27 *735:117 *735:192 12.4196 
28 *735:192 *6006:A1 13.8 
29 *735:192 *735:207 7.10714 
30 *735:207 *6290:A1 9.3 
31 *735:207 *6043:A1 16.9607 
32 *735:105 *6118:A1 9.3 
*END

*D_NET *736 0.00214244
*CONN
*I *6118:A0 I *D sky130_fd_sc_hd__mux2_1
*I *6568:X O *D sky130_fd_sc_hd__dlygate4sd3_1
*CAP
1 *6118:A0 0.00063033
2 *6568:X 0.00063033
3 *658:10 *6118:A0 0.000881776
*RES
1 *6568:X *6118:A0 36.975 
*END

*D_NET *737 0.00142567
*CONN
*I *6201:A0 I *D sky130_fd_sc_hd__mux2_1
*I *6569:X O *D sky130_fd_sc_hd__dlygate4sd3_1
*CAP
1 *6201:A0 0.000509072
2 *6569:X 0.000509072
3 *6201:A0 *790:33 0.000100831
4 *5948:S1 *6201:A0 0
5 *5994:A0 *6201:A0 4.01768e-05
6 *5994:A1 *6201:A0 0
7 *5994:S0 *6201:A0 4.99081e-05
8 *6195:S *6201:A0 2.88018e-06
9 *6201:A1 *6201:A0 7.86995e-05
10 *226:83 *6201:A0 0.000135028
*RES
1 *6569:X *6201:A0 35.2964 
*END

*D_NET *738 0.000826029
*CONN
*I *6318:A0 I *D sky130_fd_sc_hd__mux2_1
*I *6570:X O *D sky130_fd_sc_hd__dlygate4sd3_1
*CAP
1 *6318:A0 0.000226824
2 *6570:X 0.000226824
3 *5945:A0 *6318:A0 7.83659e-05
4 *5988:A1 *6318:A0 0.000100462
5 *6570:A *6318:A0 3.92854e-05
6 *622:12 *6318:A0 9.90431e-05
7 *625:186 *6318:A0 5.52238e-05
*RES
1 *6570:X *6318:A0 31.225 
*END

*D_NET *739 0.000987442
*CONN
*I *6014:A0 I *D sky130_fd_sc_hd__mux2_1
*I *6571:X O *D sky130_fd_sc_hd__dlygate4sd3_1
*CAP
1 *6014:A0 0.000104053
2 *6571:X 0.000104053
3 *6014:A0 *6014:A1 0.000492333
4 *329:29 *6014:A0 0.000287004
*RES
1 *6571:X *6014:A0 23.6536 
*END

*D_NET *740 0.00138242
*CONN
*I *6197:A0 I *D sky130_fd_sc_hd__mux2_1
*I *6572:X O *D sky130_fd_sc_hd__dlygate4sd3_1
*CAP
1 *6197:A0 0.000382877
2 *6572:X 0.000382877
3 *6197:A0 *779:134 5.71472e-05
4 *6197:A0 *779:141 0.00018372
5 *5976:A1 *6197:A0 7.83659e-05
6 *5976:A3 *6197:A0 3.69697e-05
7 *6351:D *6197:A0 7.79781e-06
8 *6572:A *6197:A0 0.000109809
9 *232:69 *6197:A0 0
10 *382:24 *6197:A0 0.000142856
*RES
1 *6572:X *6197:A0 34.6 
*END

*D_NET *741 0.00226121
*CONN
*I *6195:A0 I *D sky130_fd_sc_hd__mux2_1
*I *6573:X O *D sky130_fd_sc_hd__dlygate4sd3_1
*CAP
1 *6195:A0 0.000677883
2 *6573:X 0.000677883
3 *6195:A0 *768:85 5.52238e-05
4 *5967:A0 *6195:A0 4.30382e-05
5 *5967:A1 *6195:A0 1.13406e-05
6 *5967:A2 *6195:A0 7.6644e-05
7 *5967:A3 *6195:A0 7.6644e-05
8 *6573:A *6195:A0 9.25014e-06
9 *295:20 *6195:A0 0.000362979
10 *295:28 *6195:A0 0.00027032
*RES
1 *6573:X *6195:A0 38.475 
*END

*D_NET *742 0.00132931
*CONN
*I *6164:A0 I *D sky130_fd_sc_hd__mux2_1
*I *6574:X O *D sky130_fd_sc_hd__dlygate4sd3_1
*CAP
1 *6164:A0 0.000146488
2 *6574:X 0.000146488
3 *6164:S *6164:A0 0.000809408
4 *6574:A *6164:A0 0.000139907
5 *231:14 *6164:A0 8.70144e-05
*RES
1 *6574:X *6164:A0 25.2964 
*END

*D_NET *743 0.000769178
*CONN
*I *6316:A0 I *D sky130_fd_sc_hd__mux2_1
*I *6575:X O *D sky130_fd_sc_hd__dlygate4sd3_1
*CAP
1 *6316:A0 0.000241131
2 *6575:X 0.000241131
3 *470:100 *6316:A0 7.32272e-05
4 *470:109 *6316:A0 0.000213688
*RES
1 *6575:X *6316:A0 23.6536 
*END

*D_NET *744 0.00118846
*CONN
*I *6101:A0 I *D sky130_fd_sc_hd__mux2_1
*I *6576:X O *D sky130_fd_sc_hd__dlygate4sd3_1
*CAP
1 *6101:A0 0.00040493
2 *6576:X 0.00040493
3 *6101:A0 *746:31 0.000310292
4 *6101:A0 *757:56 1.15136e-05
5 *5952:A1 *6101:A0 3.18676e-05
6 *5952:A2 *6101:A0 7.49387e-06
7 *232:118 *6101:A0 0
8 *351:79 *6101:A0 1.74352e-05
*RES
1 *6576:X *6101:A0 33.475 
*END

*D_NET *745 0.00171174
*CONN
*I *6235:A0 I *D sky130_fd_sc_hd__mux2_1
*I *6578:X O *D sky130_fd_sc_hd__dlygate4sd3_1
*CAP
1 *6235:A0 0.000715008
2 *6578:X 0.000715008
3 *724:41 *6235:A0 0.000224577
4 *724:43 *6235:A0 5.71472e-05
*RES
1 *6578:X *6235:A0 36.5643 
*END

*D_NET *746 0.0475634
*CONN
*I *6045:A1 I *D sky130_fd_sc_hd__mux2_1
*I *6063:A1 I *D sky130_fd_sc_hd__mux2_1
*I *6292:A1 I *D sky130_fd_sc_hd__mux2_1
*I *6008:A1 I *D sky130_fd_sc_hd__mux2_1
*I *6310:A1 I *D sky130_fd_sc_hd__mux2_1
*I *6156:A1 I *D sky130_fd_sc_hd__mux2_1
*I *6081:A1 I *D sky130_fd_sc_hd__mux2_1
*I *6191:A1 I *D sky130_fd_sc_hd__mux2_1
*I *6138:A1 I *D sky130_fd_sc_hd__mux2_1
*I *6239:A1 I *D sky130_fd_sc_hd__mux2_1
*I *5910:A1 I *D sky130_fd_sc_hd__mux2_1
*I *6209:A1 I *D sky130_fd_sc_hd__mux2_1
*I *6173:A1 I *D sky130_fd_sc_hd__mux2_1
*I *6027:A1 I *D sky130_fd_sc_hd__mux2_1
*I *6120:A1 I *D sky130_fd_sc_hd__mux2_1
*I *6101:A1 I *D sky130_fd_sc_hd__mux2_1
*I *6663:X O *D sky130_fd_sc_hd__buf_4
*CAP
1 *6045:A1 0.000585485
2 *6063:A1 0.000204262
3 *6292:A1 0
4 *6008:A1 1.1624e-05
5 *6310:A1 0.000532573
6 *6156:A1 0.000261033
7 *6081:A1 0
8 *6191:A1 0
9 *6138:A1 2.63743e-05
10 *6239:A1 0
11 *5910:A1 0.000235569
12 *6209:A1 0
13 *6173:A1 0.00061945
14 *6027:A1 0.000225462
15 *6120:A1 0.00047188
16 *6101:A1 0
17 *6663:X 0
18 *746:205 0.000204262
19 *746:117 0.00115053
20 *746:109 0.0011587
21 *746:99 0.00285077
22 *746:85 0.00292295
23 *746:64 0.0012544
24 *746:45 0.00254278
25 *746:37 0.0016036
26 *746:31 0.000702001
27 *746:20 0.00067851
28 *746:16 0.000937652
29 *746:14 0.000479211
30 *746:12 0.000675336
31 *746:10 0.00359318
32 *746:8 0.0027562
33 *746:6 0.00326741
34 *746:4 0.00326741
35 *5910:A1 *5910:A0 9.90367e-05
36 *6008:A1 *6008:A0 5.52238e-05
37 *6063:A1 *6063:A0 5.71472e-05
38 *6063:A1 *6292:A0 0.000531286
39 *6063:A1 *779:12 0.000318152
40 *6138:A1 *6138:A0 5.49544e-05
41 *6310:A1 *6008:A0 0.000318107
42 *6310:A1 *6310:A0 5.52238e-05
43 *746:14 *6008:A0 0
44 *746:20 *757:56 0
45 *746:31 *757:56 0.000143033
46 *746:45 *6241:A1 0
47 *746:85 *6138:A0 0.000530858
48 *746:99 *768:42 5.90029e-05
49 *746:99 *768:44 0
50 *5948:S0 *5910:A1 0
51 *5948:S1 *746:109 0.000151333
52 *5949:A0 *746:64 0.000128886
53 *5949:A0 *746:85 7.24306e-06
54 *5949:A2 *6027:A1 0.000269422
55 *5951:A1 *6045:A1 7.56854e-05
56 *5951:A1 *746:14 0
57 *5952:A0 *746:31 4.16383e-05
58 *5952:A2 *746:31 6.28241e-05
59 *5952:A3 *746:31 0
60 *5952:S0 *746:31 0
61 *5957:A1 *746:45 7.6644e-05
62 *5957:A2 *746:45 3.06282e-05
63 *5957:S1 *746:45 6.90798e-05
64 *5958:S1 *746:45 0.000572809
65 *6009:A *746:14 0
66 *6027:A0 *6027:A1 5.52238e-05
67 *6028:A *6120:A1 0
68 *6045:A0 *6045:A1 5.66971e-05
69 *6063:S *6063:A1 7.03393e-05
70 *6081:A0 *746:37 2.44318e-05
71 *6081:A0 *746:45 0.000139907
72 *6101:A0 *746:31 0.000310292
73 *6120:S *6120:A1 9.60875e-05
74 *6120:S *746:45 0
75 *6121:A *6120:A1 2.23758e-05
76 *6122:S *746:45 0
77 *6123:A *746:45 6.65398e-05
78 *6138:S *6138:A1 5.49544e-05
79 *6138:S *746:85 3.99614e-06
80 *6139:A *746:85 1.3701e-05
81 *6139:A *746:99 5.71472e-05
82 *6156:A0 *6156:A1 2.27416e-05
83 *6157:A *6156:A1 0.000229456
84 *6173:A0 *6173:A1 1.6539e-05
85 *6191:A0 *746:64 0.000250588
86 *6191:A0 *746:85 2.59355e-05
87 *6191:S *746:85 8.25843e-06
88 *6192:A *746:85 0.000320024
89 *6199:A1 *746:99 7.6644e-05
90 *6239:A0 *746:99 0.000229456
91 *6239:A0 *746:109 5.71472e-05
92 *6240:A *746:109 1.90303e-05
93 *6242:A *746:45 9.86999e-05
94 *6324:CLK *746:117 9.98446e-05
95 *6356:CLK *6045:A1 0.000147783
96 *6356:D *6045:A1 0.000189655
97 *6364:CLK *746:14 0
98 *6377:CLK *746:99 0.000303068
99 *6388:CLK *6027:A1 8.18783e-05
100 *6412:CLK *746:117 0
101 *6424:D *746:99 5.95099e-05
102 *6428:CLK *6173:A1 0.000135125
103 *6428:D *6173:A1 5.95099e-05
104 *6441:CLK *746:117 1.92905e-05
105 *6441:D *746:109 0.000250068
106 *6441:D *746:117 0.000144186
107 *6482:D *746:12 0
108 *6490:CLK *746:20 0
109 *6501:A *746:31 2.31791e-05
110 *6501:A *746:37 0.000177234
111 *6538:A *746:31 0
112 *6538:A *746:37 0
113 *6560:A *746:45 0
114 *6561:A *746:45 0
115 *6562:A *746:109 0.000164547
116 *6576:A *746:20 4.94362e-05
117 *6585:A *5910:A1 9.97648e-05
118 *6604:A *746:99 2.03008e-05
119 *6605:A *746:14 4.79842e-05
120 *6654:A *746:6 0.00010096
121 *216:14 *746:109 0.000112916
122 *216:29 *5910:A1 0.000126439
123 *226:219 *6120:A1 0
124 *226:219 *746:45 0
125 *226:240 *746:45 4.7024e-05
126 *230:66 *746:99 0
127 *254:10 *746:45 0
128 *298:67 *6310:A1 0.000211937
129 *319:84 *6045:A1 0.000166299
130 *329:62 *6008:A1 5.52238e-05
131 *339:50 *746:45 9.01334e-05
132 *339:65 *6156:A1 0.00018796
133 *339:65 *746:37 0
134 *351:79 *746:31 5.62995e-05
135 *351:101 *746:31 7.48301e-06
136 *382:53 *746:37 0.000142856
137 *382:53 *746:45 6.57914e-05
138 *401:93 *6027:A1 7.60993e-05
139 *411:20 *5910:A1 0.000112093
140 *411:20 *746:117 4.61593e-05
141 *411:30 *6173:A1 3.81416e-06
142 *411:30 *746:117 2.55587e-05
143 *411:111 *6027:A1 0.000402339
144 *428:75 *746:99 0.000119203
145 *460:66 *746:12 0.000160933
146 *460:66 *746:14 1.76039e-05
147 *460:76 *6063:A1 0.000350687
148 *483:8 *746:45 0
149 *483:53 *746:37 2.89016e-05
150 *483:53 *746:45 0
151 *483:63 *746:45 0
152 *484:6 *6156:A1 0.000151071
153 *484:34 *746:14 0
154 *484:34 *746:16 0
155 *484:34 *746:20 0
156 *487:25 *6173:A1 0
157 *489:40 *746:99 0.00065682
158 *489:75 *746:99 0.000170584
159 *495:88 *6027:A1 0.000241205
160 *498:10 *6120:A1 0
161 *499:12 *746:45 0
162 *574:10 *746:99 6.20765e-05
163 *578:10 *746:109 0.00020112
164 *624:8 *746:6 0.00200341
165 *680:10 *6173:A1 3.69697e-05
*RES
1 *6663:X *746:4 9.3 
2 *746:4 *746:6 60.0893 
3 *746:6 *746:8 4.5 
4 *746:8 *746:10 50.5179 
5 *746:10 *746:12 4.98214 
6 *746:12 *746:14 7.41071 
7 *746:14 *746:16 0.732143 
8 *746:16 *746:20 11 
9 *746:20 *6101:A1 9.3 
10 *746:20 *746:31 13.0893 
11 *746:31 *746:37 8.10714 
12 *746:37 *746:45 37.0714 
13 *746:45 *6120:A1 21.0321 
14 *746:45 *746:64 12.4286 
15 *746:64 *6027:A1 26.175 
16 *746:64 *746:85 9.625 
17 *746:85 *746:99 45.0893 
18 *746:99 *746:109 17.625 
19 *746:109 *746:117 8.08929 
20 *746:117 *6173:A1 26.1571 
21 *746:117 *6209:A1 9.3 
22 *746:109 *5910:A1 23.3179 
23 *746:99 *6239:A1 9.3 
24 *746:85 *6138:A1 10.2464 
25 *746:64 *6191:A1 9.3 
26 *746:37 *6081:A1 9.3 
27 *746:31 *6156:A1 20.9071 
28 *746:16 *6310:A1 23.5143 
29 *746:14 *6008:A1 14.3357 
30 *746:12 *746:205 4.5 
31 *746:205 *6292:A1 9.3 
32 *746:205 *6063:A1 18.6036 
33 *746:10 *6045:A1 25.4429 
*END

*D_NET *747 0.0027786
*CONN
*I *6025:A0 I *D sky130_fd_sc_hd__mux2_1
*I *6579:X O *D sky130_fd_sc_hd__dlygate4sd3_1
*CAP
1 *6025:A0 0.000988472
2 *6579:X 0.000988472
3 *5925:S0 *6025:A0 2.79092e-05
4 *5940:A2 *6025:A0 1.05613e-05
5 *5940:A3 *6025:A0 5.30637e-06
6 *6579:A *6025:A0 0.000611988
7 *226:183 *6025:A0 2.56694e-05
8 *239:180 *6025:A0 3.74158e-05
9 *239:184 *6025:A0 8.28038e-05
*RES
1 *6579:X *6025:A0 41.0821 
*END

*D_NET *748 0.00113803
*CONN
*I *6107:A0 I *D sky130_fd_sc_hd__mux2_1
*I *6580:X O *D sky130_fd_sc_hd__dlygate4sd3_1
*CAP
1 *6107:A0 0.000142063
2 *6580:X 0.000142063
3 *6107:A0 *6107:A1 0.000486447
4 *5979:A2 *6107:A0 0.000312222
5 *6107:S *6107:A0 5.52302e-05
*RES
1 *6580:X *6107:A0 23.6536 
*END

*D_NET *749 0.00122758
*CONN
*I *6219:A0 I *D sky130_fd_sc_hd__mux2_1
*I *6581:X O *D sky130_fd_sc_hd__dlygate4sd3_1
*CAP
1 *6219:A0 0.000526882
2 *6581:X 0.000526882
3 *6581:A *6219:A0 5.52238e-05
4 *391:47 *6219:A0 0.000118595
*RES
1 *6581:X *6219:A0 34.5107 
*END

*D_NET *750 0.00124408
*CONN
*I *6175:A0 I *D sky130_fd_sc_hd__mux2_1
*I *6582:X O *D sky130_fd_sc_hd__dlygate4sd3_1
*CAP
1 *6175:A0 0.000506549
2 *6582:X 0.000506549
3 *6175:A0 *6211:A0 5.52238e-05
4 *6175:A0 *757:110 7.17235e-05
5 *6029:S *6175:A0 0
6 *6325:D *6175:A0 2.56694e-05
7 *6582:A *6175:A0 7.83659e-05
8 *401:87 *6175:A0 0
*RES
1 *6582:X *6175:A0 35.0107 
*END

*D_NET *751 0.00125573
*CONN
*I *6055:A0 I *D sky130_fd_sc_hd__mux2_1
*I *6583:X O *D sky130_fd_sc_hd__dlygate4sd3_1
*CAP
1 *6055:A0 0.000394687
2 *6583:X 0.000394687
3 *6343:D *6055:A0 6.48957e-05
4 *6583:A *6055:A0 0
5 *329:29 *6055:A0 0
6 *460:31 *6055:A0 0.000357952
7 *493:27 *6055:A0 4.35048e-05
*RES
1 *6583:X *6055:A0 34.475 
*END

*D_NET *752 0.00151354
*CONN
*I *6308:A0 I *D sky130_fd_sc_hd__mux2_1
*I *6584:X O *D sky130_fd_sc_hd__dlygate4sd3_1
*CAP
1 *6308:A0 0.000693312
2 *6584:X 0.000693312
3 *6308:S *6308:A0 9.80173e-05
4 *239:219 *6308:A0 0
5 *735:133 *6308:A0 2.89016e-05
*RES
1 *6584:X *6308:A0 39.2429 
*END

*D_NET *753 0.00104775
*CONN
*I *5910:A0 I *D sky130_fd_sc_hd__mux2_1
*I *6585:X O *D sky130_fd_sc_hd__dlygate4sd3_1
*CAP
1 *5910:A0 0.00022769
2 *6585:X 0.00022769
3 *5910:A1 *5910:A0 9.90367e-05
4 *5998:S *5910:A0 0.000493339
*RES
1 *6585:X *5910:A0 23.6536 
*END

*D_NET *754 0.000717919
*CONN
*I *6154:A0 I *D sky130_fd_sc_hd__mux2_1
*I *6586:X O *D sky130_fd_sc_hd__dlygate4sd3_1
*CAP
1 *6154:A0 0.000281229
2 *6586:X 0.000281229
3 *5943:A0 *6154:A0 2.89016e-05
4 *6154:A1 *6154:A0 3.18676e-05
5 *6586:A *6154:A0 9.46929e-05
*RES
1 *6586:X *6154:A0 23.6536 
*END

*D_NET *755 0.00158461
*CONN
*I *6146:A0 I *D sky130_fd_sc_hd__mux2_1
*I *6587:X O *D sky130_fd_sc_hd__dlygate4sd3_1
*CAP
1 *6146:A0 0.000238461
2 *6587:X 0.000238461
3 *5986:S *6146:A0 9.60939e-05
4 *6146:A1 *6146:A0 0.000145009
5 *309:52 *6146:A0 0.000137262
6 *372:64 *6146:A0 0.000298868
7 *372:74 *6146:A0 0.00010096
8 *625:66 *6146:A0 0.0003295
*RES
1 *6587:X *6146:A0 35.7964 
*END

*D_NET *756 0.000810139
*CONN
*I *6314:A0 I *D sky130_fd_sc_hd__mux2_1
*I *6589:X O *D sky130_fd_sc_hd__dlygate4sd3_1
*CAP
1 *6314:A0 0.00022351
2 *6589:X 0.00022351
3 *6314:A0 *768:26 2.89016e-05
4 *5970:A2 *6314:A0 9.60875e-05
5 *470:109 *6314:A0 2.28598e-05
6 *470:128 *6314:A0 0.00021527
*RES
1 *6589:X *6314:A0 23.6536 
*END

*D_NET *757 0.0344802
*CONN
*I *6083:A1 I *D sky130_fd_sc_hd__mux2_1
*I *6158:A1 I *D sky130_fd_sc_hd__mux2_1
*I *6312:A1 I *D sky130_fd_sc_hd__mux2_1
*I *6065:A1 I *D sky130_fd_sc_hd__mux2_1
*I *6047:A1 I *D sky130_fd_sc_hd__mux2_1
*I *6294:A1 I *D sky130_fd_sc_hd__mux2_1
*I *6193:A1 I *D sky130_fd_sc_hd__mux2_1
*I *6140:A1 I *D sky130_fd_sc_hd__mux2_1
*I *6122:A1 I *D sky130_fd_sc_hd__mux2_1
*I *5912:A1 I *D sky130_fd_sc_hd__mux2_1
*I *6175:A1 I *D sky130_fd_sc_hd__mux2_1
*I *6211:A1 I *D sky130_fd_sc_hd__mux2_1
*I *6241:A1 I *D sky130_fd_sc_hd__mux2_1
*I *6029:A1 I *D sky130_fd_sc_hd__mux2_1
*I *6010:A1 I *D sky130_fd_sc_hd__mux2_1
*I *6103:A1 I *D sky130_fd_sc_hd__mux2_1
*I *6664:X O *D sky130_fd_sc_hd__buf_4
*CAP
1 *6083:A1 0.000469774
2 *6158:A1 0.000243334
3 *6312:A1 0
4 *6065:A1 0.000172883
5 *6047:A1 0.000325501
6 *6294:A1 0
7 *6193:A1 0
8 *6140:A1 0
9 *6122:A1 0.000230874
10 *5912:A1 0
11 *6175:A1 2.13511e-05
12 *6211:A1 0.000120467
13 *6241:A1 0.000536681
14 *6029:A1 7.49689e-05
15 *6010:A1 0
16 *6103:A1 0
17 *6664:X 0.000867131
18 *757:196 0.000855822
19 *757:154 0.000572682
20 *757:110 0.000555644
21 *757:89 0.00102171
22 *757:87 0.000412644
23 *757:83 0.000886828
24 *757:79 0.000540656
25 *757:75 0.00058571
26 *757:56 0.00231287
27 *757:33 0.00272111
28 *757:24 0.0014543
29 *757:22 0.000793473
30 *757:20 0.00104237
31 *757:18 0.00340648
32 *757:14 0.00348162
33 *6047:A1 *779:12 0.000711397
34 *6211:A1 *6211:A0 0.000446597
35 *757:20 *6312:A0 0.000261858
36 *757:22 *6312:A0 0.000214198
37 *757:24 *6312:A0 5.71472e-05
38 *757:110 *6211:A0 1.24368e-05
39 *5957:A0 *757:110 0.000123888
40 *5957:A1 *6175:A1 0
41 *5957:A1 *757:110 2.77143e-05
42 *5957:A3 *6241:A1 5.54183e-05
43 *5957:A3 *757:87 8.07951e-05
44 *5957:A3 *757:89 0.000125731
45 *5958:A0 *6122:A1 0.000141015
46 *5958:A0 *757:87 7.90803e-05
47 *5958:A3 *757:75 3.47737e-05
48 *5958:A3 *757:79 1.41706e-05
49 *5958:S0 *6241:A1 0
50 *5958:S0 *757:87 0
51 *5958:S0 *757:89 0
52 *5958:S1 *757:87 0.00018725
53 *5960:A3 *6047:A1 6.09572e-05
54 *5961:A1 *6083:A1 0.00036192
55 *5962:A0 *6065:A1 5.10822e-05
56 *5962:A1 *6083:A1 0
57 *6010:A0 *757:33 0.000358977
58 *6010:A0 *757:56 1.21258e-05
59 *6010:S *757:33 2.78584e-05
60 *6010:S *757:56 0.000665667
61 *6011:A *757:33 0
62 *6011:A *757:56 0.000232399
63 *6029:A0 *6029:A1 5.71472e-05
64 *6029:S *6029:A1 0.000142856
65 *6029:S *757:75 9.41642e-05
66 *6029:S *757:79 0
67 *6030:A *757:75 2.28499e-05
68 *6047:A0 *6047:A1 5.71472e-05
69 *6047:S *6047:A1 0.000290226
70 *6101:A0 *757:56 1.15136e-05
71 *6103:A0 *757:24 0.000476056
72 *6103:A0 *757:33 5.71472e-05
73 *6122:A0 *6122:A1 5.71472e-05
74 *6123:A *6122:A1 5.71472e-05
75 *6140:A0 *757:83 0.00048939
76 *6158:S *6158:A1 3.34295e-05
77 *6175:A0 *757:110 7.17235e-05
78 *6176:A *6211:A1 0.000125057
79 *6193:A0 *6029:A1 5.58941e-05
80 *6193:A0 *757:56 9.40167e-05
81 *6241:A0 *6241:A1 5.52302e-05
82 *6241:S *6241:A1 0.000221369
83 *6313:A *757:24 0.000451463
84 *6349:D *757:79 0
85 *6405:CLK *6083:A1 0.00010326
86 *6421:D *757:75 0
87 *6490:D *757:56 4.87669e-06
88 *6491:D *6083:A1 0.000171252
89 *6501:A *757:56 0.000133533
90 *6564:A *6122:A1 2.28598e-05
91 *6564:A *757:83 6.57815e-05
92 *6564:A *757:87 3.34295e-05
93 *6576:A *757:56 0.000186338
94 *6602:A *6047:A1 0.000160149
95 *6608:A *6083:A1 0.000186662
96 *6608:A *6158:A1 3.17148e-05
97 *6608:A *757:196 0.000218486
98 *6632:A *757:56 0
99 *6632:A *757:75 3.79104e-05
100 *6664:A *757:14 0
101 *225:181 *6241:A1 0
102 *226:219 *6241:A1 2.56601e-05
103 *226:240 *6241:A1 0.000135659
104 *232:118 *757:56 0
105 *319:105 *6047:A1 0
106 *319:105 *757:154 0
107 *329:85 *6065:A1 5.33978e-05
108 *401:87 *757:79 0.000142317
109 *460:76 *6047:A1 0.000329101
110 *460:76 *757:154 1.02504e-05
111 *460:78 *757:154 0.000389861
112 *470:128 *757:56 0.000113858
113 *470:151 *6065:A1 0.000183726
114 *470:151 *757:196 0
115 *479:218 *757:56 0
116 *479:228 *757:56 2.66706e-05
117 *479:238 *757:56 5.1369e-05
118 *483:53 *757:56 0
119 *484:19 *757:56 0
120 *506:10 *757:56 0.000317594
121 *571:8 *757:75 2.72859e-05
122 *618:8 *757:56 4.87953e-05
123 *691:29 *757:14 0.000153054
124 *746:20 *757:56 0
125 *746:31 *757:56 0.000143033
126 *746:45 *6241:A1 0
*RES
1 *6664:X *757:14 33.3268 
2 *757:14 *757:18 43.9821 
3 *757:18 *757:20 12.6518 
4 *757:20 *757:22 2.17857 
5 *757:22 *757:24 13.2679 
6 *757:24 *6103:A1 9.3 
7 *757:24 *757:33 10.7143 
8 *757:33 *6010:A1 9.3 
9 *757:33 *757:56 41.1964 
10 *757:56 *6029:A1 15.8893 
11 *757:56 *757:75 15.375 
12 *757:75 *757:79 9.17857 
13 *757:79 *757:83 6.30357 
14 *757:83 *757:87 12.5179 
15 *757:87 *757:89 1.64286 
16 *757:89 *6241:A1 24.675 
17 *757:89 *757:110 11.2321 
18 *757:110 *6211:A1 13.5321 
19 *757:110 *6175:A1 9.72857 
20 *757:87 *5912:A1 13.8 
21 *757:83 *6122:A1 13.9429 
22 *757:79 *6140:A1 9.3 
23 *757:75 *6193:A1 13.8 
24 *757:33 *757:154 9.48214 
25 *757:154 *6294:A1 13.8 
26 *757:154 *6047:A1 26.2107 
27 *757:24 *6065:A1 21.4071 
28 *757:22 *6312:A1 9.3 
29 *757:20 *757:196 7.96429 
30 *757:196 *6158:A1 18.175 
31 *757:196 *6083:A1 32.8893 
*END

*D_NET *758 0.00114544
*CONN
*I *6126:A0 I *D sky130_fd_sc_hd__mux2_1
*I *6590:X O *D sky130_fd_sc_hd__dlygate4sd3_1
*CAP
1 *6126:A0 0.000359238
2 *6590:X 0.000359238
3 *6126:A0 *6126:A1 5.71472e-05
4 *6126:A0 *768:42 0
5 *5977:A1 *6126:A0 0
6 *6391:D *6126:A0 0
7 *270:12 *6126:A0 9.5527e-05
8 *362:101 *6126:A0 0.000274294
9 *501:14 *6126:A0 0
*RES
1 *6590:X *6126:A0 35.5107 
*END

*D_NET *759 0.000980271
*CONN
*I *6063:A0 I *D sky130_fd_sc_hd__mux2_1
*I *6591:X O *D sky130_fd_sc_hd__dlygate4sd3_1
*CAP
1 *6063:A0 0.000112491
2 *6591:X 0.000112491
3 *6063:A0 *779:12 0.000313076
4 *6063:A1 *6063:A0 5.71472e-05
5 *6063:S *6063:A0 0.00010096
6 *460:76 *6063:A0 0.000284106
*RES
1 *6591:X *6063:A0 24.475 
*END

*D_NET *760 0.00120619
*CONN
*I *6128:A0 I *D sky130_fd_sc_hd__mux2_1
*I *6592:X O *D sky130_fd_sc_hd__dlygate4sd3_1
*CAP
1 *6128:A0 0.000425283
2 *6592:X 0.000425283
3 *5972:A1 *6128:A0 7.79781e-06
4 *6128:A1 *6128:A0 5.71472e-05
5 *6129:A *6128:A0 7.84156e-05
6 *6392:D *6128:A0 8.00806e-05
7 *6394:D *6128:A0 7.43578e-06
8 *6512:A *6128:A0 8.00806e-05
9 *362:51 *6128:A0 2.44318e-05
10 *372:30 *6128:A0 7.79781e-06
11 *502:12 *6128:A0 1.24368e-05
*RES
1 *6592:X *6128:A0 35.2607 
*END

*D_NET *761 0.00149804
*CONN
*I *6292:A0 I *D sky130_fd_sc_hd__mux2_1
*I *6593:X O *D sky130_fd_sc_hd__dlygate4sd3_1
*CAP
1 *6292:A0 0.000155976
2 *6593:X 0.000155976
3 *6292:A0 *779:12 0.00057215
4 *5951:A1 *6292:A0 5.01213e-05
5 *5951:A3 *6292:A0 3.2534e-05
6 *6063:A1 *6292:A0 0.000531286
*RES
1 *6593:X *6292:A0 34.4036 
*END

*D_NET *762 0.000747684
*CONN
*I *6181:A0 I *D sky130_fd_sc_hd__mux2_1
*I *6594:X O *D sky130_fd_sc_hd__dlygate4sd3_1
*CAP
1 *6181:A0 0.000309864
2 *6594:X 0.000309864
3 *6181:A1 *6181:A0 9.60875e-05
4 *6594:A *6181:A0 3.18676e-05
*RES
1 *6594:X *6181:A0 23.6536 
*END

*D_NET *763 0.00164893
*CONN
*I *6031:A0 I *D sky130_fd_sc_hd__mux2_1
*I *6595:X O *D sky130_fd_sc_hd__dlygate4sd3_1
*CAP
1 *6031:A0 0.00018297
2 *6595:X 0.00018297
3 *6031:A0 *6031:A1 3.18676e-05
4 *6031:A0 *768:61 0.000788265
5 *6031:S *6031:A0 4.72818e-05
6 *6595:A *6031:A0 0.000310292
7 *237:97 *6031:A0 0.00010528
*RES
1 *6595:X *6031:A0 26.5286 
*END

*D_NET *764 0.00103108
*CONN
*I *6177:A0 I *D sky130_fd_sc_hd__mux2_1
*I *6596:X O *D sky130_fd_sc_hd__dlygate4sd3_1
*CAP
1 *6177:A0 7.56258e-05
2 *6596:X 7.56258e-05
3 *6177:A0 *6213:A1 5.71472e-05
4 *6177:A0 *768:95 0.000481941
5 *391:47 *6177:A0 0.00010096
6 *391:59 *6177:A0 0.00023978
*RES
1 *6596:X *6177:A0 23.6536 
*END

*D_NET *765 0.000794715
*CONN
*I *6245:A0 I *D sky130_fd_sc_hd__mux2_1
*I *6597:X O *D sky130_fd_sc_hd__dlygate4sd3_1
*CAP
1 *6245:A0 0.000216134
2 *6597:X 0.000216134
3 *6245:A0 *5916:A0 0.000117621
4 *6245:A0 *6245:A1 5.71472e-05
5 *5975:A0 *6245:A0 8.86413e-05
6 *428:16 *6245:A0 9.90367e-05
*RES
1 *6597:X *6245:A0 23.6536 
*END

*D_NET *766 0.000749951
*CONN
*I *6247:A0 I *D sky130_fd_sc_hd__mux2_1
*I *6598:X O *D sky130_fd_sc_hd__dlygate4sd3_1
*CAP
1 *6247:A0 0.00026896
2 *6598:X 0.00026896
3 *6247:A1 *6247:A0 5.71472e-05
4 *6426:D *6247:A0 9.90431e-05
5 *428:105 *6247:A0 2.44318e-05
6 *428:121 *6247:A0 3.14078e-05
*RES
1 *6598:X *6247:A0 23.6536 
*END

*D_NET *767 0.0019147
*CONN
*I *6085:A0 I *D sky130_fd_sc_hd__mux2_1
*I *6600:X O *D sky130_fd_sc_hd__dlygate4sd3_1
*CAP
1 *6085:A0 0.0006934
2 *6600:X 0.0006934
3 *6085:A0 *6085:A1 5.52238e-05
4 *6421:CLK *6085:A0 0
5 *339:37 *6085:A0 2.44318e-05
6 *339:50 *6085:A0 0.000448243
*RES
1 *6600:X *6085:A0 37.3857 
*END

*D_NET *768 0.0441508
*CONN
*I *6296:A1 I *D sky130_fd_sc_hd__mux2_1
*I *6049:A1 I *D sky130_fd_sc_hd__mux2_1
*I *6012:A1 I *D sky130_fd_sc_hd__mux2_1
*I *6067:A1 I *D sky130_fd_sc_hd__mux2_1
*I *6314:A1 I *D sky130_fd_sc_hd__mux2_1
*I *6160:A1 I *D sky130_fd_sc_hd__mux2_1
*I *6105:A1 I *D sky130_fd_sc_hd__mux2_1
*I *6085:A1 I *D sky130_fd_sc_hd__mux2_1
*I *6031:A1 I *D sky130_fd_sc_hd__mux2_1
*I *6195:A1 I *D sky130_fd_sc_hd__mux2_1
*I *6142:A1 I *D sky130_fd_sc_hd__mux2_1
*I *6243:A1 I *D sky130_fd_sc_hd__mux2_1
*I *5914:A1 I *D sky130_fd_sc_hd__mux2_1
*I *6177:A1 I *D sky130_fd_sc_hd__mux2_1
*I *6213:A1 I *D sky130_fd_sc_hd__mux2_1
*I *6124:A1 I *D sky130_fd_sc_hd__mux2_1
*I *6665:X O *D sky130_fd_sc_hd__buf_4
*CAP
1 *6296:A1 2.25053e-05
2 *6049:A1 6.20569e-05
3 *6012:A1 0.000120838
4 *6067:A1 0.000164713
5 *6314:A1 0
6 *6160:A1 9.99101e-05
7 *6105:A1 0.000277794
8 *6085:A1 1.36018e-05
9 *6031:A1 1.25153e-05
10 *6195:A1 0
11 *6142:A1 4.21767e-05
12 *6243:A1 0.000348289
13 *5914:A1 0
14 *6177:A1 0
15 *6213:A1 0.000614113
16 *6124:A1 0.00022481
17 *6665:X 0
18 *768:119 0.000536321
19 *768:95 0.000879927
20 *768:93 0.000938994
21 *768:85 0.00085169
22 *768:69 0.000666689
23 *768:61 0.000957917
24 *768:44 0.00166441
25 *768:42 0.00246867
26 *768:38 0.00206709
27 *768:36 0.00079526
28 *768:32 0.000488184
29 *768:26 0.000494393
30 *768:20 0.00051225
31 *768:18 0.000479893
32 *768:16 0.000479534
33 *768:14 0.00194089
34 *768:6 0.00655131
35 *768:4 0.00483664
36 *6012:A1 *6012:A0 0.000360894
37 *6105:A1 *6105:A0 0.000401758
38 *6124:A1 *6124:A0 5.52238e-05
39 *768:18 *6012:A0 0.000256127
40 *768:20 *6012:A0 9.25014e-06
41 *768:42 *5916:A0 2.56694e-05
42 *768:42 *6126:A1 0.000103298
43 *5914:A0 *6243:A1 0.000185643
44 *5914:A0 *768:119 5.71472e-05
45 *5915:A *768:93 1.19402e-05
46 *5915:A *768:119 0.000139913
47 *5967:A0 *6124:A1 5.71472e-05
48 *5969:A1 *768:18 0
49 *5969:S0 *768:32 0.00015739
50 *5970:A0 *6105:A1 2.97021e-05
51 *5970:A2 *768:26 4.16984e-05
52 *5970:A2 *768:32 0.000291102
53 *5970:A3 *768:32 0.000170654
54 *5970:A3 *768:38 0
55 *5977:A0 *768:42 0
56 *5977:A1 *768:42 8.00806e-05
57 *5980:S *6105:A1 6.05161e-06
58 *5985:A2 *768:44 2.47697e-05
59 *5985:A3 *768:44 7.14252e-05
60 *5988:S0 *768:44 8.78131e-05
61 *6031:A0 *6031:A1 3.18676e-05
62 *6031:A0 *768:61 0.000788265
63 *6032:A *768:69 8.90314e-05
64 *6033:A0 *768:42 2.56694e-05
65 *6049:A0 *6049:A1 5.71472e-05
66 *6067:A0 *6067:A1 2.89114e-05
67 *6085:A0 *6085:A1 5.52238e-05
68 *6125:A *6124:A1 0.000338403
69 *6126:A0 *768:42 0
70 *6126:S *768:42 0
71 *6127:A *768:42 0.000169562
72 *6160:A0 *6160:A1 2.89114e-05
73 *6160:S *6160:A1 5.52302e-05
74 *6161:A *768:38 0
75 *6177:A0 *6213:A1 5.71472e-05
76 *6177:A0 *768:95 0.000481941
77 *6178:A *6213:A1 1.3701e-05
78 *6195:A0 *768:85 5.52238e-05
79 *6195:S *768:69 0.000386092
80 *6196:A *6142:A1 8.00806e-05
81 *6213:A0 *6213:A1 7.77652e-05
82 *6241:S *768:42 0.000312736
83 *6243:A0 *6243:A1 5.52238e-05
84 *6243:S *6243:A1 0.000221163
85 *6244:A *6243:A1 0.000170385
86 *6244:A *768:119 0.00031119
87 *6246:A *768:42 5.91439e-05
88 *6249:A0 *768:93 0.000150625
89 *6296:A0 *6296:A1 1.58163e-05
90 *6296:A0 *768:14 2.48421e-05
91 *6314:A0 *768:26 2.89016e-05
92 *6315:A *768:26 6.74911e-05
93 *6358:CLK *768:16 0.0001212
94 *6358:CLK *768:18 0.000531936
95 *6358:CLK *768:20 4.73656e-05
96 *6391:D *768:42 4.57352e-05
97 *6392:CLK *6124:A1 0
98 *6392:CLK *768:44 0
99 *6396:CLK *768:44 6.97972e-05
100 *6396:D *768:42 3.8341e-05
101 *6396:D *768:44 0.000176851
102 *6398:CLK *768:93 0
103 *6414:D *6213:A1 8.6197e-05
104 *6416:CLK *6243:A1 2.49484e-05
105 *6416:D *6243:A1 0
106 *6422:D *768:85 0.000226513
107 *6444:D *768:42 0.000148903
108 *6492:CLK *768:20 0.000197984
109 *6492:CLK *768:26 0.000151333
110 *6496:A *768:42 0
111 *6552:A *768:14 0.000211061
112 *6552:A *768:16 0.00014261
113 *6596:A *6213:A1 0
114 *6604:A *768:44 4.00094e-05
115 *6615:A *768:42 0
116 *6627:A *768:14 1.06172e-05
117 *6627:A *768:16 2.71192e-05
118 *6648:A *768:93 0.000125724
119 *225:58 *768:93 0
120 *225:58 *768:119 6.58013e-05
121 *225:160 *768:69 0.000399825
122 *225:160 *768:85 0.000103267
123 *225:160 *768:93 0
124 *230:66 *768:42 0
125 *230:81 *6105:A1 0
126 *230:91 *6160:A1 1.54142e-05
127 *232:81 *6105:A1 0.000170654
128 *232:81 *768:32 0
129 *232:81 *768:36 1.58163e-05
130 *232:81 *768:38 8.15095e-05
131 *232:85 *768:32 8.68569e-05
132 *233:66 *6160:A1 0.00018372
133 *233:66 *768:32 0
134 *233:66 *768:36 0.000269422
135 *233:66 *768:38 0
136 *233:66 *768:42 0
137 *233:81 *768:32 0
138 *237:80 *768:69 0.000146523
139 *237:97 *6031:A1 5.62995e-05
140 *237:97 *768:69 0.000171023
141 *265:12 *6124:A1 0
142 *265:12 *6243:A1 2.44318e-05
143 *295:20 *768:85 2.14757e-05
144 *298:37 *6012:A1 3.05446e-05
145 *298:52 *6012:A1 8.85761e-05
146 *309:52 *768:44 0
147 *319:59 *6049:A1 0.00018372
148 *329:50 *6067:A1 0.000440705
149 *329:50 *768:18 0
150 *329:50 *768:20 0
151 *329:50 *768:26 0
152 *339:37 *6085:A1 5.52238e-05
153 *339:50 *6085:A1 1.24368e-05
154 *351:79 *6105:A1 0.000176998
155 *362:45 *768:44 0
156 *362:51 *6124:A1 0.00051202
157 *362:51 *768:44 0.000835166
158 *362:61 *6124:A1 9.25014e-06
159 *362:95 *768:42 0
160 *391:47 *6213:A1 2.14757e-05
161 *391:59 *6243:A1 2.47753e-05
162 *391:59 *768:95 5.23057e-05
163 *391:59 *768:119 1.02821e-05
164 *460:43 *6296:A1 5.33005e-05
165 *460:43 *768:16 0
166 *460:43 *768:18 0
167 *484:44 *6012:A1 3.99614e-06
168 *488:14 *6142:A1 5.90443e-06
169 *488:14 *768:85 2.04825e-05
170 *488:14 *768:93 8.40351e-06
171 *488:20 *768:93 0.000132693
172 *488:39 *6213:A1 3.18676e-05
173 *488:52 *6213:A1 9.5558e-05
174 *580:12 *6243:A1 3.92757e-05
175 *581:12 *768:42 0.000109266
176 *625:72 *768:44 0.00034321
177 *658:30 *6142:A1 3.88323e-05
178 *658:30 *768:93 4.34666e-05
179 *746:99 *768:42 5.90029e-05
180 *746:99 *768:44 0
*RES
1 *6665:X *768:4 9.3 
2 *768:4 *768:6 80.625 
3 *768:6 *768:14 37.1607 
4 *768:14 *768:16 4.375 
5 *768:16 *768:18 6.80357 
6 *768:18 *768:20 3.16071 
7 *768:20 *768:26 8.21429 
8 *768:26 *768:32 17.0179 
9 *768:32 *768:36 7.08929 
10 *768:36 *768:38 7.10714 
11 *768:38 *768:42 32.8839 
12 *768:42 *768:44 20.5268 
13 *768:44 *6124:A1 21.1393 
14 *768:44 *768:61 13.4643 
15 *768:61 *768:69 20.3571 
16 *768:69 *768:85 19.1875 
17 *768:85 *768:93 14.8482 
18 *768:93 *768:95 5.875 
19 *768:95 *6213:A1 27.7821 
20 *768:95 *6177:A1 9.3 
21 *768:93 *768:119 4.64286 
22 *768:119 *5914:A1 9.3 
23 *768:119 *6243:A1 26.1393 
24 *768:85 *6142:A1 15.2911 
25 *768:69 *6195:A1 9.3 
26 *768:61 *6031:A1 10.2464 
27 *768:38 *6085:A1 14.3357 
28 *768:36 *6105:A1 21.2643 
29 *768:32 *6160:A1 11.8893 
30 *768:26 *6314:A1 9.3 
31 *768:20 *6067:A1 18.0321 
32 *768:18 *6012:A1 18.05 
33 *768:16 *6049:A1 15.5679 
34 *768:14 *6296:A1 14.3357 
*END

*D_NET *769 0.000994513
*CONN
*I *6124:A0 I *D sky130_fd_sc_hd__mux2_1
*I *6601:X O *D sky130_fd_sc_hd__dlygate4sd3_1
*CAP
1 *6124:A0 9.68997e-05
2 *6601:X 9.68997e-05
3 *5967:A0 *6124:A0 9.31893e-05
4 *6124:A1 *6124:A0 5.52238e-05
5 *295:28 *6124:A0 0.000530254
6 *362:61 *6124:A0 0.000122047
*RES
1 *6601:X *6124:A0 23.6536 
*END

*D_NET *770 0.00157707
*CONN
*I *6294:A0 I *D sky130_fd_sc_hd__mux2_1
*I *6602:X O *D sky130_fd_sc_hd__dlygate4sd3_1
*CAP
1 *6294:A0 0.000417588
2 *6602:X 0.000417588
3 *5960:A3 *6294:A0 7.83659e-05
4 *6047:S *6294:A0 8.86512e-05
5 *6048:A *6294:A0 5.52302e-05
6 *6602:A *6294:A0 0.000202128
7 *232:141 *6294:A0 0.000180777
8 *319:105 *6294:A0 0.000136744
*RES
1 *6602:X *6294:A0 35.0107 
*END

*D_NET *771 0.000966478
*CONN
*I *6138:A0 I *D sky130_fd_sc_hd__mux2_1
*I *6603:X O *D sky130_fd_sc_hd__dlygate4sd3_1
*CAP
1 *6138:A0 0.000179733
2 *6603:X 0.000179733
3 *6138:A1 *6138:A0 5.49544e-05
4 *6138:S *6138:A0 2.12005e-05
5 *746:85 *6138:A0 0.000530858
*RES
1 *6603:X *6138:A0 23.6536 
*END

*D_NET *772 0.00118996
*CONN
*I *6199:A0 I *D sky130_fd_sc_hd__mux2_1
*I *6604:X O *D sky130_fd_sc_hd__dlygate4sd3_1
*CAP
1 *6199:A0 0.000194232
2 *6604:X 0.000194232
3 *6199:A1 *6199:A0 0.00015708
4 *6199:S *6199:A0 9.90367e-05
5 *6396:CLK *6199:A0 0.0001399
6 *6604:A *6199:A0 0.000139907
7 *362:37 *6199:A0 0.000265575
*RES
1 *6604:X *6199:A0 25.4393 
*END

*D_NET *773 0.0016981
*CONN
*I *6008:A0 I *D sky130_fd_sc_hd__mux2_1
*I *6605:X O *D sky130_fd_sc_hd__dlygate4sd3_1
*CAP
1 *6008:A0 0.000379559
2 *6605:X 0.000379559
3 *6008:A1 *6008:A0 5.52238e-05
4 *6008:S *6008:A0 0.000232399
5 *6310:A1 *6008:A0 0.000318107
6 *6364:CLK *6008:A0 6.11467e-05
7 *6490:CLK *6008:A0 0.000108538
8 *6605:A *6008:A0 0
9 *233:139 *6008:A0 8.27184e-06
10 *298:52 *6008:A0 9.91086e-05
11 *298:67 *6008:A0 2.14658e-05
12 *329:62 *6008:A0 3.47255e-05
13 *746:14 *6008:A0 0
*RES
1 *6605:X *6008:A0 36.7429 
*END

*D_NET *774 0.000805845
*CONN
*I *6018:A0 I *D sky130_fd_sc_hd__mux2_1
*I *6606:X O *D sky130_fd_sc_hd__dlygate4sd3_1
*CAP
1 *6018:A0 0.000271531
2 *6606:X 0.000271531
3 *5996:A3 *6018:A0 5.04589e-05
4 *298:33 *6018:A0 0.000212324
*RES
1 *6606:X *6018:A0 23.6536 
*END

*D_NET *775 0.000975862
*CONN
*I *6089:A0 I *D sky130_fd_sc_hd__mux2_1
*I *6607:X O *D sky130_fd_sc_hd__dlygate4sd3_1
*CAP
1 *6089:A0 0.000226608
2 *6607:X 0.000226608
3 *5988:A3 *6089:A0 4.18895e-05
4 *6089:S *6089:A0 8.00315e-05
5 *6481:CLK *6089:A0 5.52302e-05
6 *237:150 *6089:A0 0.000142856
7 *518:12 *6089:A0 0.000202639
*RES
1 *6607:X *6089:A0 23.6536 
*END

*D_NET *776 0.00090944
*CONN
*I *6312:A0 I *D sky130_fd_sc_hd__mux2_1
*I *6608:X O *D sky130_fd_sc_hd__dlygate4sd3_1
*CAP
1 *6312:A0 0.000188118
2 *6608:X 0.000188118
3 *757:20 *6312:A0 0.000261858
4 *757:22 *6312:A0 0.000214198
5 *757:24 *6312:A0 5.71472e-05
*RES
1 *6608:X *6312:A0 23.6536 
*END

*D_NET *777 0.0015792
*CONN
*I *6105:A0 I *D sky130_fd_sc_hd__mux2_1
*I *6609:X O *D sky130_fd_sc_hd__dlygate4sd3_1
*CAP
1 *6105:A0 0.000472451
2 *6609:X 0.000472451
3 *5969:S0 *6105:A0 0
4 *5970:A1 *6105:A0 3.69697e-05
5 *5980:S *6105:A0 1.55885e-05
6 *6105:A1 *6105:A0 0.000401758
7 *6492:CLK *6105:A0 0
8 *6492:D *6105:A0 0.000175519
9 *351:79 *6105:A0 4.46186e-06
*RES
1 *6609:X *6105:A0 35.2964 
*END

*D_NET *778 0.00203909
*CONN
*I *6211:A0 I *D sky130_fd_sc_hd__mux2_1
*I *6611:X O *D sky130_fd_sc_hd__dlygate4sd3_1
*CAP
1 *6211:A0 0.000428631
2 *6611:X 0.000428631
3 *6175:A0 *6211:A0 5.52238e-05
4 *6176:A *6211:A0 1.74352e-05
5 *6211:A1 *6211:A0 0.000446597
6 *6241:S *6211:A0 5.76121e-05
7 *6325:D *6211:A0 0
8 *6611:A *6211:A0 0.000195551
9 *391:151 *6211:A0 0.000128154
10 *401:87 *6211:A0 0.000120631
11 *495:88 *6211:A0 0.000148189
12 *757:110 *6211:A0 1.24368e-05
*RES
1 *6611:X *6211:A0 38.5821 
*END

*D_NET *779 0.0410423
*CONN
*I *6069:A1 I *D sky130_fd_sc_hd__mux2_1
*I *6298:A1 I *D sky130_fd_sc_hd__mux2_1
*I *6051:A1 I *D sky130_fd_sc_hd__mux2_1
*I *6316:A1 I *D sky130_fd_sc_hd__mux2_1
*I *6087:A1 I *D sky130_fd_sc_hd__mux2_1
*I *6126:A1 I *D sky130_fd_sc_hd__mux2_1
*I *6033:A1 I *D sky130_fd_sc_hd__mux2_1
*I *6197:A1 I *D sky130_fd_sc_hd__mux2_1
*I *6144:A1 I *D sky130_fd_sc_hd__mux2_1
*I *6245:A1 I *D sky130_fd_sc_hd__mux2_1
*I *5916:A1 I *D sky130_fd_sc_hd__mux2_1
*I *6179:A1 I *D sky130_fd_sc_hd__mux2_1
*I *6215:A1 I *D sky130_fd_sc_hd__mux2_1
*I *6162:A1 I *D sky130_fd_sc_hd__mux2_1
*I *6107:A1 I *D sky130_fd_sc_hd__mux2_1
*I *6014:A1 I *D sky130_fd_sc_hd__mux2_1
*I *6666:X O *D sky130_fd_sc_hd__buf_4
*CAP
1 *6069:A1 0
2 *6298:A1 0.000180475
3 *6051:A1 0
4 *6316:A1 0
5 *6087:A1 0.000109816
6 *6126:A1 0.000399216
7 *6033:A1 0
8 *6197:A1 0
9 *6144:A1 0
10 *6245:A1 9.74552e-05
11 *5916:A1 0
12 *6179:A1 3.95848e-05
13 *6215:A1 0.000537194
14 *6162:A1 0
15 *6107:A1 0.000441689
16 *6014:A1 0.00025796
17 *6666:X 0
18 *779:181 0.000330025
19 *779:141 0.00069086
20 *779:134 0.000357275
21 *779:109 0.00027513
22 *779:100 0.000217259
23 *779:81 0.000719032
24 *779:79 0.000540707
25 *779:73 0.000658766
26 *779:62 0.000448465
27 *779:54 0.000519807
28 *779:43 0.00108447
29 *779:33 0.000885724
30 *779:31 0.000588288
31 *779:22 0.00027452
32 *779:20 0.00115154
33 *779:12 0.00496261
34 *779:10 0.00382763
35 *779:8 0.00296845
36 *779:6 0.00296845
37 *6245:A1 *5916:A0 0.000393949
38 *6298:A1 *6051:A0 3.11088e-05
39 *779:20 *6069:A0 0.000478999
40 *779:22 *6069:A0 5.71472e-05
41 *779:109 *5916:A0 5.52238e-05
42 *5917:A *6215:A1 0
43 *5975:A0 *6215:A1 3.93986e-05
44 *5976:A3 *779:73 0
45 *5976:A3 *779:79 3.79085e-05
46 *5977:A1 *6126:A1 0.000183726
47 *5978:A1 *779:33 0
48 *5978:A3 *6298:A1 9.87041e-05
49 *5979:A2 *6107:A1 0.000134607
50 *5979:A2 *779:43 1.98839e-05
51 *5979:A2 *779:54 0.000168526
52 *5979:S1 *779:43 0
53 *5979:S1 *779:54 6.90781e-05
54 *5980:A0 *779:33 0
55 *5980:A0 *779:43 5.52238e-05
56 *5981:A0 *779:79 8.15939e-05
57 *5981:A1 *779:43 1.65169e-05
58 *5981:A1 *779:73 1.46624e-05
59 *6014:A0 *6014:A1 0.000492333
60 *6033:A0 *6126:A1 0.00018372
61 *6033:A0 *779:141 5.71472e-05
62 *6034:A *779:141 5.71472e-05
63 *6047:A0 *779:12 0.00026875
64 *6047:A1 *779:12 0.000711397
65 *6051:S *6298:A1 2.12801e-05
66 *6051:S *779:181 0.000125351
67 *6052:A *6298:A1 5.23822e-05
68 *6063:A0 *779:12 0.000313076
69 *6063:A1 *779:12 0.000318152
70 *6070:A *779:33 4.38511e-05
71 *6087:A0 *6087:A1 5.33005e-05
72 *6087:S *6087:A1 2.95726e-05
73 *6087:S *779:62 0.000322453
74 *6107:A0 *6107:A1 0.000486447
75 *6126:A0 *6126:A1 5.71472e-05
76 *6127:A *6126:A1 0.000319309
77 *6162:A0 *779:62 5.33005e-05
78 *6162:A0 *779:73 0.000140933
79 *6163:A *779:62 1.97695e-05
80 *6179:A0 *6179:A1 0.000181796
81 *6179:A0 *779:81 2.56694e-05
82 *6179:A0 *779:109 0.000142856
83 *6197:A0 *779:134 5.71472e-05
84 *6197:A0 *779:141 0.00018372
85 *6198:A *779:134 1.3701e-05
86 *6245:A0 *6245:A1 5.71472e-05
87 *6292:A0 *779:12 0.00057215
88 *6293:A *779:20 0.00012778
89 *6298:A0 *6298:A1 0.000102659
90 *6317:A *6107:A1 0.000181796
91 *6317:A *779:54 1.52978e-05
92 *6327:CLK *6215:A1 0.000479652
93 *6366:D *779:20 1.07719e-05
94 *6518:A *779:79 0
95 *6572:A *779:73 0
96 *6575:A *779:43 0
97 *6622:A *779:181 0.000244176
98 *225:164 *6215:A1 0.000190858
99 *230:66 *6126:A1 0
100 *230:81 *6126:A1 0
101 *233:41 *779:79 0
102 *233:41 *779:81 0
103 *233:45 *6126:A1 1.78447e-05
104 *233:66 *6126:A1 0.00023778
105 *233:106 *779:33 0.000251737
106 *233:106 *779:43 0
107 *237:86 *6215:A1 0.00042821
108 *237:86 *779:79 0.00030978
109 *237:86 *779:81 0.000405497
110 *309:14 *6215:A1 0.000197984
111 *319:51 *6014:A1 0.000181796
112 *319:51 *779:33 3.17148e-05
113 *319:51 *779:181 0.000161411
114 *329:29 *6014:A1 3.63805e-05
115 *329:29 *779:22 1.02936e-05
116 *329:50 *779:20 0.000189855
117 *339:37 *779:62 0.0001399
118 *339:37 *779:73 0.000128496
119 *372:16 *779:79 0.000128154
120 *372:16 *779:81 8.25098e-05
121 *382:16 *779:73 0.000163774
122 *382:16 *779:79 0.000224701
123 *391:122 *6215:A1 2.42516e-05
124 *391:151 *6215:A1 0
125 *401:79 *779:79 4.57445e-05
126 *401:83 *6126:A1 3.97794e-05
127 *401:83 *779:141 0.000149105
128 *428:16 *6179:A1 0.000181796
129 *428:16 *6245:A1 0.00020464
130 *428:16 *779:109 0.000519869
131 *460:43 *6014:A1 0.000394975
132 *460:43 *779:20 0.00101514
133 *460:43 *779:22 9.90431e-05
134 *460:76 *779:12 0.000198828
135 *460:76 *779:20 0
136 *470:100 *779:43 0.000258405
137 *470:100 *779:54 8.99685e-05
138 *470:100 *779:62 0.000206999
139 *493:71 *779:33 0
140 *493:73 *779:33 0
141 *658:30 *6215:A1 0
142 *768:42 *6126:A1 0.000103298
*RES
1 *6666:X *779:6 13.8 
2 *779:6 *779:8 54.7679 
3 *779:8 *779:10 4.5 
4 *779:10 *779:12 51.0536 
5 *779:12 *779:20 25.0179 
6 *779:20 *779:22 0.946429 
7 *779:22 *6014:A1 16.8179 
8 *779:22 *779:31 4.5 
9 *779:31 *779:33 9.53571 
10 *779:33 *779:43 12.2143 
11 *779:43 *6107:A1 18.05 
12 *779:43 *779:54 9.17857 
13 *779:54 *779:62 11.2679 
14 *779:62 *6162:A1 9.3 
15 *779:62 *779:73 10.5357 
16 *779:73 *779:79 10.5 
17 *779:79 *779:81 5.28571 
18 *779:81 *6215:A1 36.4071 
19 *779:81 *779:100 4.5 
20 *779:100 *6179:A1 11.0679 
21 *779:100 *779:109 5.05357 
22 *779:109 *5916:A1 9.3 
23 *779:109 *6245:A1 13.1214 
24 *779:79 *6144:A1 13.8 
25 *779:73 *779:134 5.875 
26 *779:134 *6197:A1 9.3 
27 *779:134 *779:141 6.28571 
28 *779:141 *6033:A1 9.3 
29 *779:141 *6126:A1 30.3714 
30 *779:54 *6087:A1 15.1571 
31 *779:33 *6316:A1 13.8 
32 *779:31 *779:181 8.875 
33 *779:181 *6051:A1 9.3 
34 *779:181 *6298:A1 13.9607 
35 *779:20 *6069:A1 9.3 
*END

*D_NET *780 0.00146831
*CONN
*I *6012:A0 I *D sky130_fd_sc_hd__mux2_1
*I *6612:X O *D sky130_fd_sc_hd__dlygate4sd3_1
*CAP
1 *6012:A0 0.000371778
2 *6612:X 0.000371778
3 *6012:A1 *6012:A0 0.000360894
4 *298:37 *6012:A0 5.19842e-06
5 *329:50 *6012:A0 9.32873e-05
6 *768:18 *6012:A0 0.000256127
7 *768:20 *6012:A0 9.25014e-06
*RES
1 *6612:X *6012:A0 34.8857 
*END

*D_NET *781 0.000946598
*CONN
*I *6310:A0 I *D sky130_fd_sc_hd__mux2_1
*I *6613:X O *D sky130_fd_sc_hd__dlygate4sd3_1
*CAP
1 *6310:A0 0.00025258
2 *6613:X 0.00025258
3 *6310:A1 *6310:A0 5.52238e-05
4 *6341:CLK *6310:A0 5.52302e-05
5 *6613:A *6310:A0 0.000177821
6 *298:67 *6310:A0 1.55885e-05
7 *470:151 *6310:A0 0.000137573
*RES
1 *6613:X *6310:A0 23.6536 
*END

*D_NET *782 0.00152061
*CONN
*I *5918:A0 I *D sky130_fd_sc_hd__mux2_1
*I *6614:X O *D sky130_fd_sc_hd__dlygate4sd3_1
*CAP
1 *5918:A0 0.00052867
2 *6614:X 0.00052867
3 *6207:A0 *5918:A0 2.56694e-05
4 *6427:CLK *5918:A0 0
5 *216:60 *5918:A0 0
6 *216:79 *5918:A0 0.000405733
7 *411:125 *5918:A0 0
8 *590:12 *5918:A0 0
9 *625:21 *5918:A0 3.18676e-05
*RES
1 *6614:X *5918:A0 35.7071 
*END

*D_NET *783 0.00166423
*CONN
*I *5916:A0 I *D sky130_fd_sc_hd__mux2_1
*I *6615:X O *D sky130_fd_sc_hd__dlygate4sd3_1
*CAP
1 *5916:A0 0.000496701
2 *6615:X 0.000496701
3 *6245:A0 *5916:A0 0.000117621
4 *6245:A1 *5916:A0 0.000393949
5 *362:95 *5916:A0 7.83659e-05
6 *768:42 *5916:A0 2.56694e-05
7 *779:109 *5916:A0 5.52238e-05
*RES
1 *6615:X *5916:A0 34.9214 
*END

*D_NET *784 0.0010129
*CONN
*I *6069:A0 I *D sky130_fd_sc_hd__mux2_1
*I *6616:X O *D sky130_fd_sc_hd__dlygate4sd3_1
*CAP
1 *6069:A0 8.88951e-05
2 *6616:X 8.88951e-05
3 *329:29 *6069:A0 5.62995e-05
4 *329:50 *6069:A0 0.000242668
5 *779:20 *6069:A0 0.000478999
6 *779:22 *6069:A0 5.71472e-05
*RES
1 *6616:X *6069:A0 23.6536 
*END

*D_NET *785 0.000536042
*CONN
*I *6109:A0 I *D sky130_fd_sc_hd__mux2_1
*I *6617:X O *D sky130_fd_sc_hd__dlygate4sd3_1
*CAP
1 *6109:A0 4.6845e-05
2 *6617:X 4.6845e-05
3 *5988:A1 *6109:A0 2.89114e-05
4 *6617:A *6109:A0 5.52238e-05
5 *237:150 *6109:A0 8.20056e-05
6 *625:116 *6109:A0 0.000232399
7 *625:166 *6109:A0 4.38128e-05
*RES
1 *6617:X *6109:A0 21.1893 
*END

*D_NET *786 0.00172199
*CONN
*I *6004:A0 I *D sky130_fd_sc_hd__mux2_1
*I *6618:X O *D sky130_fd_sc_hd__dlygate4sd3_1
*CAP
1 *6004:A0 0.000576832
2 *6618:X 0.000576832
3 *5931:A2 *6004:A0 0.000143625
4 *6004:A1 *6004:A0 0.000140933
5 *6004:S *6004:A0 2.89114e-05
6 *6289:A *6004:A0 0.000101545
7 *6480:D *6004:A0 1.46717e-05
8 *460:80 *6004:A0 0
9 *536:8 *6004:A0 1.33343e-05
10 *544:10 *6004:A0 0
11 *724:124 *6004:A0 0.000125304
*RES
1 *6618:X *6004:A0 37.3679 
*END

*D_NET *787 0.00207196
*CONN
*I *6037:A0 I *D sky130_fd_sc_hd__mux2_1
*I *6619:X O *D sky130_fd_sc_hd__dlygate4sd3_1
*CAP
1 *6037:A0 0.000607616
2 *6619:X 0.000607616
3 *237:86 *6037:A0 2.56694e-05
4 *287:22 *6037:A0 0.000831058
*RES
1 *6619:X *6037:A0 36.5643 
*END

*D_NET *788 0.000636034
*CONN
*I *6166:A0 I *D sky130_fd_sc_hd__mux2_1
*I *6620:X O *D sky130_fd_sc_hd__dlygate4sd3_1
*CAP
1 *6166:A0 0.000125301
2 *6620:X 0.000125301
3 *5997:A3 *6166:A0 8.00806e-05
4 *6166:S *6166:A0 8.53638e-05
5 *6167:A *6166:A0 0.000139907
6 *6495:CLK *6166:A0 8.00806e-05
*RES
1 *6620:X *6166:A0 31.0286 
*END

*D_NET *789 0.000829389
*CONN
*I *6051:A0 I *D sky130_fd_sc_hd__mux2_1
*I *6622:X O *D sky130_fd_sc_hd__dlygate4sd3_1
*CAP
1 *6051:A0 0.000395657
2 *6622:X 0.000395657
3 *6051:S *6051:A0 6.96499e-06
4 *6298:A1 *6051:A0 3.11088e-05
*RES
1 *6622:X *6051:A0 32.4571 
*END

*D_NET *790 0.00440497
*CONN
*I *5997:S0 I *D sky130_fd_sc_hd__mux4_1
*I *5929:A I *D sky130_fd_sc_hd__buf_8
*I *5922:A I *D sky130_fd_sc_hd__buf_8
*I *6467:Q O *D sky130_fd_sc_hd__dfrtp_4
*CAP
1 *5997:S0 0.000300966
2 *5929:A 0
3 *5922:A 0
4 *6467:Q 0.00048543
5 *790:33 0.000713794
6 *790:14 0.000898257
7 *790:14 *791:14 2.89114e-05
8 *790:14 *791:35 0.000291924
9 *790:33 *791:35 0.00022182
10 *5948:S0 *790:33 0.000137983
11 *5948:S1 *790:33 0
12 *5994:A3 *790:33 0.000438775
13 *5994:S0 *5997:S0 8.36572e-05
14 *5994:S0 *790:33 0.000131628
15 *5998:A0 *5997:S0 6.95205e-05
16 *6130:S *5997:S0 5.58087e-05
17 *6201:A0 *790:33 0.000100831
18 *6401:D *790:14 1.69115e-05
19 *216:29 *790:14 3.79258e-05
20 *226:14 *790:14 3.30237e-05
21 *226:83 *790:14 1.74352e-05
22 *232:21 *5997:S0 6.4443e-05
23 *287:22 *790:14 4.29471e-05
24 *287:24 *790:33 5.33005e-05
25 *428:75 *790:33 6.20091e-06
26 *636:84 *5997:S0 0.00017348
*RES
1 *6467:Q *790:14 25.8357 
2 *790:14 *5922:A 9.3 
3 *790:14 *790:33 19.75 
4 *790:33 *5929:A 9.3 
5 *790:33 *5997:S0 25.2643 
*END

*D_NET *791 0.00574669
*CONN
*I *5997:S1 I *D sky130_fd_sc_hd__mux4_1
*I *5930:A I *D sky130_fd_sc_hd__buf_6
*I *5923:A I *D sky130_fd_sc_hd__buf_6
*I *6468:Q O *D sky130_fd_sc_hd__dfrtp_1
*CAP
1 *5997:S1 0.000550002
2 *5930:A 0
3 *5923:A 0
4 *6468:Q 0.000436129
5 *791:35 0.00116501
6 *791:14 0.00105114
7 *5994:A1 *5997:S1 0.000220026
8 *5994:A1 *791:35 0.000354105
9 *5994:A3 *5997:S1 2.79421e-05
10 *5994:A3 *791:35 2.89967e-05
11 *6202:A *791:14 5.30637e-06
12 *6401:D *791:35 6.42338e-05
13 *6425:D *791:14 2.65105e-05
14 *6505:A *5997:S1 0
15 *216:29 *791:35 1.69115e-05
16 *226:14 *791:14 5.52302e-05
17 *226:14 *791:35 0.000131439
18 *226:83 *791:35 0.000270326
19 *233:6 *5997:S1 5.52238e-05
20 *233:31 *5997:S1 0.000125547
21 *287:24 *791:35 9.41642e-05
22 *480:8 *791:14 0
23 *636:84 *5997:S1 0.0003012
24 *658:30 *5997:S1 0
25 *680:10 *791:14 0
26 *680:24 *791:14 0.000224583
27 *790:14 *791:14 2.89114e-05
28 *790:14 *791:35 0.000291924
29 *790:33 *791:35 0.00022182
*RES
1 *6468:Q *791:14 24.6036 
2 *791:14 *5923:A 9.3 
3 *791:14 *791:35 23.375 
4 *791:35 *5930:A 9.3 
5 *791:35 *5997:S1 30.8893 
*END

*D_NET *792 0.00394484
*CONN
*I *5926:A I *D sky130_fd_sc_hd__inv_2
*I *6257:A I *D sky130_fd_sc_hd__xnor2_1
*I *6271:A3 I *D sky130_fd_sc_hd__a31o_1
*I *6264:A I *D sky130_fd_sc_hd__xnor2_1
*I *6469:Q O *D sky130_fd_sc_hd__dfrtp_2
*CAP
1 *5926:A 0.00015343
2 *6257:A 0
3 *6271:A3 0
4 *6264:A 0.000124692
5 *6469:Q 0
6 *792:18 0.000430323
7 *792:8 0.00113014
8 *792:4 0.000977942
9 *792:18 *797:19 0.000128154
10 *5927:A *5926:A 0
11 *6264:B *6264:A 0.00024525
12 *6272:B *6264:A 2.36643e-05
13 *6469:RESET_B *792:8 0.000436807
14 *6469:RESET_B *792:18 0.00023814
15 *709:185 *5926:A 5.62995e-05
*RES
1 *6469:Q *792:4 9.3 
2 *792:4 *792:8 10.7143 
3 *792:8 *792:18 15.6071 
4 *792:18 *6264:A 12.3 
5 *792:18 *6271:A3 9.3 
6 *792:8 *6257:A 9.3 
7 *792:4 *5926:A 21.0143 
*END

*D_NET *793 0.00146396
*CONN
*I *5934:A I *D sky130_fd_sc_hd__clkbuf_8
*I *6470:Q O *D sky130_fd_sc_hd__dfrtp_1
*CAP
1 *5934:A 0.000314836
2 *6470:Q 0.000314836
3 *6467:D *5934:A 5.62995e-05
4 *6470:RESET_B *5934:A 0
5 *237:12 *5934:A 0.000401758
6 *237:66 *5934:A 0.000230475
7 *411:30 *5934:A 0.000145753
*RES
1 *6470:Q *5934:A 35.4214 
*END

*D_NET *794 0.0042736
*CONN
*I *6461:D I *D sky130_fd_sc_hd__dfrtp_1
*I *5895:A I *D sky130_fd_sc_hd__xor2_1
*I *6272:A I *D sky130_fd_sc_hd__xor2_1
*I *6277:A I *D sky130_fd_sc_hd__xnor2_1
*I *6475:Q O *D sky130_fd_sc_hd__dfrtp_2
*CAP
1 *6461:D 3.64125e-05
2 *5895:A 0.000105232
3 *6272:A 0
4 *6277:A 0
5 *6475:Q 0.000228718
6 *794:34 0.000826439
7 *794:25 0.000860952
8 *794:16 0.000404876
9 *6461:CLK *5895:A 0
10 *6472:RESET_B *5895:A 7.89825e-05
11 *6472:RESET_B *794:34 0.000201595
12 *6475:D *794:16 5.26625e-05
13 *6475:RESET_B *794:16 0.000122209
14 *445:14 *5895:A 0
15 *445:14 *794:34 0
16 *702:22 *794:16 0.000169409
17 *702:22 *794:25 0.000388599
18 *702:22 *794:34 0.000797514
*RES
1 *6475:Q *794:16 19.3179 
2 *794:16 *6277:A 13.8 
3 *794:16 *794:25 4.98214 
4 *794:25 *6272:A 13.8 
5 *794:25 *794:34 16.9732 
6 *794:34 *5895:A 16.5054 
7 *794:34 *6461:D 14.6125 
*END

*D_NET *795 0.00253388
*CONN
*I *6457:D I *D sky130_fd_sc_hd__dfrtp_1
*I *5896:B I *D sky130_fd_sc_hd__xor2_1
*I *6261:A1 I *D sky130_fd_sc_hd__mux2_1
*I *6471:Q O *D sky130_fd_sc_hd__dfrtp_1
*CAP
1 *6457:D 0.000420614
2 *5896:B 0.000206584
3 *6261:A1 0.000246921
4 *6471:Q 8.63002e-05
5 *795:21 0.000731927
6 *795:8 0.00043795
7 *5896:B *5896:A 5.68713e-05
8 *6261:S *6261:A1 8.25512e-05
9 *6457:CLK *6457:D 7.8195e-05
10 *208:14 *5896:B 0.000185964
*RES
1 *6471:Q *795:8 14.7464 
2 *795:8 *6261:A1 18.1036 
3 *795:8 *795:21 1.64286 
4 *795:21 *5896:B 18.175 
5 *795:21 *6457:D 20.6571 
*END

*D_NET *796 0.00140664
*CONN
*I *6458:D I *D sky130_fd_sc_hd__dfrtp_1
*I *5894:B I *D sky130_fd_sc_hd__xor2_1
*I *6265:A1 I *D sky130_fd_sc_hd__mux2_1
*I *6472:Q O *D sky130_fd_sc_hd__dfrtp_1
*CAP
1 *6458:D 4.78595e-05
2 *5894:B 0.000120709
3 *6265:A1 0.000231591
4 *6472:Q 3.58421e-05
5 *796:8 0.000352301
6 *796:6 8.37016e-05
7 *5894:B *5894:A 3.51442e-05
8 *5897:A *6265:A1 0
9 *5897:B *6265:A1 0
10 *6261:S *5894:B 0
11 *6261:S *6265:A1 0
12 *6265:S *6265:A1 9.99853e-05
13 *6266:A *6265:A1 3.57366e-05
14 *6458:CLK *6458:D 3.77554e-05
15 *6458:CLK *796:6 1.04232e-05
16 *6472:RESET_B *6265:A1 9.56968e-05
17 *239:67 *6265:A1 3.43495e-05
18 *490:35 *6265:A1 0
19 *709:90 *5894:B 0
20 *712:14 *5894:B 0
21 *712:29 *6458:D 0.000185547
*RES
1 *6472:Q *796:6 10.0321 
2 *796:6 *796:8 4.5 
3 *796:8 *6265:A1 18.55 
4 *796:8 *5894:B 16.05 
5 *796:6 *6458:D 11.0679 
*END

*D_NET *797 0.00449735
*CONN
*I *5893:B I *D sky130_fd_sc_hd__xor2_1
*I *6459:D I *D sky130_fd_sc_hd__dfrtp_1
*I *6269:A1 I *D sky130_fd_sc_hd__mux2_1
*I *6473:Q O *D sky130_fd_sc_hd__dfrtp_1
*CAP
1 *5893:B 0.000197706
2 *6459:D 0.000180582
3 *6269:A1 0
4 *6473:Q 0.000163492
5 *797:19 0.000978386
6 *797:10 0.00076359
7 *6271:B1 *797:19 0.000145733
8 *6459:CLK *5893:B 0.000129185
9 *6459:CLK *6459:D 7.32272e-05
10 *6469:RESET_B *797:19 0.000234532
11 *226:28 *797:19 0
12 *226:51 *5893:B 0.000581038
13 *226:51 *797:19 0.00034421
14 *237:24 *797:19 0
15 *239:16 *797:19 0.000169405
16 *239:30 *797:10 7.83659e-05
17 *239:30 *797:19 1.02504e-05
18 *487:71 *5893:B 0.000106552
19 *487:73 *5893:B 6.5185e-05
20 *709:17 *797:10 7.40992e-05
21 *709:17 *797:19 6.16744e-05
22 *711:109 *797:10 1.1979e-05
23 *792:18 *797:19 0.000128154
*RES
1 *6473:Q *797:10 16.6929 
2 *797:10 *6269:A1 13.8 
3 *797:10 *797:19 14.3929 
4 *797:19 *6459:D 16.8179 
5 *797:19 *5893:B 21.2107 
*END

*D_NET *798 0.00157211
*CONN
*I *6460:D I *D sky130_fd_sc_hd__dfrtp_1
*I *5892:B I *D sky130_fd_sc_hd__xor2_1
*I *6273:A1 I *D sky130_fd_sc_hd__mux2_1
*I *6474:Q O *D sky130_fd_sc_hd__dfrtp_1
*CAP
1 *6460:D 0.000234671
2 *5892:B 0.000121351
3 *6273:A1 0.000100563
4 *6474:Q 0
5 *798:21 0.000388977
6 *798:6 0.000133518
7 *5892:B *5892:A 1.92789e-05
8 *6460:D *5892:A 3.14163e-05
9 *5898:A *5892:B 0
10 *5898:A *6460:D 1.04232e-05
11 *6460:CLK *6460:D 4.60279e-05
12 *239:54 *6273:A1 0.000202835
13 *239:54 *798:21 7.83587e-05
14 *709:38 *6273:A1 0.000129868
15 *709:48 *6273:A1 4.13573e-05
16 *709:48 *798:21 3.34687e-05
*RES
1 *6474:Q *798:6 13.8 
2 *798:6 *6273:A1 16.8893 
3 *798:6 *798:21 5.53571 
4 *798:21 *5892:B 10.9786 
5 *798:21 *6460:D 13.1571 
*END

*D_NET *799 0.000161517
*CONN
*I *6577:A I *D sky130_fd_sc_hd__dlygate4sd3_1
*I *6457:Q O *D sky130_fd_sc_hd__dfrtp_1
*CAP
1 *6577:A 8.07586e-05
2 *6457:Q 8.07586e-05
*RES
1 *6457:Q *6577:A 19.9571 
*END

*D_NET *800 0.000554173
*CONN
*I *6517:A I *D sky130_fd_sc_hd__dlygate4sd3_1
*I *6458:Q O *D sky130_fd_sc_hd__dfrtp_1
*CAP
1 *6517:A 0.000237046
2 *6458:Q 0.000237046
3 *226:51 *6517:A 8.00806e-05
*RES
1 *6458:Q *6517:A 31.5464 
*END

*D_NET *801 0.000597249
*CONN
*I *6599:A I *D sky130_fd_sc_hd__dlygate4sd3_1
*I *6459:Q O *D sky130_fd_sc_hd__dfrtp_1
*CAP
1 *6599:A 0.000251981
2 *6459:Q 0.000251981
3 *6599:A *825:16 0
4 *6449:RESET_B *6599:A 0
5 *210:12 *6599:A 9.32873e-05
6 *709:211 *6599:A 0
*RES
1 *6459:Q *6599:A 32.2071 
*END

*D_NET *802 0.000571435
*CONN
*I *6588:A I *D sky130_fd_sc_hd__dlygate4sd3_1
*I *6460:Q O *D sky130_fd_sc_hd__dfrtp_1
*CAP
1 *6588:A 0.000178077
2 *6460:Q 0.000178077
3 *6460:RESET_B *6588:A 0.00021528
*RES
1 *6460:Q *6588:A 22.4214 
*END

*D_NET *803 0.000642758
*CONN
*I *6566:A I *D sky130_fd_sc_hd__dlygate4sd3_1
*I *6461:Q O *D sky130_fd_sc_hd__dfrtp_1
*CAP
1 *6566:A 0.000190588
2 *6461:Q 0.000190588
3 *5898:C *6566:A 0.000125593
4 *6461:CLK *6566:A 9.58126e-05
5 *6461:RESET_B *6566:A 4.01768e-05
6 *226:51 *6566:A 0
*RES
1 *6461:Q *6566:A 31.1357 
*END

*D_NET *804 0.000396223
*CONN
*I *5885:B I *D sky130_fd_sc_hd__xnor2_1
*I *6462:Q O *D sky130_fd_sc_hd__dfrtp_1
*CAP
1 *5885:B 0.000120443
2 *6462:Q 0.000120443
3 *6462:RESET_B *5885:B 0
4 *6477:RESET_B *5885:B 5.62995e-05
5 *491:35 *5885:B 9.90367e-05
*RES
1 *6462:Q *5885:B 30.1893 
*END

*D_NET *805 0.000934109
*CONN
*I *5883:A_N I *D sky130_fd_sc_hd__nand3b_1
*I *5882:B1_N I *D sky130_fd_sc_hd__a21bo_1
*I *6463:Q O *D sky130_fd_sc_hd__dfrtp_1
*CAP
1 *5883:A_N 0
2 *5882:B1_N 0.000141609
3 *6463:Q 0.000175624
4 *805:8 0.000317233
5 *5871:B *5882:B1_N 4.01768e-05
6 *5887:B *5882:B1_N 0
7 *198:16 *5882:B1_N 5.5782e-05
8 *712:29 *5882:B1_N 8.15939e-05
9 *712:29 *805:8 0.000122091
*RES
1 *6463:Q *805:8 12.7286 
2 *805:8 *5882:B1_N 21.925 
3 *805:8 *5883:A_N 9.3 
*END

*D_NET *806 0.00143093
*CONN
*I *5888:A I *D sky130_fd_sc_hd__xnor2_1
*I *6464:Q O *D sky130_fd_sc_hd__dfrtp_1
*CAP
1 *5888:A 0.000603938
2 *6464:Q 0.000603938
3 *6449:RESET_B *5888:A 0
4 *6464:D *5888:A 0
5 *6464:RESET_B *5888:A 0.00012401
6 *479:61 *5888:A 0
7 *487:65 *5888:A 0
8 *712:29 *5888:A 0
9 *712:33 *5888:A 9.90431e-05
*RES
1 *6464:Q *5888:A 38.9929 
*END

*D_NET *807 0.00127032
*CONN
*I *5876:A I *D sky130_fd_sc_hd__xnor2_2
*I *6465:Q O *D sky130_fd_sc_hd__dfrtp_1
*CAP
1 *5876:A 0.000609003
2 *6465:Q 0.000609003
3 *5876:A *825:16 0
4 *5899:A *5876:A 5.23142e-05
5 *6229:A0 *5876:A 0
6 *6229:A1 *5876:A 0
7 *6464:D *5876:A 0
8 *712:29 *5876:A 0
*RES
1 *6465:Q *5876:A 38.4929 
*END

*D_NET *808 0.00116643
*CONN
*I *5884:A I *D sky130_fd_sc_hd__xnor2_1
*I *6466:Q O *D sky130_fd_sc_hd__dfrtp_1
*CAP
1 *5884:A 0.000400158
2 *6466:Q 0.000400158
3 *5875:A0 *5884:A 0
4 *5875:S *5884:A 3.34366e-05
5 *5876:B *5884:A 0.000144773
6 *712:29 *5884:A 0.000187902
*RES
1 *6466:Q *5884:A 35.7964 
*END

*D_NET *809 0.000276378
*CONN
*I *5869:A I *D sky130_fd_sc_hd__clkbuf_4
*I *6476:Q O *D sky130_fd_sc_hd__dfrtp_1
*CAP
1 *5869:A 0.000138189
2 *6476:Q 0.000138189
*RES
1 *6476:Q *5869:A 20.3857 
*END

*D_NET *810 0.0110327
*CONN
*I *5900:A I *D sky130_fd_sc_hd__inv_2
*I *6075:C I *D sky130_fd_sc_hd__and4b_1
*I *5872:B I *D sky130_fd_sc_hd__and3_1
*I *6002:B I *D sky130_fd_sc_hd__and4b_1
*I *6185:B I *D sky130_fd_sc_hd__and4b_1
*I *6113:B I *D sky130_fd_sc_hd__or2_1
*I *6279:A0 I *D sky130_fd_sc_hd__mux2_1
*I *5885:A I *D sky130_fd_sc_hd__xnor2_1
*I *5879:B I *D sky130_fd_sc_hd__xor2_1
*I *5878:A2 I *D sky130_fd_sc_hd__a21oi_2
*I *5870:B I *D sky130_fd_sc_hd__and4_1
*I *6477:Q O *D sky130_fd_sc_hd__dfrtp_4
*CAP
1 *5900:A 6.30266e-05
2 *6075:C 0
3 *5872:B 0
4 *6002:B 0.000307603
5 *6185:B 1.1624e-05
6 *6113:B 0.000191552
7 *6279:A0 0
8 *5885:A 0.000283061
9 *5879:B 0
10 *5878:A2 0
11 *5870:B 0.000272808
12 *6477:Q 2.23854e-05
13 *810:107 0.000553293
14 *810:83 0.000244365
15 *810:81 0.000522439
16 *810:79 0.000464037
17 *810:75 0.000748339
18 *810:45 0.000283061
19 *810:18 0.000798017
20 *810:14 0.000695476
21 *810:12 0.000740596
22 *810:6 0.00104955
23 *6002:B *5870:C 5.71472e-05
24 *6002:B *811:76 2.14757e-05
25 *6002:B *812:38 0.00010326
26 *6002:B *812:46 9.25014e-06
27 *6002:B *812:68 4.18895e-05
28 *6113:B *6020:A 9.17823e-05
29 *6113:B *6020:B 4.27935e-05
30 *6113:B *811:26 0
31 *6113:B *811:32 9.71197e-05
32 *6113:B *811:38 1.52978e-05
33 *810:79 *811:8 9.4724e-05
34 *810:79 *811:12 0.000229443
35 *810:79 *811:20 0
36 *810:81 *811:20 0
37 *5872:A *6002:B 5.7661e-06
38 *5878:A1 *5870:B 0.000137735
39 *5879:A *810:75 0
40 *6003:B1 *6002:B 0.000144773
41 *6003:B1 *6185:B 5.52238e-05
42 *6003:B1 *810:81 6.74911e-05
43 *6003:B1 *810:83 1.52978e-05
44 *6003:B1 *810:107 0.000339745
45 *6076:B1 *810:81 2.79092e-05
46 *6185:D *6113:B 0
47 *6222:A0 *5885:A 0
48 *6222:A1 *5900:A 5.33433e-05
49 *6222:A1 *810:75 0.000334473
50 *6222:S *5885:A 0.000114311
51 *6224:A *810:18 0.000153047
52 *6279:A1 *810:14 0
53 *6280:A *5885:A 3.67142e-05
54 *6281:A *5870:B 1.04232e-05
55 *6281:B *5870:B 2.21417e-05
56 *6462:RESET_B *5885:A 1.76135e-05
57 *6476:CLK *810:12 0.000104611
58 *6476:CLK *810:75 1.92789e-05
59 *6476:RESET_B *810:6 0
60 *6476:RESET_B *810:75 6.73939e-05
61 *6477:D *5885:A 0.000273269
62 *6477:D *810:12 3.69697e-05
63 *6477:RESET_B *810:12 0.000134714
64 *6478:RESET_B *810:75 0.000243635
65 *182:44 *810:81 0
66 *182:102 *6185:B 5.52238e-05
67 *182:104 *6002:B 2.28598e-05
68 *182:114 *5870:B 4.86792e-05
69 *186:10 *810:18 3.6572e-05
70 *186:12 *810:18 1.19309e-05
71 *186:41 *5870:B 4.88637e-05
72 *191:6 *5870:B 9.90431e-05
73 *192:12 *810:14 0
74 *192:12 *810:18 0
75 *193:18 *810:18 7.83587e-05
76 *198:16 *5885:A 0
77 *198:16 *810:14 0
78 *198:16 *810:18 0
79 *298:18 *810:79 0
80 *298:18 *810:81 0
81 *420:85 *810:75 0
82 *460:8 *6002:B 0
83 *460:8 *810:79 0
84 *479:61 *810:18 0
85 *491:20 *810:12 0
86 *491:20 *810:14 0
87 *491:22 *810:12 4.88531e-05
88 *491:81 *810:12 8.53409e-05
89 *710:185 *810:12 2.56601e-05
*RES
1 *6477:Q *810:6 9.72857 
2 *810:6 *810:12 12.9464 
3 *810:12 *810:14 2.85714 
4 *810:14 *810:18 14.6429 
5 *810:18 *5870:B 14.1036 
6 *810:18 *5878:A2 9.3 
7 *810:14 *5879:B 13.8 
8 *810:12 *810:45 4.5 
9 *810:45 *5885:A 25.0143 
10 *810:45 *6279:A0 9.3 
11 *810:6 *810:75 19.4821 
12 *810:75 *810:79 9.78571 
13 *810:79 *810:81 4.07143 
14 *810:81 *810:83 0.732143 
15 *810:83 *6113:B 17.4071 
16 *810:83 *6185:B 14.3357 
17 *810:81 *810:107 7.91071 
18 *810:107 *6002:B 23.1929 
19 *810:107 *5872:B 9.3 
20 *810:79 *6075:C 13.8 
21 *810:75 *5900:A 10.675 
*END

*D_NET *811 0.00831771
*CONN
*I *6039:D I *D sky130_fd_sc_hd__and4_1
*I *6057:D I *D sky130_fd_sc_hd__and4b_1
*I *6075:A_N I *D sky130_fd_sc_hd__and4b_1
*I *6185:A_N I *D sky130_fd_sc_hd__and4b_1
*I *6002:D I *D sky130_fd_sc_hd__and4b_1
*I *6282:A0 I *D sky130_fd_sc_hd__mux2_1
*I *5870:D I *D sky130_fd_sc_hd__and4_1
*I *5878:B1 I *D sky130_fd_sc_hd__a21oi_2
*I *5872:C I *D sky130_fd_sc_hd__and3_1
*I *6020:B I *D sky130_fd_sc_hd__or2_1
*I *5902:B I *D sky130_fd_sc_hd__nand2_1
*I *6094:B I *D sky130_fd_sc_hd__or2_1
*I *6478:Q O *D sky130_fd_sc_hd__dfrtp_4
*CAP
1 *6039:D 0.000276307
2 *6057:D 0.000232625
3 *6075:A_N 0
4 *6185:A_N 0
5 *6002:D 0
6 *6282:A0 0.00011932
7 *5870:D 4.27279e-05
8 *5878:B1 3.69203e-05
9 *5872:C 7.00027e-05
10 *6020:B 0.000153956
11 *5902:B 0
12 *6094:B 9.05878e-05
13 *6478:Q 3.87986e-05
14 *811:87 0.000162048
15 *811:78 0.000175501
16 *811:76 0.000227564
17 *811:74 8.89827e-05
18 *811:38 0.000285128
19 *811:32 0.000614235
20 *811:26 0.000412255
21 *811:20 0.000329856
22 *811:16 0.000378501
23 *811:12 0.000427339
24 *811:8 0.000384661
25 *6020:B *6020:A 0.000107941
26 *6057:D *6057:C 5.52302e-05
27 *6057:D *812:107 2.76176e-05
28 *811:16 *812:88 4.88546e-05
29 *811:16 *812:107 4.76945e-05
30 *811:32 *6020:A 0.000117621
31 *811:32 *812:46 7.43578e-06
32 *5873:A *811:20 0.000110601
33 *5873:A *811:26 2.74862e-05
34 *5873:A *811:32 3.34295e-05
35 *5878:A1 *5878:B1 5.52302e-05
36 *6002:B *811:76 2.14757e-05
37 *6003:B1 *811:76 0.000312209
38 *6039:A *6039:D 5.33005e-05
39 *6075:D *6057:D 7.03295e-05
40 *6075:D *811:16 1.42868e-06
41 *6094:A *6094:B 5.52238e-05
42 *6113:B *6020:B 4.27935e-05
43 *6113:B *811:26 0
44 *6113:B *811:32 9.71197e-05
45 *6113:B *811:38 1.52978e-05
46 *6185:D *811:32 7.83659e-05
47 *6185:D *811:38 0
48 *6282:A1 *5878:B1 0.000228558
49 *6282:A1 *6282:A0 0.000129868
50 *6282:A1 *811:78 5.52302e-05
51 *182:102 *5872:C 0.000121712
52 *182:102 *811:76 0.000265441
53 *182:104 *811:76 0.000116366
54 *182:104 *811:78 0.000239663
55 *182:114 *5878:B1 0.0001878
56 *182:114 *811:78 0.000128496
57 *182:142 *6057:D 2.59355e-05
58 *192:12 *6282:A0 0
59 *193:16 *5870:D 0
60 *199:40 *6094:B 5.46298e-05
61 *211:31 *6020:B 0.00010096
62 *298:18 *811:8 3.5707e-05
63 *298:18 *811:12 8.36642e-05
64 *401:12 *811:38 0.000142327
65 *420:27 *5870:D 1.87955e-05
66 *420:27 *6282:A0 1.46717e-05
67 *420:31 *6282:A0 1.41029e-05
68 *460:8 *811:20 5.98293e-05
69 *460:8 *811:32 3.57844e-05
70 *460:8 *811:38 0
71 *810:79 *811:8 9.4724e-05
72 *810:79 *811:12 0.000229443
73 *810:79 *811:20 0
74 *810:81 *811:20 0
*RES
1 *6478:Q *811:8 15.1393 
2 *811:8 *811:12 7.35714 
3 *811:12 *811:16 2.60714 
4 *811:16 *811:20 9.48214 
5 *811:20 *811:26 1.39286 
6 *811:26 *811:32 8.83929 
7 *811:32 *811:38 12.4643 
8 *811:38 *6094:B 11.0857 
9 *811:38 *5902:B 9.3 
10 *811:32 *6020:B 12.4429 
11 *811:26 *5872:C 15.0143 
12 *811:20 *811:74 4.5 
13 *811:74 *811:76 3.70982 
14 *811:76 *811:78 3.52232 
15 *811:78 *5878:B1 11.4786 
16 *811:78 *811:87 4.5 
17 *811:87 *5870:D 14.5321 
18 *811:87 *6282:A0 16.3536 
19 *811:76 *6002:D 9.3 
20 *811:74 *6185:A_N 9.3 
21 *811:16 *6075:A_N 9.3 
22 *811:12 *6057:D 13.2509 
23 *811:8 *6039:D 16.8 
*END

*D_NET *812 0.00889023
*CONN
*I *6057:C I *D sky130_fd_sc_hd__and4b_1
*I *6039:C I *D sky130_fd_sc_hd__and4_1
*I *6075:B I *D sky130_fd_sc_hd__and4b_1
*I *6002:C I *D sky130_fd_sc_hd__and4b_1
*I *5870:C I *D sky130_fd_sc_hd__and4_1
*I *6020:A I *D sky130_fd_sc_hd__or2_1
*I *5886:A I *D sky130_fd_sc_hd__inv_2
*I *6285:A0 I *D sky130_fd_sc_hd__mux2_1
*I *5874:A I *D sky130_fd_sc_hd__xnor2_1
*I *6479:Q O *D sky130_fd_sc_hd__dfrtp_4
*CAP
1 *6057:C 1.72982e-05
2 *6039:C 0.000101612
3 *6075:B 0
4 *6002:C 0
5 *5870:C 0.000189036
6 *6020:A 0.000254137
7 *5886:A 0
8 *6285:A0 0
9 *5874:A 0.000202796
10 *6479:Q 0
11 *812:107 0.00037305
12 *812:88 0.000684214
13 *812:68 0.000199926
14 *812:46 0.000542433
15 *812:38 0.000550429
16 *812:36 0.00155524
17 *812:10 0.000566379
18 *812:4 0.0012375
19 *6002:B *5870:C 5.71472e-05
20 *6002:B *812:38 0.00010326
21 *6002:B *812:46 9.25014e-06
22 *6002:B *812:68 4.18895e-05
23 *6020:B *6020:A 0.000107941
24 *6057:B *812:107 5.52302e-05
25 *6057:D *6057:C 5.52302e-05
26 *6057:D *812:107 2.76176e-05
27 *6075:D *812:107 0.000116829
28 *6113:B *6020:A 9.17823e-05
29 *6225:A0 *5874:A 0
30 *6283:A *812:36 9.92409e-05
31 *6285:A1 *5874:A 0.000267821
32 *6285:A1 *812:10 1.02504e-05
33 *6478:D *812:36 3.30526e-05
34 *182:56 *6020:A 0.000270298
35 *182:104 *5870:C 0.000174232
36 *182:104 *812:68 5.52238e-05
37 *182:114 *5870:C 0.0001479
38 *182:142 *812:107 4.08637e-05
39 *198:16 *5874:A 0
40 *198:16 *812:10 0
41 *199:10 *6020:A 1.39726e-05
42 *199:10 *812:46 0.00013949
43 *211:25 *6039:C 0.000202128
44 *211:31 *6020:A 3.48705e-05
45 *319:12 *6039:C 0
46 *420:27 *812:38 0
47 *420:27 *812:46 0
48 *420:31 *812:36 0
49 *420:31 *812:38 0
50 *420:47 *812:10 3.90513e-05
51 *420:85 *812:36 0
52 *460:8 *812:36 0
53 *460:8 *812:38 0
54 *460:8 *812:46 0
55 *811:16 *812:88 4.88546e-05
56 *811:16 *812:107 4.76945e-05
57 *811:32 *6020:A 0.000117621
58 *811:32 *812:46 7.43578e-06
*RES
1 *6479:Q *812:4 9.3 
2 *812:4 *812:10 11.0714 
3 *812:10 *5874:A 18.175 
4 *812:10 *6285:A0 13.8 
5 *812:4 *812:36 18.3036 
6 *812:36 *812:38 4.67857 
7 *812:38 *812:46 9.98214 
8 *812:46 *5886:A 9.3 
9 *812:46 *6020:A 16.5679 
10 *812:38 *812:68 5.03571 
11 *812:68 *5870:C 13.2643 
12 *812:68 *6002:C 9.3 
13 *812:36 *812:88 9.55357 
14 *812:88 *6075:B 9.3 
15 *812:88 *812:107 5.67857 
16 *812:107 *6039:C 20.8536 
17 *812:107 *6057:C 9.83571 
*END

*D_NET *813 0.00402939
*CONN
*I *6231:A0 I *D sky130_fd_sc_hd__mux2_1
*I *5868:A I *D sky130_fd_sc_hd__inv_2
*I *6451:D I *D sky130_fd_sc_hd__dfrtp_1
*I *6438:Q O *D sky130_fd_sc_hd__dfrtp_1
*CAP
1 *6231:A0 0.000124041
2 *5868:A 0.000138894
3 *6451:D 0.00114566
4 *6438:Q 0
5 *813:10 0.00140835
6 *813:4 0.000247837
7 *6232:A *5868:A 5.52302e-05
8 *6232:A *6451:D 0.000357054
9 *6232:A *813:10 8.00806e-05
10 *6438:D *6451:D 9.51689e-05
11 *6451:RESET_B *6451:D 9.13501e-05
12 *226:51 *813:10 0
13 *710:30 *6231:A0 0.000232399
14 *710:30 *813:10 0
15 *711:46 *6451:D 5.33334e-05
*RES
1 *6438:Q *813:4 9.3 
2 *813:4 *813:10 10.9464 
3 *813:10 *6451:D 29.55 
4 *813:10 *5868:A 11.9071 
5 *813:4 *6231:A0 11.9071 
*END

*D_NET *814 0.00485365
*CONN
*I *6558:A I *D sky130_fd_sc_hd__dlygate4sd3_1
*I *6447:D I *D sky130_fd_sc_hd__dfrtp_1
*I *6434:Q O *D sky130_fd_sc_hd__dfrtp_1
*CAP
1 *6558:A 4.26137e-05
2 *6447:D 0.00147417
3 *6434:Q 0
4 *814:6 0.00151678
5 *6447:D *6452:D 0.000488516
6 *6222:A0 *6447:D 0
7 *6222:A0 *6558:A 0
8 *6222:A1 *6447:D 0.0001399
9 *6261:S *6447:D 5.33005e-05
10 *6262:A *6447:D 7.86956e-05
11 *6447:RESET_B *6447:D 2.64739e-05
12 *6471:D *6447:D 0.00014285
13 *6471:RESET_B *6447:D 0.00044468
14 *6479:RESET_B *6447:D 0.000288564
15 *6479:RESET_B *6558:A 4.66511e-05
16 *491:35 *6558:A 5.52302e-05
17 *710:149 *6558:A 5.52302e-05
*RES
1 *6434:Q *814:6 13.8 
2 *814:6 *6447:D 42.8893 
3 *814:6 *6558:A 15.0679 
*END

*D_NET *815 0.0040597
*CONN
*I *6557:A I *D sky130_fd_sc_hd__dlygate4sd3_1
*I *6448:D I *D sky130_fd_sc_hd__dfrtp_1
*I *6435:Q O *D sky130_fd_sc_hd__dfrtp_1
*CAP
1 *6557:A 7.11377e-05
2 *6448:D 0.00169853
3 *6435:Q 0
4 *815:4 0.00176966
5 *6435:CLK *6448:D 0.000410132
6 *6435:CLK *6557:A 5.7661e-06
7 *6448:RESET_B *6448:D 2.74303e-05
8 *490:6 *6448:D 2.07491e-05
9 *490:6 *6557:A 5.62995e-05
*RES
1 *6435:Q *815:4 9.3 
2 *815:4 *6448:D 32.05 
3 *815:4 *6557:A 10.9786 
*END

*D_NET *816 0.00287619
*CONN
*I *6610:A I *D sky130_fd_sc_hd__dlygate4sd3_1
*I *6449:D I *D sky130_fd_sc_hd__dfrtp_1
*I *6436:Q O *D sky130_fd_sc_hd__dfrtp_1
*CAP
1 *6610:A 0.000199529
2 *6449:D 0.000676992
3 *6436:Q 0.000181664
4 *816:6 0.00105819
5 *6228:A1 *6610:A 5.52302e-05
6 *6436:RESET_B *6449:D 0.000568432
7 *411:10 *6610:A 0
8 *411:20 *6610:A 0
9 *479:61 *6449:D 0.000136154
10 *487:40 *6449:D 0
11 *487:53 *6449:D 0
12 *680:10 *6610:A 0
*RES
1 *6436:Q *816:6 11.4786 
2 *816:6 *6449:D 28.175 
3 *816:6 *6610:A 21.9964 
*END

*D_NET *817 0.00437027
*CONN
*I *6559:A I *D sky130_fd_sc_hd__dlygate4sd3_1
*I *6450:D I *D sky130_fd_sc_hd__dfrtp_1
*I *6437:Q O *D sky130_fd_sc_hd__dfrtp_1
*CAP
1 *6559:A 6.07917e-05
2 *6450:D 0.00187944
3 *6437:Q 0
4 *817:4 0.00194023
5 *6437:RESET_B *6559:A 5.71472e-05
6 *6450:CLK *6450:D 1.05901e-05
7 *6450:RESET_B *6450:D 1.92789e-05
8 *226:51 *6450:D 0
9 *487:69 *6450:D 0.00040279
10 *710:36 *6450:D 0
*RES
1 *6437:Q *817:4 9.3 
2 *817:4 *6450:D 40.8357 
3 *817:4 *6559:A 10.5679 
*END

*D_NET *818 0.00160974
*CONN
*I *6452:D I *D sky130_fd_sc_hd__dfrtp_1
*I *6447:Q O *D sky130_fd_sc_hd__dfrtp_1
*CAP
1 *6452:D 0.000538207
2 *6447:Q 0.000538207
3 *6447:D *6452:D 0.000488516
4 *711:28 *6452:D 4.48113e-05
*RES
1 *6447:Q *6452:D 35.9393 
*END

*D_NET *819 0.000760675
*CONN
*I *6453:D I *D sky130_fd_sc_hd__dfrtp_1
*I *6448:Q O *D sky130_fd_sc_hd__dfrtp_1
*CAP
1 *6453:D 0.000321512
2 *6448:Q 0.000321512
3 *709:99 *6453:D 3.92854e-05
4 *712:14 *6453:D 7.83659e-05
*RES
1 *6448:Q *6453:D 32.0643 
*END

*D_NET *820 0.00323973
*CONN
*I *6454:D I *D sky130_fd_sc_hd__dfrtp_1
*I *6449:Q O *D sky130_fd_sc_hd__dfrtp_1
*CAP
1 *6454:D 0.00119352
2 *6449:Q 0.00119352
3 *6454:D *825:16 5.58539e-05
4 *5948:A3 *6454:D 2.26336e-05
5 *6385:CLK *6454:D 0.000122101
6 *6454:RESET_B *6454:D 0.000180002
7 *391:22 *6454:D 0.000381026
8 *680:10 *6454:D 9.10778e-05
*RES
1 *6449:Q *6454:D 45.2964 
*END

*D_NET *821 0.0009494
*CONN
*I *6455:D I *D sky130_fd_sc_hd__dfrtp_1
*I *6450:Q O *D sky130_fd_sc_hd__dfrtp_1
*CAP
1 *6455:D 0.000461865
2 *6450:Q 0.000461865
3 *239:54 *6455:D 0
4 *709:59 *6455:D 2.56694e-05
*RES
1 *6450:Q *6455:D 33.3366 
*END

*D_NET *822 0.000786343
*CONN
*I *6456:D I *D sky130_fd_sc_hd__dfrtp_1
*I *6451:Q O *D sky130_fd_sc_hd__dfrtp_1
*CAP
1 *6456:D 0.000379217
2 *6451:Q 0.000379217
3 *239:54 *6456:D 0
4 *709:80 *6456:D 2.79092e-05
*RES
1 *6451:Q *6456:D 34.0107 
*END

*D_NET *823 0.00100112
*CONN
*I *5896:A I *D sky130_fd_sc_hd__xor2_1
*I *6452:Q O *D sky130_fd_sc_hd__dfrtp_1
*CAP
1 *5896:A 0.000391114
2 *6452:Q 0.000391114
3 *5896:B *5896:A 5.68713e-05
4 *711:14 *5896:A 0.000150508
5 *711:24 *5896:A 1.15172e-05
6 *712:14 *5896:A 0
*RES
1 *6452:Q *5896:A 33.6 
*END

*D_NET *824 0.000235535
*CONN
*I *5894:A I *D sky130_fd_sc_hd__xor2_1
*I *6453:Q O *D sky130_fd_sc_hd__dfrtp_1
*CAP
1 *5894:A 0.000100196
2 *6453:Q 0.000100196
3 *5894:B *5894:A 3.51442e-05
4 *6261:S *5894:A 0
5 *712:14 *5894:A 0
*RES
1 *6453:Q *5894:A 29.5464 
*END

*D_NET *825 0.00418482
*CONN
*I *5893:A I *D sky130_fd_sc_hd__xor2_1
*I *6454:Q O *D sky130_fd_sc_hd__dfrtp_1
*CAP
1 *5893:A 0
2 *6454:Q 0.00147088
3 *825:16 0.00147088
4 *5876:A *825:16 0
5 *6449:RESET_B *825:16 0
6 *6454:CLK *825:16 9.9322e-05
7 *6454:D *825:16 5.58539e-05
8 *6454:RESET_B *825:16 5.17901e-05
9 *6459:RESET_B *825:16 0
10 *6465:D *825:16 0
11 *6599:A *825:16 0
12 *210:12 *825:16 0.000150618
13 *391:22 *825:16 3.69047e-06
14 *487:69 *825:16 0.000881782
15 *710:36 *825:16 0
16 *710:38 *825:16 0
*RES
1 *6454:Q *825:16 43.05 
2 *825:16 *5893:A 9.3 
*END

*D_NET *826 0.000534322
*CONN
*I *5892:A I *D sky130_fd_sc_hd__xor2_1
*I *6455:Q O *D sky130_fd_sc_hd__dfrtp_1
*CAP
1 *5892:A 0.000131208
2 *6455:Q 0.000131208
3 *5892:B *5892:A 1.92789e-05
4 *5898:A *5892:A 0.000141131
5 *6460:D *5892:A 3.14163e-05
6 *239:54 *5892:A 8.00806e-05
*RES
1 *6455:Q *5892:A 30.725 
*END

*D_NET *827 0.000178072
*CONN
*I *5895:B I *D sky130_fd_sc_hd__xor2_1
*I *6456:Q O *D sky130_fd_sc_hd__dfrtp_1
*CAP
1 *5895:B 8.90359e-05
2 *6456:Q 8.90359e-05
*RES
1 *6456:Q *5895:B 19.9571 
*END
