*SPEF "ieee 1481-1999"
*DESIGN "AsynFifo"
*DATE "11:11:11 Fri 11 11, 1111"
*VENDOR "OpenRCX"
*PROGRAM "Parallel Extraction"
*VERSION "1.0"
*DESIGN_FLOW "NAME_SCOPE LOCAL" "PIN_CAP NONE"
*DIVIDER /
*DELIMITER :
*BUS_DELIMITER []
*T_UNIT 1 NS
*C_UNIT 1 PF
*R_UNIT 1 OHM
*L_UNIT 1 HENRY

*NAME_MAP
*1 empty
*2 full
*3 r_clk
*4 r_data[0]
*5 r_data[1]
*6 r_data[2]
*7 r_data[3]
*8 r_data[4]
*9 r_data[5]
*10 r_data[6]
*11 r_data[7]
*12 r_rst_n
*13 rd
*16 w_clk
*17 w_data[0]
*18 w_data[1]
*19 w_data[2]
*20 w_data[3]
*21 w_data[4]
*22 w_data[5]
*23 w_data[6]
*24 w_data[7]
*25 w_rst_n
*26 wr
*27 _0000_
*28 _0001_
*29 _0002_
*30 _0003_
*31 _0004_
*32 _0005_
*33 _0006_
*34 _0007_
*35 _0008_
*36 _0009_
*37 _0010_
*38 _0011_
*39 _0012_
*40 _0013_
*41 _0014_
*42 _0015_
*43 _0016_
*44 _0017_
*45 _0018_
*46 _0019_
*47 _0020_
*48 _0021_
*49 _0022_
*50 _0023_
*51 _0024_
*52 _0025_
*53 _0026_
*54 _0027_
*55 _0028_
*56 _0029_
*57 _0030_
*58 _0031_
*59 _0032_
*60 _0033_
*61 _0034_
*62 _0035_
*63 _0036_
*64 _0037_
*65 _0038_
*66 _0039_
*67 _0040_
*68 _0041_
*69 _0042_
*70 _0043_
*71 _0044_
*72 _0045_
*73 _0046_
*74 _0047_
*75 _0048_
*76 _0049_
*77 _0050_
*78 _0051_
*79 _0052_
*80 _0053_
*81 _0054_
*82 _0055_
*83 _0056_
*84 _0057_
*85 _0058_
*86 _0059_
*87 _0060_
*88 _0061_
*89 _0062_
*90 _0063_
*91 _0064_
*92 _0065_
*93 _0066_
*94 _0067_
*95 _0068_
*96 _0069_
*97 _0070_
*98 _0071_
*99 _0072_
*100 _0073_
*101 _0074_
*102 _0075_
*103 _0076_
*104 _0077_
*105 _0078_
*106 _0079_
*107 _0080_
*108 _0081_
*109 _0082_
*110 _0083_
*111 _0084_
*112 _0085_
*113 _0086_
*114 _0087_
*115 _0088_
*116 _0089_
*117 _0090_
*118 _0091_
*119 _0092_
*120 _0093_
*121 _0094_
*122 _0095_
*123 _0096_
*124 _0097_
*125 _0098_
*126 _0099_
*127 _0100_
*128 _0101_
*129 _0102_
*130 _0103_
*131 _0104_
*132 _0105_
*133 _0106_
*134 _0107_
*135 _0108_
*136 _0109_
*137 _0110_
*138 _0111_
*139 _0112_
*140 _0113_
*141 _0114_
*142 _0115_
*143 _0116_
*144 _0117_
*145 _0118_
*146 _0119_
*147 _0120_
*148 _0121_
*149 _0122_
*150 _0123_
*151 _0124_
*152 _0125_
*153 _0126_
*154 _0127_
*155 _0128_
*156 _0129_
*157 _0130_
*158 _0131_
*159 _0132_
*160 _0133_
*161 _0134_
*162 _0135_
*163 _0136_
*164 _0137_
*165 _0138_
*166 _0139_
*167 _0140_
*168 _0141_
*169 _0142_
*170 _0143_
*171 _0144_
*172 _0145_
*173 _0146_
*174 _0147_
*175 _0148_
*176 _0149_
*177 _0150_
*178 _0151_
*179 _0152_
*180 _0153_
*181 _0154_
*182 _0155_
*183 _0156_
*184 _0157_
*185 _0158_
*186 _0159_
*187 _0160_
*188 _0161_
*189 _0162_
*190 _0163_
*191 _0164_
*192 _0165_
*193 _0166_
*194 _0167_
*195 _0168_
*196 _0169_
*197 _0170_
*198 _0171_
*199 _0172_
*200 _0173_
*201 _0174_
*202 _0175_
*203 _0176_
*204 _0177_
*205 _0178_
*206 _0179_
*207 _0180_
*208 _0181_
*209 _0182_
*210 _0183_
*211 _0184_
*212 _0185_
*213 _0186_
*214 _0187_
*215 _0188_
*216 _0189_
*217 _0190_
*218 _0191_
*219 _0192_
*220 _0193_
*221 _0194_
*222 _0195_
*223 _0196_
*224 _0197_
*225 _0198_
*226 _0199_
*227 _0200_
*228 _0201_
*229 _0202_
*230 _0203_
*231 _0204_
*232 _0205_
*233 _0206_
*234 _0207_
*235 _0208_
*236 _0209_
*237 _0210_
*238 _0211_
*239 _0212_
*240 _0213_
*241 _0214_
*242 _0215_
*243 _0216_
*244 _0217_
*245 _0218_
*246 _0219_
*247 _0220_
*248 _0221_
*249 _0222_
*250 _0223_
*251 _0224_
*252 _0225_
*253 _0226_
*254 _0227_
*255 _0228_
*256 _0229_
*257 _0230_
*258 _0231_
*259 _0232_
*260 _0233_
*261 _0234_
*262 _0235_
*263 _0236_
*264 _0237_
*265 _0238_
*266 _0239_
*267 _0240_
*268 _0241_
*269 _0242_
*270 _0243_
*271 _0244_
*272 _0245_
*273 _0246_
*274 _0247_
*275 _0248_
*276 _0249_
*277 _0250_
*278 _0251_
*279 _0252_
*280 _0253_
*281 _0254_
*282 _0255_
*283 _0256_
*284 _0257_
*285 _0258_
*286 _0259_
*287 _0260_
*288 _0261_
*289 _0262_
*290 _0263_
*291 _0264_
*292 _0265_
*293 _0266_
*294 _0267_
*295 _0268_
*296 _0269_
*297 _0270_
*298 _0271_
*299 _0272_
*300 _0273_
*301 _0274_
*302 _0275_
*303 _0276_
*304 _0277_
*305 _0278_
*306 _0279_
*307 _0280_
*308 _0281_
*309 _0282_
*310 _0283_
*311 _0284_
*312 _0285_
*313 _0286_
*314 _0287_
*315 _0288_
*316 _0289_
*317 _0290_
*318 _0291_
*319 _0292_
*320 _0293_
*321 _0294_
*322 _0295_
*323 _0296_
*324 _0297_
*325 _0298_
*326 _0299_
*327 _0300_
*328 _0301_
*329 _0302_
*330 _0303_
*331 _0304_
*332 _0305_
*333 _0306_
*334 _0307_
*335 _0308_
*336 _0309_
*337 _0310_
*338 _0311_
*339 _0312_
*340 _0313_
*341 _0314_
*342 _0315_
*343 _0316_
*344 _0317_
*345 _0318_
*346 _0319_
*347 _0320_
*348 _0321_
*349 _0322_
*350 _0323_
*351 _0324_
*352 _0325_
*353 _0326_
*354 _0327_
*355 _0328_
*356 _0329_
*357 _0330_
*358 _0331_
*359 _0332_
*360 _0333_
*361 _0334_
*362 _0335_
*363 _0336_
*364 _0337_
*365 _0338_
*366 _0339_
*367 _0340_
*368 _0341_
*369 _0342_
*370 _0343_
*371 _0344_
*372 _0345_
*373 _0346_
*374 _0347_
*375 _0348_
*376 _0349_
*377 _0350_
*378 _0351_
*379 _0352_
*380 _0353_
*381 _0354_
*382 _0355_
*383 _0356_
*384 _0357_
*385 _0358_
*386 _0359_
*387 _0360_
*388 _0361_
*389 _0362_
*390 _0363_
*391 _0364_
*392 _0365_
*393 _0366_
*394 _0367_
*395 _0368_
*396 _0369_
*397 _0370_
*398 _0371_
*399 _0372_
*400 _0373_
*401 _0374_
*402 _0375_
*403 _0376_
*404 _0377_
*405 _0378_
*406 _0379_
*407 _0380_
*408 _0381_
*409 _0382_
*410 _0383_
*411 _0384_
*412 _0385_
*413 _0386_
*414 _0387_
*415 _0388_
*416 _0389_
*417 _0390_
*418 _0391_
*419 _0392_
*420 _0393_
*421 _0394_
*422 _0395_
*423 _0396_
*424 _0397_
*425 _0398_
*426 _0399_
*427 _0400_
*428 _0401_
*429 _0402_
*430 _0403_
*431 _0404_
*432 _0405_
*433 _0406_
*434 _0407_
*435 _0408_
*436 _0409_
*437 _0410_
*438 _0411_
*439 _0412_
*440 _0413_
*441 _0414_
*442 _0415_
*443 _0416_
*444 _0417_
*445 _0418_
*446 _0419_
*447 _0420_
*448 _0421_
*449 _0422_
*450 _0423_
*451 _0424_
*452 _0425_
*453 _0426_
*454 _0427_
*455 _0428_
*456 _0429_
*457 _0430_
*458 _0431_
*459 _0432_
*460 _0433_
*461 _0434_
*462 _0435_
*463 _0436_
*464 _0437_
*465 _0438_
*466 _0439_
*467 _0440_
*468 _0441_
*469 _0442_
*470 _0443_
*471 _0444_
*472 _0445_
*473 _0446_
*474 _0447_
*475 _0448_
*476 _0449_
*477 _0450_
*478 _0451_
*479 clknet_0_w_clk
*480 clknet_4_0_0_w_clk
*481 clknet_4_10_0_w_clk
*482 clknet_4_11_0_w_clk
*483 clknet_4_12_0_w_clk
*484 clknet_4_13_0_w_clk
*485 clknet_4_14_0_w_clk
*486 clknet_4_15_0_w_clk
*487 clknet_4_1_0_w_clk
*488 clknet_4_2_0_w_clk
*489 clknet_4_3_0_w_clk
*490 clknet_4_4_0_w_clk
*491 clknet_4_5_0_w_clk
*492 clknet_4_6_0_w_clk
*493 clknet_4_7_0_w_clk
*494 clknet_4_8_0_w_clk
*495 clknet_4_9_0_w_clk
*496 mem\[0\]\[0\]
*497 mem\[0\]\[1\]
*498 mem\[0\]\[2\]
*499 mem\[0\]\[3\]
*500 mem\[0\]\[4\]
*501 mem\[0\]\[5\]
*502 mem\[0\]\[6\]
*503 mem\[0\]\[7\]
*504 mem\[10\]\[0\]
*505 mem\[10\]\[1\]
*506 mem\[10\]\[2\]
*507 mem\[10\]\[3\]
*508 mem\[10\]\[4\]
*509 mem\[10\]\[5\]
*510 mem\[10\]\[6\]
*511 mem\[10\]\[7\]
*512 mem\[11\]\[0\]
*513 mem\[11\]\[1\]
*514 mem\[11\]\[2\]
*515 mem\[11\]\[3\]
*516 mem\[11\]\[4\]
*517 mem\[11\]\[5\]
*518 mem\[11\]\[6\]
*519 mem\[11\]\[7\]
*520 mem\[12\]\[0\]
*521 mem\[12\]\[1\]
*522 mem\[12\]\[2\]
*523 mem\[12\]\[3\]
*524 mem\[12\]\[4\]
*525 mem\[12\]\[5\]
*526 mem\[12\]\[6\]
*527 mem\[12\]\[7\]
*528 mem\[13\]\[0\]
*529 mem\[13\]\[1\]
*530 mem\[13\]\[2\]
*531 mem\[13\]\[3\]
*532 mem\[13\]\[4\]
*533 mem\[13\]\[5\]
*534 mem\[13\]\[6\]
*535 mem\[13\]\[7\]
*536 mem\[14\]\[0\]
*537 mem\[14\]\[1\]
*538 mem\[14\]\[2\]
*539 mem\[14\]\[3\]
*540 mem\[14\]\[4\]
*541 mem\[14\]\[5\]
*542 mem\[14\]\[6\]
*543 mem\[14\]\[7\]
*544 mem\[15\]\[0\]
*545 mem\[15\]\[1\]
*546 mem\[15\]\[2\]
*547 mem\[15\]\[3\]
*548 mem\[15\]\[4\]
*549 mem\[15\]\[5\]
*550 mem\[15\]\[6\]
*551 mem\[15\]\[7\]
*552 mem\[1\]\[0\]
*553 mem\[1\]\[1\]
*554 mem\[1\]\[2\]
*555 mem\[1\]\[3\]
*556 mem\[1\]\[4\]
*557 mem\[1\]\[5\]
*558 mem\[1\]\[6\]
*559 mem\[1\]\[7\]
*560 mem\[2\]\[0\]
*561 mem\[2\]\[1\]
*562 mem\[2\]\[2\]
*563 mem\[2\]\[3\]
*564 mem\[2\]\[4\]
*565 mem\[2\]\[5\]
*566 mem\[2\]\[6\]
*567 mem\[2\]\[7\]
*568 mem\[3\]\[0\]
*569 mem\[3\]\[1\]
*570 mem\[3\]\[2\]
*571 mem\[3\]\[3\]
*572 mem\[3\]\[4\]
*573 mem\[3\]\[5\]
*574 mem\[3\]\[6\]
*575 mem\[3\]\[7\]
*576 mem\[4\]\[0\]
*577 mem\[4\]\[1\]
*578 mem\[4\]\[2\]
*579 mem\[4\]\[3\]
*580 mem\[4\]\[4\]
*581 mem\[4\]\[5\]
*582 mem\[4\]\[6\]
*583 mem\[4\]\[7\]
*584 mem\[5\]\[0\]
*585 mem\[5\]\[1\]
*586 mem\[5\]\[2\]
*587 mem\[5\]\[3\]
*588 mem\[5\]\[4\]
*589 mem\[5\]\[5\]
*590 mem\[5\]\[6\]
*591 mem\[5\]\[7\]
*592 mem\[6\]\[0\]
*593 mem\[6\]\[1\]
*594 mem\[6\]\[2\]
*595 mem\[6\]\[3\]
*596 mem\[6\]\[4\]
*597 mem\[6\]\[5\]
*598 mem\[6\]\[6\]
*599 mem\[6\]\[7\]
*600 mem\[7\]\[0\]
*601 mem\[7\]\[1\]
*602 mem\[7\]\[2\]
*603 mem\[7\]\[3\]
*604 mem\[7\]\[4\]
*605 mem\[7\]\[5\]
*606 mem\[7\]\[6\]
*607 mem\[7\]\[7\]
*608 mem\[8\]\[0\]
*609 mem\[8\]\[1\]
*610 mem\[8\]\[2\]
*611 mem\[8\]\[3\]
*612 mem\[8\]\[4\]
*613 mem\[8\]\[5\]
*614 mem\[8\]\[6\]
*615 mem\[8\]\[7\]
*616 mem\[9\]\[0\]
*617 mem\[9\]\[1\]
*618 mem\[9\]\[2\]
*619 mem\[9\]\[3\]
*620 mem\[9\]\[4\]
*621 mem\[9\]\[5\]
*622 mem\[9\]\[6\]
*623 mem\[9\]\[7\]
*624 net1
*625 net10
*626 net100
*627 net101
*628 net102
*629 net103
*630 net104
*631 net105
*632 net106
*633 net107
*634 net108
*635 net109
*636 net11
*637 net110
*638 net111
*639 net112
*640 net113
*641 net114
*642 net115
*643 net116
*644 net117
*645 net118
*646 net119
*647 net12
*648 net120
*649 net121
*650 net122
*651 net123
*652 net124
*653 net125
*654 net126
*655 net127
*656 net128
*657 net129
*658 net13
*659 net130
*660 net131
*661 net132
*662 net133
*663 net134
*664 net135
*665 net136
*666 net137
*667 net138
*668 net139
*669 net14
*670 net140
*671 net141
*672 net142
*673 net143
*674 net144
*675 net145
*676 net146
*677 net147
*678 net148
*679 net149
*680 net15
*681 net150
*682 net151
*683 net152
*684 net153
*685 net154
*686 net155
*687 net156
*688 net157
*689 net158
*690 net159
*691 net16
*692 net160
*693 net161
*694 net162
*695 net163
*696 net164
*697 net165
*698 net166
*699 net17
*700 net18
*701 net19
*702 net2
*703 net20
*704 net21
*705 net22
*706 net23
*707 net24
*708 net25
*709 net26
*710 net27
*711 net28
*712 net29
*713 net3
*714 net30
*715 net31
*716 net32
*717 net33
*718 net34
*719 net35
*720 net36
*721 net37
*722 net38
*723 net39
*724 net4
*725 net40
*726 net41
*727 net42
*728 net43
*729 net44
*730 net45
*731 net46
*732 net47
*733 net48
*734 net49
*735 net5
*736 net50
*737 net51
*738 net52
*739 net53
*740 net54
*741 net55
*742 net56
*743 net57
*744 net58
*745 net59
*746 net6
*747 net60
*748 net61
*749 net62
*750 net63
*751 net64
*752 net65
*753 net66
*754 net67
*755 net68
*756 net69
*757 net7
*758 net70
*759 net71
*760 net72
*761 net73
*762 net74
*763 net75
*764 net76
*765 net77
*766 net78
*767 net79
*768 net8
*769 net80
*770 net81
*771 net82
*772 net83
*773 net84
*774 net85
*775 net86
*776 net87
*777 net88
*778 net89
*779 net9
*780 net90
*781 net91
*782 net92
*783 net93
*784 net94
*785 net95
*786 net96
*787 net97
*788 net98
*789 net99
*790 r_ptr_b\[0\]
*791 r_ptr_b\[1\]
*792 r_ptr_b\[2\]
*793 r_ptr_b\[3\]
*794 r_ptr_b\[4\]
*795 r_ptr_g\[0\]
*796 r_ptr_g\[1\]
*797 r_ptr_g\[2\]
*798 r_ptr_g\[3\]
*799 r_ptr_g_sync1\[0\]
*800 r_ptr_g_sync1\[1\]
*801 r_ptr_g_sync1\[2\]
*802 r_ptr_g_sync1\[3\]
*803 r_ptr_g_sync1\[4\]
*804 r_ptr_g_sync2\[0\]
*805 r_ptr_g_sync2\[1\]
*806 r_ptr_g_sync2\[2\]
*807 r_ptr_g_sync2\[3\]
*808 r_ptr_g_sync2\[4\]
*809 w_ptr_b\[0\]
*810 w_ptr_b\[1\]
*811 w_ptr_b\[2\]
*812 w_ptr_b\[3\]
*813 w_ptr_b\[4\]
*814 w_ptr_g\[0\]
*815 w_ptr_g\[1\]
*816 w_ptr_g\[2\]
*817 w_ptr_g\[3\]
*818 w_ptr_g_sync1\[0\]
*819 w_ptr_g_sync1\[1\]
*820 w_ptr_g_sync1\[2\]
*821 w_ptr_g_sync1\[3\]
*822 w_ptr_g_sync1\[4\]
*823 w_ptr_g_sync2\[0\]
*824 w_ptr_g_sync2\[1\]
*825 w_ptr_g_sync2\[2\]
*826 w_ptr_g_sync2\[3\]
*827 w_ptr_g_sync2\[4\]
*828 ANTENNA_1
*829 FILLER_0_0_109
*830 FILLER_0_0_113
*831 FILLER_0_0_125
*832 FILLER_0_0_137
*833 FILLER_0_0_141
*834 FILLER_0_0_153
*835 FILLER_0_0_165
*836 FILLER_0_0_175
*837 FILLER_0_0_187
*838 FILLER_0_0_19
*839 FILLER_0_0_195
*840 FILLER_0_0_197
*841 FILLER_0_0_209
*842 FILLER_0_0_221
*843 FILLER_0_0_225
*844 FILLER_0_0_237
*845 FILLER_0_0_249
*846 FILLER_0_0_253
*847 FILLER_0_0_261
*848 FILLER_0_0_27
*849 FILLER_0_0_273
*850 FILLER_0_0_279
*851 FILLER_0_0_281
*852 FILLER_0_0_29
*853 FILLER_0_0_293
*854 FILLER_0_0_305
*855 FILLER_0_0_309
*856 FILLER_0_0_321
*857 FILLER_0_0_333
*858 FILLER_0_0_337
*859 FILLER_0_0_345
*860 FILLER_0_0_357
*861 FILLER_0_0_363
*862 FILLER_0_0_365
*863 FILLER_0_0_377
*864 FILLER_0_0_389
*865 FILLER_0_0_393
*866 FILLER_0_0_405
*867 FILLER_0_0_41
*868 FILLER_0_0_417
*869 FILLER_0_0_421
*870 FILLER_0_0_429
*871 FILLER_0_0_436
*872 FILLER_0_0_449
*873 FILLER_0_0_461
*874 FILLER_0_0_473
*875 FILLER_0_0_477
*876 FILLER_0_0_489
*877 FILLER_0_0_501
*878 FILLER_0_0_53
*879 FILLER_0_0_57
*880 FILLER_0_0_69
*881 FILLER_0_0_7
*882 FILLER_0_0_77
*883 FILLER_0_0_83
*884 FILLER_0_0_85
*885 FILLER_0_0_97
*886 FILLER_0_10_109
*887 FILLER_0_10_121
*888 FILLER_0_10_133
*889 FILLER_0_10_139
*890 FILLER_0_10_141
*891 FILLER_0_10_15
*892 FILLER_0_10_153
*893 FILLER_0_10_165
*894 FILLER_0_10_177
*895 FILLER_0_10_189
*896 FILLER_0_10_195
*897 FILLER_0_10_197
*898 FILLER_0_10_209
*899 FILLER_0_10_221
*900 FILLER_0_10_233
*901 FILLER_0_10_245
*902 FILLER_0_10_251
*903 FILLER_0_10_253
*904 FILLER_0_10_265
*905 FILLER_0_10_27
*906 FILLER_0_10_277
*907 FILLER_0_10_289
*908 FILLER_0_10_29
*909 FILLER_0_10_3
*910 FILLER_0_10_301
*911 FILLER_0_10_307
*912 FILLER_0_10_309
*913 FILLER_0_10_321
*914 FILLER_0_10_333
*915 FILLER_0_10_345
*916 FILLER_0_10_357
*917 FILLER_0_10_363
*918 FILLER_0_10_365
*919 FILLER_0_10_377
*920 FILLER_0_10_389
*921 FILLER_0_10_401
*922 FILLER_0_10_41
*923 FILLER_0_10_413
*924 FILLER_0_10_419
*925 FILLER_0_10_421
*926 FILLER_0_10_433
*927 FILLER_0_10_445
*928 FILLER_0_10_457
*929 FILLER_0_10_469
*930 FILLER_0_10_475
*931 FILLER_0_10_477
*932 FILLER_0_10_489
*933 FILLER_0_10_501
*934 FILLER_0_10_513
*935 FILLER_0_10_53
*936 FILLER_0_10_65
*937 FILLER_0_10_77
*938 FILLER_0_10_83
*939 FILLER_0_10_85
*940 FILLER_0_10_97
*941 FILLER_0_11_105
*942 FILLER_0_11_111
*943 FILLER_0_11_113
*944 FILLER_0_11_125
*945 FILLER_0_11_137
*946 FILLER_0_11_149
*947 FILLER_0_11_161
*948 FILLER_0_11_167
*949 FILLER_0_11_169
*950 FILLER_0_11_181
*951 FILLER_0_11_193
*952 FILLER_0_11_205
*953 FILLER_0_11_21
*954 FILLER_0_11_217
*955 FILLER_0_11_223
*956 FILLER_0_11_225
*957 FILLER_0_11_237
*958 FILLER_0_11_249
*959 FILLER_0_11_261
*960 FILLER_0_11_273
*961 FILLER_0_11_279
*962 FILLER_0_11_281
*963 FILLER_0_11_293
*964 FILLER_0_11_305
*965 FILLER_0_11_317
*966 FILLER_0_11_329
*967 FILLER_0_11_33
*968 FILLER_0_11_335
*969 FILLER_0_11_337
*970 FILLER_0_11_349
*971 FILLER_0_11_361
*972 FILLER_0_11_373
*973 FILLER_0_11_385
*974 FILLER_0_11_391
*975 FILLER_0_11_393
*976 FILLER_0_11_405
*977 FILLER_0_11_417
*978 FILLER_0_11_429
*979 FILLER_0_11_441
*980 FILLER_0_11_447
*981 FILLER_0_11_449
*982 FILLER_0_11_45
*983 FILLER_0_11_461
*984 FILLER_0_11_473
*985 FILLER_0_11_485
*986 FILLER_0_11_497
*987 FILLER_0_11_503
*988 FILLER_0_11_505
*989 FILLER_0_11_513
*990 FILLER_0_11_53
*991 FILLER_0_11_57
*992 FILLER_0_11_69
*993 FILLER_0_11_81
*994 FILLER_0_11_9
*995 FILLER_0_11_93
*996 FILLER_0_12_109
*997 FILLER_0_12_121
*998 FILLER_0_12_133
*999 FILLER_0_12_139
*1000 FILLER_0_12_141
*1001 FILLER_0_12_15
*1002 FILLER_0_12_153
*1003 FILLER_0_12_165
*1004 FILLER_0_12_177
*1005 FILLER_0_12_189
*1006 FILLER_0_12_195
*1007 FILLER_0_12_197
*1008 FILLER_0_12_209
*1009 FILLER_0_12_221
*1010 FILLER_0_12_233
*1011 FILLER_0_12_245
*1012 FILLER_0_12_251
*1013 FILLER_0_12_253
*1014 FILLER_0_12_265
*1015 FILLER_0_12_27
*1016 FILLER_0_12_277
*1017 FILLER_0_12_289
*1018 FILLER_0_12_29
*1019 FILLER_0_12_3
*1020 FILLER_0_12_301
*1021 FILLER_0_12_307
*1022 FILLER_0_12_309
*1023 FILLER_0_12_321
*1024 FILLER_0_12_333
*1025 FILLER_0_12_345
*1026 FILLER_0_12_357
*1027 FILLER_0_12_363
*1028 FILLER_0_12_365
*1029 FILLER_0_12_377
*1030 FILLER_0_12_389
*1031 FILLER_0_12_401
*1032 FILLER_0_12_41
*1033 FILLER_0_12_413
*1034 FILLER_0_12_419
*1035 FILLER_0_12_421
*1036 FILLER_0_12_433
*1037 FILLER_0_12_445
*1038 FILLER_0_12_457
*1039 FILLER_0_12_469
*1040 FILLER_0_12_475
*1041 FILLER_0_12_477
*1042 FILLER_0_12_489
*1043 FILLER_0_12_501
*1044 FILLER_0_12_513
*1045 FILLER_0_12_53
*1046 FILLER_0_12_65
*1047 FILLER_0_12_77
*1048 FILLER_0_12_83
*1049 FILLER_0_12_85
*1050 FILLER_0_12_97
*1051 FILLER_0_13_105
*1052 FILLER_0_13_111
*1053 FILLER_0_13_113
*1054 FILLER_0_13_125
*1055 FILLER_0_13_137
*1056 FILLER_0_13_149
*1057 FILLER_0_13_15
*1058 FILLER_0_13_161
*1059 FILLER_0_13_167
*1060 FILLER_0_13_169
*1061 FILLER_0_13_181
*1062 FILLER_0_13_193
*1063 FILLER_0_13_205
*1064 FILLER_0_13_217
*1065 FILLER_0_13_223
*1066 FILLER_0_13_225
*1067 FILLER_0_13_237
*1068 FILLER_0_13_249
*1069 FILLER_0_13_261
*1070 FILLER_0_13_27
*1071 FILLER_0_13_273
*1072 FILLER_0_13_279
*1073 FILLER_0_13_281
*1074 FILLER_0_13_293
*1075 FILLER_0_13_3
*1076 FILLER_0_13_305
*1077 FILLER_0_13_317
*1078 FILLER_0_13_329
*1079 FILLER_0_13_335
*1080 FILLER_0_13_337
*1081 FILLER_0_13_349
*1082 FILLER_0_13_361
*1083 FILLER_0_13_373
*1084 FILLER_0_13_385
*1085 FILLER_0_13_39
*1086 FILLER_0_13_391
*1087 FILLER_0_13_393
*1088 FILLER_0_13_405
*1089 FILLER_0_13_417
*1090 FILLER_0_13_429
*1091 FILLER_0_13_441
*1092 FILLER_0_13_447
*1093 FILLER_0_13_449
*1094 FILLER_0_13_461
*1095 FILLER_0_13_473
*1096 FILLER_0_13_485
*1097 FILLER_0_13_497
*1098 FILLER_0_13_503
*1099 FILLER_0_13_505
*1100 FILLER_0_13_51
*1101 FILLER_0_13_513
*1102 FILLER_0_13_55
*1103 FILLER_0_13_57
*1104 FILLER_0_13_69
*1105 FILLER_0_13_81
*1106 FILLER_0_13_93
*1107 FILLER_0_14_109
*1108 FILLER_0_14_121
*1109 FILLER_0_14_133
*1110 FILLER_0_14_139
*1111 FILLER_0_14_141
*1112 FILLER_0_14_15
*1113 FILLER_0_14_153
*1114 FILLER_0_14_165
*1115 FILLER_0_14_177
*1116 FILLER_0_14_189
*1117 FILLER_0_14_195
*1118 FILLER_0_14_197
*1119 FILLER_0_14_209
*1120 FILLER_0_14_221
*1121 FILLER_0_14_233
*1122 FILLER_0_14_245
*1123 FILLER_0_14_251
*1124 FILLER_0_14_253
*1125 FILLER_0_14_265
*1126 FILLER_0_14_27
*1127 FILLER_0_14_277
*1128 FILLER_0_14_289
*1129 FILLER_0_14_29
*1130 FILLER_0_14_3
*1131 FILLER_0_14_301
*1132 FILLER_0_14_307
*1133 FILLER_0_14_309
*1134 FILLER_0_14_321
*1135 FILLER_0_14_333
*1136 FILLER_0_14_345
*1137 FILLER_0_14_357
*1138 FILLER_0_14_363
*1139 FILLER_0_14_365
*1140 FILLER_0_14_377
*1141 FILLER_0_14_389
*1142 FILLER_0_14_401
*1143 FILLER_0_14_41
*1144 FILLER_0_14_413
*1145 FILLER_0_14_419
*1146 FILLER_0_14_421
*1147 FILLER_0_14_433
*1148 FILLER_0_14_445
*1149 FILLER_0_14_457
*1150 FILLER_0_14_469
*1151 FILLER_0_14_475
*1152 FILLER_0_14_477
*1153 FILLER_0_14_489
*1154 FILLER_0_14_501
*1155 FILLER_0_14_513
*1156 FILLER_0_14_53
*1157 FILLER_0_14_65
*1158 FILLER_0_14_77
*1159 FILLER_0_14_83
*1160 FILLER_0_14_85
*1161 FILLER_0_14_97
*1162 FILLER_0_15_105
*1163 FILLER_0_15_111
*1164 FILLER_0_15_113
*1165 FILLER_0_15_125
*1166 FILLER_0_15_137
*1167 FILLER_0_15_149
*1168 FILLER_0_15_15
*1169 FILLER_0_15_161
*1170 FILLER_0_15_167
*1171 FILLER_0_15_169
*1172 FILLER_0_15_181
*1173 FILLER_0_15_193
*1174 FILLER_0_15_205
*1175 FILLER_0_15_217
*1176 FILLER_0_15_223
*1177 FILLER_0_15_225
*1178 FILLER_0_15_237
*1179 FILLER_0_15_249
*1180 FILLER_0_15_261
*1181 FILLER_0_15_27
*1182 FILLER_0_15_273
*1183 FILLER_0_15_279
*1184 FILLER_0_15_281
*1185 FILLER_0_15_293
*1186 FILLER_0_15_3
*1187 FILLER_0_15_305
*1188 FILLER_0_15_317
*1189 FILLER_0_15_329
*1190 FILLER_0_15_335
*1191 FILLER_0_15_337
*1192 FILLER_0_15_349
*1193 FILLER_0_15_361
*1194 FILLER_0_15_373
*1195 FILLER_0_15_385
*1196 FILLER_0_15_39
*1197 FILLER_0_15_391
*1198 FILLER_0_15_393
*1199 FILLER_0_15_405
*1200 FILLER_0_15_417
*1201 FILLER_0_15_429
*1202 FILLER_0_15_441
*1203 FILLER_0_15_447
*1204 FILLER_0_15_449
*1205 FILLER_0_15_461
*1206 FILLER_0_15_473
*1207 FILLER_0_15_485
*1208 FILLER_0_15_497
*1209 FILLER_0_15_503
*1210 FILLER_0_15_505
*1211 FILLER_0_15_51
*1212 FILLER_0_15_513
*1213 FILLER_0_15_55
*1214 FILLER_0_15_57
*1215 FILLER_0_15_69
*1216 FILLER_0_15_81
*1217 FILLER_0_15_93
*1218 FILLER_0_16_109
*1219 FILLER_0_16_121
*1220 FILLER_0_16_133
*1221 FILLER_0_16_139
*1222 FILLER_0_16_141
*1223 FILLER_0_16_15
*1224 FILLER_0_16_153
*1225 FILLER_0_16_165
*1226 FILLER_0_16_177
*1227 FILLER_0_16_189
*1228 FILLER_0_16_195
*1229 FILLER_0_16_197
*1230 FILLER_0_16_209
*1231 FILLER_0_16_221
*1232 FILLER_0_16_229
*1233 FILLER_0_16_239
*1234 FILLER_0_16_251
*1235 FILLER_0_16_256
*1236 FILLER_0_16_268
*1237 FILLER_0_16_27
*1238 FILLER_0_16_280
*1239 FILLER_0_16_29
*1240 FILLER_0_16_292
*1241 FILLER_0_16_3
*1242 FILLER_0_16_304
*1243 FILLER_0_16_309
*1244 FILLER_0_16_321
*1245 FILLER_0_16_333
*1246 FILLER_0_16_345
*1247 FILLER_0_16_357
*1248 FILLER_0_16_363
*1249 FILLER_0_16_365
*1250 FILLER_0_16_377
*1251 FILLER_0_16_389
*1252 FILLER_0_16_401
*1253 FILLER_0_16_41
*1254 FILLER_0_16_413
*1255 FILLER_0_16_419
*1256 FILLER_0_16_421
*1257 FILLER_0_16_433
*1258 FILLER_0_16_445
*1259 FILLER_0_16_457
*1260 FILLER_0_16_469
*1261 FILLER_0_16_475
*1262 FILLER_0_16_477
*1263 FILLER_0_16_489
*1264 FILLER_0_16_501
*1265 FILLER_0_16_513
*1266 FILLER_0_16_53
*1267 FILLER_0_16_65
*1268 FILLER_0_16_77
*1269 FILLER_0_16_83
*1270 FILLER_0_16_85
*1271 FILLER_0_16_97
*1272 FILLER_0_17_105
*1273 FILLER_0_17_111
*1274 FILLER_0_17_113
*1275 FILLER_0_17_125
*1276 FILLER_0_17_137
*1277 FILLER_0_17_149
*1278 FILLER_0_17_15
*1279 FILLER_0_17_161
*1280 FILLER_0_17_167
*1281 FILLER_0_17_169
*1282 FILLER_0_17_181
*1283 FILLER_0_17_198
*1284 FILLER_0_17_202
*1285 FILLER_0_17_212
*1286 FILLER_0_17_241
*1287 FILLER_0_17_263
*1288 FILLER_0_17_27
*1289 FILLER_0_17_275
*1290 FILLER_0_17_279
*1291 FILLER_0_17_281
*1292 FILLER_0_17_293
*1293 FILLER_0_17_3
*1294 FILLER_0_17_305
*1295 FILLER_0_17_317
*1296 FILLER_0_17_329
*1297 FILLER_0_17_335
*1298 FILLER_0_17_337
*1299 FILLER_0_17_349
*1300 FILLER_0_17_361
*1301 FILLER_0_17_373
*1302 FILLER_0_17_385
*1303 FILLER_0_17_39
*1304 FILLER_0_17_391
*1305 FILLER_0_17_393
*1306 FILLER_0_17_405
*1307 FILLER_0_17_417
*1308 FILLER_0_17_429
*1309 FILLER_0_17_441
*1310 FILLER_0_17_447
*1311 FILLER_0_17_449
*1312 FILLER_0_17_461
*1313 FILLER_0_17_473
*1314 FILLER_0_17_485
*1315 FILLER_0_17_497
*1316 FILLER_0_17_503
*1317 FILLER_0_17_505
*1318 FILLER_0_17_51
*1319 FILLER_0_17_513
*1320 FILLER_0_17_55
*1321 FILLER_0_17_57
*1322 FILLER_0_17_69
*1323 FILLER_0_17_81
*1324 FILLER_0_17_93
*1325 FILLER_0_18_109
*1326 FILLER_0_18_121
*1327 FILLER_0_18_133
*1328 FILLER_0_18_139
*1329 FILLER_0_18_141
*1330 FILLER_0_18_15
*1331 FILLER_0_18_151
*1332 FILLER_0_18_159
*1333 FILLER_0_18_163
*1334 FILLER_0_18_175
*1335 FILLER_0_18_179
*1336 FILLER_0_18_197
*1337 FILLER_0_18_214
*1338 FILLER_0_18_242
*1339 FILLER_0_18_27
*1340 FILLER_0_18_277
*1341 FILLER_0_18_289
*1342 FILLER_0_18_29
*1343 FILLER_0_18_3
*1344 FILLER_0_18_301
*1345 FILLER_0_18_307
*1346 FILLER_0_18_309
*1347 FILLER_0_18_321
*1348 FILLER_0_18_333
*1349 FILLER_0_18_345
*1350 FILLER_0_18_357
*1351 FILLER_0_18_363
*1352 FILLER_0_18_365
*1353 FILLER_0_18_377
*1354 FILLER_0_18_389
*1355 FILLER_0_18_401
*1356 FILLER_0_18_41
*1357 FILLER_0_18_413
*1358 FILLER_0_18_419
*1359 FILLER_0_18_421
*1360 FILLER_0_18_433
*1361 FILLER_0_18_445
*1362 FILLER_0_18_457
*1363 FILLER_0_18_469
*1364 FILLER_0_18_475
*1365 FILLER_0_18_477
*1366 FILLER_0_18_489
*1367 FILLER_0_18_501
*1368 FILLER_0_18_513
*1369 FILLER_0_18_53
*1370 FILLER_0_18_65
*1371 FILLER_0_18_77
*1372 FILLER_0_18_83
*1373 FILLER_0_18_85
*1374 FILLER_0_18_97
*1375 FILLER_0_19_105
*1376 FILLER_0_19_111
*1377 FILLER_0_19_113
*1378 FILLER_0_19_125
*1379 FILLER_0_19_131
*1380 FILLER_0_19_15
*1381 FILLER_0_19_151
*1382 FILLER_0_19_185
*1383 FILLER_0_19_193
*1384 FILLER_0_19_206
*1385 FILLER_0_19_210
*1386 FILLER_0_19_219
*1387 FILLER_0_19_223
*1388 FILLER_0_19_225
*1389 FILLER_0_19_27
*1390 FILLER_0_19_276
*1391 FILLER_0_19_289
*1392 FILLER_0_19_3
*1393 FILLER_0_19_301
*1394 FILLER_0_19_313
*1395 FILLER_0_19_325
*1396 FILLER_0_19_333
*1397 FILLER_0_19_337
*1398 FILLER_0_19_349
*1399 FILLER_0_19_361
*1400 FILLER_0_19_373
*1401 FILLER_0_19_385
*1402 FILLER_0_19_39
*1403 FILLER_0_19_391
*1404 FILLER_0_19_393
*1405 FILLER_0_19_405
*1406 FILLER_0_19_417
*1407 FILLER_0_19_429
*1408 FILLER_0_19_441
*1409 FILLER_0_19_447
*1410 FILLER_0_19_449
*1411 FILLER_0_19_461
*1412 FILLER_0_19_473
*1413 FILLER_0_19_485
*1414 FILLER_0_19_497
*1415 FILLER_0_19_503
*1416 FILLER_0_19_505
*1417 FILLER_0_19_51
*1418 FILLER_0_19_513
*1419 FILLER_0_19_55
*1420 FILLER_0_19_57
*1421 FILLER_0_19_69
*1422 FILLER_0_19_81
*1423 FILLER_0_19_93
*1424 FILLER_0_1_105
*1425 FILLER_0_1_111
*1426 FILLER_0_1_113
*1427 FILLER_0_1_125
*1428 FILLER_0_1_137
*1429 FILLER_0_1_149
*1430 FILLER_0_1_15
*1431 FILLER_0_1_161
*1432 FILLER_0_1_167
*1433 FILLER_0_1_169
*1434 FILLER_0_1_181
*1435 FILLER_0_1_193
*1436 FILLER_0_1_205
*1437 FILLER_0_1_217
*1438 FILLER_0_1_223
*1439 FILLER_0_1_225
*1440 FILLER_0_1_237
*1441 FILLER_0_1_249
*1442 FILLER_0_1_261
*1443 FILLER_0_1_27
*1444 FILLER_0_1_273
*1445 FILLER_0_1_279
*1446 FILLER_0_1_281
*1447 FILLER_0_1_293
*1448 FILLER_0_1_3
*1449 FILLER_0_1_305
*1450 FILLER_0_1_317
*1451 FILLER_0_1_329
*1452 FILLER_0_1_335
*1453 FILLER_0_1_337
*1454 FILLER_0_1_349
*1455 FILLER_0_1_361
*1456 FILLER_0_1_373
*1457 FILLER_0_1_385
*1458 FILLER_0_1_39
*1459 FILLER_0_1_391
*1460 FILLER_0_1_393
*1461 FILLER_0_1_405
*1462 FILLER_0_1_417
*1463 FILLER_0_1_429
*1464 FILLER_0_1_441
*1465 FILLER_0_1_447
*1466 FILLER_0_1_449
*1467 FILLER_0_1_461
*1468 FILLER_0_1_473
*1469 FILLER_0_1_485
*1470 FILLER_0_1_497
*1471 FILLER_0_1_503
*1472 FILLER_0_1_505
*1473 FILLER_0_1_51
*1474 FILLER_0_1_513
*1475 FILLER_0_1_55
*1476 FILLER_0_1_57
*1477 FILLER_0_1_69
*1478 FILLER_0_1_81
*1479 FILLER_0_1_93
*1480 FILLER_0_20_109
*1481 FILLER_0_20_121
*1482 FILLER_0_20_129
*1483 FILLER_0_20_15
*1484 FILLER_0_20_195
*1485 FILLER_0_20_214
*1486 FILLER_0_20_226
*1487 FILLER_0_20_241
*1488 FILLER_0_20_249
*1489 FILLER_0_20_253
*1490 FILLER_0_20_261
*1491 FILLER_0_20_265
*1492 FILLER_0_20_27
*1493 FILLER_0_20_277
*1494 FILLER_0_20_289
*1495 FILLER_0_20_29
*1496 FILLER_0_20_3
*1497 FILLER_0_20_301
*1498 FILLER_0_20_307
*1499 FILLER_0_20_309
*1500 FILLER_0_20_321
*1501 FILLER_0_20_333
*1502 FILLER_0_20_345
*1503 FILLER_0_20_357
*1504 FILLER_0_20_363
*1505 FILLER_0_20_365
*1506 FILLER_0_20_377
*1507 FILLER_0_20_389
*1508 FILLER_0_20_401
*1509 FILLER_0_20_41
*1510 FILLER_0_20_413
*1511 FILLER_0_20_419
*1512 FILLER_0_20_421
*1513 FILLER_0_20_433
*1514 FILLER_0_20_445
*1515 FILLER_0_20_457
*1516 FILLER_0_20_469
*1517 FILLER_0_20_475
*1518 FILLER_0_20_477
*1519 FILLER_0_20_489
*1520 FILLER_0_20_501
*1521 FILLER_0_20_513
*1522 FILLER_0_20_53
*1523 FILLER_0_20_65
*1524 FILLER_0_20_77
*1525 FILLER_0_20_83
*1526 FILLER_0_20_85
*1527 FILLER_0_20_97
*1528 FILLER_0_21_105
*1529 FILLER_0_21_111
*1530 FILLER_0_21_124
*1531 FILLER_0_21_136
*1532 FILLER_0_21_140
*1533 FILLER_0_21_15
*1534 FILLER_0_21_161
*1535 FILLER_0_21_178
*1536 FILLER_0_21_216
*1537 FILLER_0_21_225
*1538 FILLER_0_21_238
*1539 FILLER_0_21_250
*1540 FILLER_0_21_262
*1541 FILLER_0_21_27
*1542 FILLER_0_21_273
*1543 FILLER_0_21_279
*1544 FILLER_0_21_281
*1545 FILLER_0_21_293
*1546 FILLER_0_21_3
*1547 FILLER_0_21_305
*1548 FILLER_0_21_317
*1549 FILLER_0_21_329
*1550 FILLER_0_21_335
*1551 FILLER_0_21_337
*1552 FILLER_0_21_349
*1553 FILLER_0_21_361
*1554 FILLER_0_21_373
*1555 FILLER_0_21_385
*1556 FILLER_0_21_39
*1557 FILLER_0_21_391
*1558 FILLER_0_21_393
*1559 FILLER_0_21_405
*1560 FILLER_0_21_417
*1561 FILLER_0_21_429
*1562 FILLER_0_21_441
*1563 FILLER_0_21_447
*1564 FILLER_0_21_449
*1565 FILLER_0_21_461
*1566 FILLER_0_21_473
*1567 FILLER_0_21_485
*1568 FILLER_0_21_497
*1569 FILLER_0_21_503
*1570 FILLER_0_21_505
*1571 FILLER_0_21_51
*1572 FILLER_0_21_513
*1573 FILLER_0_21_55
*1574 FILLER_0_21_57
*1575 FILLER_0_21_69
*1576 FILLER_0_21_81
*1577 FILLER_0_21_93
*1578 FILLER_0_22_101
*1579 FILLER_0_22_138
*1580 FILLER_0_22_15
*1581 FILLER_0_22_150
*1582 FILLER_0_22_162
*1583 FILLER_0_22_170
*1584 FILLER_0_22_179
*1585 FILLER_0_22_191
*1586 FILLER_0_22_197
*1587 FILLER_0_22_214
*1588 FILLER_0_22_221
*1589 FILLER_0_22_262
*1590 FILLER_0_22_27
*1591 FILLER_0_22_288
*1592 FILLER_0_22_29
*1593 FILLER_0_22_3
*1594 FILLER_0_22_300
*1595 FILLER_0_22_309
*1596 FILLER_0_22_321
*1597 FILLER_0_22_333
*1598 FILLER_0_22_345
*1599 FILLER_0_22_357
*1600 FILLER_0_22_363
*1601 FILLER_0_22_365
*1602 FILLER_0_22_377
*1603 FILLER_0_22_389
*1604 FILLER_0_22_401
*1605 FILLER_0_22_41
*1606 FILLER_0_22_413
*1607 FILLER_0_22_419
*1608 FILLER_0_22_421
*1609 FILLER_0_22_433
*1610 FILLER_0_22_445
*1611 FILLER_0_22_457
*1612 FILLER_0_22_469
*1613 FILLER_0_22_475
*1614 FILLER_0_22_477
*1615 FILLER_0_22_489
*1616 FILLER_0_22_501
*1617 FILLER_0_22_513
*1618 FILLER_0_22_53
*1619 FILLER_0_22_65
*1620 FILLER_0_22_77
*1621 FILLER_0_22_83
*1622 FILLER_0_22_85
*1623 FILLER_0_22_97
*1624 FILLER_0_23_116
*1625 FILLER_0_23_15
*1626 FILLER_0_23_163
*1627 FILLER_0_23_167
*1628 FILLER_0_23_169
*1629 FILLER_0_23_181
*1630 FILLER_0_23_193
*1631 FILLER_0_23_201
*1632 FILLER_0_23_241
*1633 FILLER_0_23_245
*1634 FILLER_0_23_27
*1635 FILLER_0_23_278
*1636 FILLER_0_23_281
*1637 FILLER_0_23_293
*1638 FILLER_0_23_3
*1639 FILLER_0_23_305
*1640 FILLER_0_23_317
*1641 FILLER_0_23_329
*1642 FILLER_0_23_335
*1643 FILLER_0_23_337
*1644 FILLER_0_23_349
*1645 FILLER_0_23_361
*1646 FILLER_0_23_373
*1647 FILLER_0_23_385
*1648 FILLER_0_23_39
*1649 FILLER_0_23_391
*1650 FILLER_0_23_393
*1651 FILLER_0_23_405
*1652 FILLER_0_23_417
*1653 FILLER_0_23_429
*1654 FILLER_0_23_441
*1655 FILLER_0_23_447
*1656 FILLER_0_23_449
*1657 FILLER_0_23_461
*1658 FILLER_0_23_473
*1659 FILLER_0_23_485
*1660 FILLER_0_23_497
*1661 FILLER_0_23_503
*1662 FILLER_0_23_505
*1663 FILLER_0_23_51
*1664 FILLER_0_23_513
*1665 FILLER_0_23_55
*1666 FILLER_0_23_57
*1667 FILLER_0_23_69
*1668 FILLER_0_23_81
*1669 FILLER_0_24_113
*1670 FILLER_0_24_128
*1671 FILLER_0_24_141
*1672 FILLER_0_24_15
*1673 FILLER_0_24_153
*1674 FILLER_0_24_157
*1675 FILLER_0_24_174
*1676 FILLER_0_24_186
*1677 FILLER_0_24_194
*1678 FILLER_0_24_197
*1679 FILLER_0_24_209
*1680 FILLER_0_24_221
*1681 FILLER_0_24_244
*1682 FILLER_0_24_269
*1683 FILLER_0_24_27
*1684 FILLER_0_24_281
*1685 FILLER_0_24_29
*1686 FILLER_0_24_293
*1687 FILLER_0_24_3
*1688 FILLER_0_24_305
*1689 FILLER_0_24_309
*1690 FILLER_0_24_321
*1691 FILLER_0_24_333
*1692 FILLER_0_24_345
*1693 FILLER_0_24_357
*1694 FILLER_0_24_363
*1695 FILLER_0_24_365
*1696 FILLER_0_24_377
*1697 FILLER_0_24_389
*1698 FILLER_0_24_401
*1699 FILLER_0_24_41
*1700 FILLER_0_24_413
*1701 FILLER_0_24_419
*1702 FILLER_0_24_421
*1703 FILLER_0_24_433
*1704 FILLER_0_24_445
*1705 FILLER_0_24_457
*1706 FILLER_0_24_469
*1707 FILLER_0_24_475
*1708 FILLER_0_24_477
*1709 FILLER_0_24_489
*1710 FILLER_0_24_501
*1711 FILLER_0_24_513
*1712 FILLER_0_24_53
*1713 FILLER_0_24_65
*1714 FILLER_0_24_77
*1715 FILLER_0_24_83
*1716 FILLER_0_24_85
*1717 FILLER_0_25_101
*1718 FILLER_0_25_121
*1719 FILLER_0_25_133
*1720 FILLER_0_25_145
*1721 FILLER_0_25_15
*1722 FILLER_0_25_153
*1723 FILLER_0_25_193
*1724 FILLER_0_25_214
*1725 FILLER_0_25_222
*1726 FILLER_0_25_225
*1727 FILLER_0_25_236
*1728 FILLER_0_25_248
*1729 FILLER_0_25_260
*1730 FILLER_0_25_268
*1731 FILLER_0_25_27
*1732 FILLER_0_25_281
*1733 FILLER_0_25_293
*1734 FILLER_0_25_3
*1735 FILLER_0_25_305
*1736 FILLER_0_25_317
*1737 FILLER_0_25_329
*1738 FILLER_0_25_335
*1739 FILLER_0_25_346
*1740 FILLER_0_25_358
*1741 FILLER_0_25_370
*1742 FILLER_0_25_382
*1743 FILLER_0_25_39
*1744 FILLER_0_25_390
*1745 FILLER_0_25_393
*1746 FILLER_0_25_405
*1747 FILLER_0_25_417
*1748 FILLER_0_25_429
*1749 FILLER_0_25_441
*1750 FILLER_0_25_447
*1751 FILLER_0_25_449
*1752 FILLER_0_25_461
*1753 FILLER_0_25_473
*1754 FILLER_0_25_485
*1755 FILLER_0_25_497
*1756 FILLER_0_25_503
*1757 FILLER_0_25_505
*1758 FILLER_0_25_51
*1759 FILLER_0_25_511
*1760 FILLER_0_25_55
*1761 FILLER_0_25_57
*1762 FILLER_0_25_69
*1763 FILLER_0_25_81
*1764 FILLER_0_25_93
*1765 FILLER_0_26_105
*1766 FILLER_0_26_117
*1767 FILLER_0_26_129
*1768 FILLER_0_26_15
*1769 FILLER_0_26_150
*1770 FILLER_0_26_156
*1771 FILLER_0_26_213
*1772 FILLER_0_26_221
*1773 FILLER_0_26_247
*1774 FILLER_0_26_251
*1775 FILLER_0_26_27
*1776 FILLER_0_26_29
*1777 FILLER_0_26_296
*1778 FILLER_0_26_3
*1779 FILLER_0_26_309
*1780 FILLER_0_26_329
*1781 FILLER_0_26_351
*1782 FILLER_0_26_363
*1783 FILLER_0_26_365
*1784 FILLER_0_26_37
*1785 FILLER_0_26_377
*1786 FILLER_0_26_389
*1787 FILLER_0_26_401
*1788 FILLER_0_26_413
*1789 FILLER_0_26_419
*1790 FILLER_0_26_421
*1791 FILLER_0_26_43
*1792 FILLER_0_26_433
*1793 FILLER_0_26_445
*1794 FILLER_0_26_457
*1795 FILLER_0_26_469
*1796 FILLER_0_26_475
*1797 FILLER_0_26_477
*1798 FILLER_0_26_489
*1799 FILLER_0_26_501
*1800 FILLER_0_26_513
*1801 FILLER_0_26_55
*1802 FILLER_0_26_68
*1803 FILLER_0_26_80
*1804 FILLER_0_27_101
*1805 FILLER_0_27_109
*1806 FILLER_0_27_113
*1807 FILLER_0_27_13
*1808 FILLER_0_27_132
*1809 FILLER_0_27_167
*1810 FILLER_0_27_169
*1811 FILLER_0_27_203
*1812 FILLER_0_27_214
*1813 FILLER_0_27_241
*1814 FILLER_0_27_25
*1815 FILLER_0_27_278
*1816 FILLER_0_27_289
*1817 FILLER_0_27_301
*1818 FILLER_0_27_322
*1819 FILLER_0_27_334
*1820 FILLER_0_27_340
*1821 FILLER_0_27_352
*1822 FILLER_0_27_364
*1823 FILLER_0_27_376
*1824 FILLER_0_27_388
*1825 FILLER_0_27_393
*1826 FILLER_0_27_405
*1827 FILLER_0_27_417
*1828 FILLER_0_27_429
*1829 FILLER_0_27_441
*1830 FILLER_0_27_447
*1831 FILLER_0_27_449
*1832 FILLER_0_27_461
*1833 FILLER_0_27_473
*1834 FILLER_0_27_485
*1835 FILLER_0_27_497
*1836 FILLER_0_27_503
*1837 FILLER_0_27_505
*1838 FILLER_0_27_513
*1839 FILLER_0_27_53
*1840 FILLER_0_27_64
*1841 FILLER_0_27_73
*1842 FILLER_0_27_81
*1843 FILLER_0_27_9
*1844 FILLER_0_28_105
*1845 FILLER_0_28_139
*1846 FILLER_0_28_171
*1847 FILLER_0_28_179
*1848 FILLER_0_28_190
*1849 FILLER_0_28_20
*1850 FILLER_0_28_205
*1851 FILLER_0_28_217
*1852 FILLER_0_28_225
*1853 FILLER_0_28_235
*1854 FILLER_0_28_244
*1855 FILLER_0_28_253
*1856 FILLER_0_28_263
*1857 FILLER_0_28_278
*1858 FILLER_0_28_29
*1859 FILLER_0_28_290
*1860 FILLER_0_28_3
*1861 FILLER_0_28_302
*1862 FILLER_0_28_309
*1863 FILLER_0_28_321
*1864 FILLER_0_28_333
*1865 FILLER_0_28_345
*1866 FILLER_0_28_357
*1867 FILLER_0_28_363
*1868 FILLER_0_28_365
*1869 FILLER_0_28_377
*1870 FILLER_0_28_389
*1871 FILLER_0_28_401
*1872 FILLER_0_28_41
*1873 FILLER_0_28_413
*1874 FILLER_0_28_419
*1875 FILLER_0_28_421
*1876 FILLER_0_28_433
*1877 FILLER_0_28_445
*1878 FILLER_0_28_457
*1879 FILLER_0_28_469
*1880 FILLER_0_28_475
*1881 FILLER_0_28_477
*1882 FILLER_0_28_489
*1883 FILLER_0_28_501
*1884 FILLER_0_28_513
*1885 FILLER_0_28_62
*1886 FILLER_0_28_68
*1887 FILLER_0_28_76
*1888 FILLER_0_29_122
*1889 FILLER_0_29_133
*1890 FILLER_0_29_155
*1891 FILLER_0_29_166
*1892 FILLER_0_29_169
*1893 FILLER_0_29_181
*1894 FILLER_0_29_193
*1895 FILLER_0_29_210
*1896 FILLER_0_29_222
*1897 FILLER_0_29_253
*1898 FILLER_0_29_264
*1899 FILLER_0_29_268
*1900 FILLER_0_29_289
*1901 FILLER_0_29_3
*1902 FILLER_0_29_301
*1903 FILLER_0_29_313
*1904 FILLER_0_29_325
*1905 FILLER_0_29_333
*1906 FILLER_0_29_353
*1907 FILLER_0_29_365
*1908 FILLER_0_29_377
*1909 FILLER_0_29_389
*1910 FILLER_0_29_39
*1911 FILLER_0_29_393
*1912 FILLER_0_29_405
*1913 FILLER_0_29_417
*1914 FILLER_0_29_429
*1915 FILLER_0_29_441
*1916 FILLER_0_29_447
*1917 FILLER_0_29_449
*1918 FILLER_0_29_461
*1919 FILLER_0_29_473
*1920 FILLER_0_29_485
*1921 FILLER_0_29_497
*1922 FILLER_0_29_503
*1923 FILLER_0_29_505
*1924 FILLER_0_29_51
*1925 FILLER_0_29_513
*1926 FILLER_0_29_55
*1927 FILLER_0_29_68
*1928 FILLER_0_29_88
*1929 FILLER_0_2_109
*1930 FILLER_0_2_121
*1931 FILLER_0_2_133
*1932 FILLER_0_2_139
*1933 FILLER_0_2_141
*1934 FILLER_0_2_15
*1935 FILLER_0_2_153
*1936 FILLER_0_2_165
*1937 FILLER_0_2_177
*1938 FILLER_0_2_189
*1939 FILLER_0_2_195
*1940 FILLER_0_2_197
*1941 FILLER_0_2_209
*1942 FILLER_0_2_221
*1943 FILLER_0_2_233
*1944 FILLER_0_2_245
*1945 FILLER_0_2_251
*1946 FILLER_0_2_253
*1947 FILLER_0_2_265
*1948 FILLER_0_2_27
*1949 FILLER_0_2_277
*1950 FILLER_0_2_289
*1951 FILLER_0_2_29
*1952 FILLER_0_2_3
*1953 FILLER_0_2_301
*1954 FILLER_0_2_307
*1955 FILLER_0_2_309
*1956 FILLER_0_2_321
*1957 FILLER_0_2_333
*1958 FILLER_0_2_345
*1959 FILLER_0_2_357
*1960 FILLER_0_2_363
*1961 FILLER_0_2_365
*1962 FILLER_0_2_377
*1963 FILLER_0_2_389
*1964 FILLER_0_2_401
*1965 FILLER_0_2_41
*1966 FILLER_0_2_413
*1967 FILLER_0_2_419
*1968 FILLER_0_2_421
*1969 FILLER_0_2_433
*1970 FILLER_0_2_445
*1971 FILLER_0_2_457
*1972 FILLER_0_2_469
*1973 FILLER_0_2_475
*1974 FILLER_0_2_477
*1975 FILLER_0_2_489
*1976 FILLER_0_2_501
*1977 FILLER_0_2_513
*1978 FILLER_0_2_53
*1979 FILLER_0_2_65
*1980 FILLER_0_2_77
*1981 FILLER_0_2_83
*1982 FILLER_0_2_85
*1983 FILLER_0_2_97
*1984 FILLER_0_30_109
*1985 FILLER_0_30_121
*1986 FILLER_0_30_134
*1987 FILLER_0_30_15
*1988 FILLER_0_30_150
*1989 FILLER_0_30_156
*1990 FILLER_0_30_181
*1991 FILLER_0_30_191
*1992 FILLER_0_30_195
*1993 FILLER_0_30_222
*1994 FILLER_0_30_248
*1995 FILLER_0_30_262
*1996 FILLER_0_30_27
*1997 FILLER_0_30_284
*1998 FILLER_0_30_296
*1999 FILLER_0_30_3
*2000 FILLER_0_30_309
*2001 FILLER_0_30_321
*2002 FILLER_0_30_339
*2003 FILLER_0_30_351
*2004 FILLER_0_30_36
*2005 FILLER_0_30_363
*2006 FILLER_0_30_365
*2007 FILLER_0_30_377
*2008 FILLER_0_30_389
*2009 FILLER_0_30_401
*2010 FILLER_0_30_413
*2011 FILLER_0_30_419
*2012 FILLER_0_30_421
*2013 FILLER_0_30_433
*2014 FILLER_0_30_445
*2015 FILLER_0_30_457
*2016 FILLER_0_30_469
*2017 FILLER_0_30_475
*2018 FILLER_0_30_477
*2019 FILLER_0_30_48
*2020 FILLER_0_30_489
*2021 FILLER_0_30_501
*2022 FILLER_0_30_513
*2023 FILLER_0_30_52
*2024 FILLER_0_30_56
*2025 FILLER_0_30_68
*2026 FILLER_0_30_74
*2027 FILLER_0_30_82
*2028 FILLER_0_30_85
*2029 FILLER_0_30_97
*2030 FILLER_0_31_100
*2031 FILLER_0_31_113
*2032 FILLER_0_31_124
*2033 FILLER_0_31_130
*2034 FILLER_0_31_139
*2035 FILLER_0_31_15
*2036 FILLER_0_31_152
*2037 FILLER_0_31_156
*2038 FILLER_0_31_169
*2039 FILLER_0_31_173
*2040 FILLER_0_31_219
*2041 FILLER_0_31_225
*2042 FILLER_0_31_242
*2043 FILLER_0_31_27
*2044 FILLER_0_31_277
*2045 FILLER_0_31_3
*2046 FILLER_0_31_308
*2047 FILLER_0_31_320
*2048 FILLER_0_31_332
*2049 FILLER_0_31_337
*2050 FILLER_0_31_349
*2051 FILLER_0_31_361
*2052 FILLER_0_31_373
*2053 FILLER_0_31_385
*2054 FILLER_0_31_39
*2055 FILLER_0_31_391
*2056 FILLER_0_31_393
*2057 FILLER_0_31_405
*2058 FILLER_0_31_417
*2059 FILLER_0_31_429
*2060 FILLER_0_31_441
*2061 FILLER_0_31_447
*2062 FILLER_0_31_449
*2063 FILLER_0_31_461
*2064 FILLER_0_31_473
*2065 FILLER_0_31_485
*2066 FILLER_0_31_497
*2067 FILLER_0_31_503
*2068 FILLER_0_31_505
*2069 FILLER_0_31_51
*2070 FILLER_0_31_513
*2071 FILLER_0_31_55
*2072 FILLER_0_31_85
*2073 FILLER_0_32_104
*2074 FILLER_0_32_135
*2075 FILLER_0_32_139
*2076 FILLER_0_32_141
*2077 FILLER_0_32_15
*2078 FILLER_0_32_152
*2079 FILLER_0_32_164
*2080 FILLER_0_32_176
*2081 FILLER_0_32_182
*2082 FILLER_0_32_197
*2083 FILLER_0_32_210
*2084 FILLER_0_32_214
*2085 FILLER_0_32_221
*2086 FILLER_0_32_245
*2087 FILLER_0_32_251
*2088 FILLER_0_32_269
*2089 FILLER_0_32_27
*2090 FILLER_0_32_281
*2091 FILLER_0_32_3
*2092 FILLER_0_32_305
*2093 FILLER_0_32_317
*2094 FILLER_0_32_325
*2095 FILLER_0_32_343
*2096 FILLER_0_32_355
*2097 FILLER_0_32_36
*2098 FILLER_0_32_363
*2099 FILLER_0_32_365
*2100 FILLER_0_32_377
*2101 FILLER_0_32_389
*2102 FILLER_0_32_401
*2103 FILLER_0_32_413
*2104 FILLER_0_32_419
*2105 FILLER_0_32_421
*2106 FILLER_0_32_433
*2107 FILLER_0_32_445
*2108 FILLER_0_32_457
*2109 FILLER_0_32_469
*2110 FILLER_0_32_475
*2111 FILLER_0_32_477
*2112 FILLER_0_32_489
*2113 FILLER_0_32_501
*2114 FILLER_0_32_513
*2115 FILLER_0_32_57
*2116 FILLER_0_32_69
*2117 FILLER_0_32_81
*2118 FILLER_0_32_91
*2119 FILLER_0_33_11
*2120 FILLER_0_33_113
*2121 FILLER_0_33_117
*2122 FILLER_0_33_135
*2123 FILLER_0_33_16
*2124 FILLER_0_33_165
*2125 FILLER_0_33_169
*2126 FILLER_0_33_179
*2127 FILLER_0_33_191
*2128 FILLER_0_33_20
*2129 FILLER_0_33_203
*2130 FILLER_0_33_215
*2131 FILLER_0_33_223
*2132 FILLER_0_33_225
*2133 FILLER_0_33_237
*2134 FILLER_0_33_246
*2135 FILLER_0_33_258
*2136 FILLER_0_33_273
*2137 FILLER_0_33_279
*2138 FILLER_0_33_281
*2139 FILLER_0_33_3
*2140 FILLER_0_33_30
*2141 FILLER_0_33_310
*2142 FILLER_0_33_322
*2143 FILLER_0_33_333
*2144 FILLER_0_33_354
*2145 FILLER_0_33_366
*2146 FILLER_0_33_378
*2147 FILLER_0_33_390
*2148 FILLER_0_33_393
*2149 FILLER_0_33_405
*2150 FILLER_0_33_417
*2151 FILLER_0_33_42
*2152 FILLER_0_33_429
*2153 FILLER_0_33_441
*2154 FILLER_0_33_447
*2155 FILLER_0_33_449
*2156 FILLER_0_33_461
*2157 FILLER_0_33_473
*2158 FILLER_0_33_485
*2159 FILLER_0_33_497
*2160 FILLER_0_33_503
*2161 FILLER_0_33_505
*2162 FILLER_0_33_513
*2163 FILLER_0_33_54
*2164 FILLER_0_33_57
*2165 FILLER_0_33_69
*2166 FILLER_0_33_81
*2167 FILLER_0_33_99
*2168 FILLER_0_34_112
*2169 FILLER_0_34_137
*2170 FILLER_0_34_141
*2171 FILLER_0_34_178
*2172 FILLER_0_34_214
*2173 FILLER_0_34_222
*2174 FILLER_0_34_250
*2175 FILLER_0_34_253
*2176 FILLER_0_34_26
*2177 FILLER_0_34_265
*2178 FILLER_0_34_282
*2179 FILLER_0_34_29
*2180 FILLER_0_34_3
*2181 FILLER_0_34_307
*2182 FILLER_0_34_309
*2183 FILLER_0_34_321
*2184 FILLER_0_34_342
*2185 FILLER_0_34_354
*2186 FILLER_0_34_362
*2187 FILLER_0_34_365
*2188 FILLER_0_34_377
*2189 FILLER_0_34_389
*2190 FILLER_0_34_401
*2191 FILLER_0_34_41
*2192 FILLER_0_34_413
*2193 FILLER_0_34_419
*2194 FILLER_0_34_421
*2195 FILLER_0_34_433
*2196 FILLER_0_34_445
*2197 FILLER_0_34_457
*2198 FILLER_0_34_469
*2199 FILLER_0_34_475
*2200 FILLER_0_34_477
*2201 FILLER_0_34_489
*2202 FILLER_0_34_501
*2203 FILLER_0_34_513
*2204 FILLER_0_34_73
*2205 FILLER_0_34_81
*2206 FILLER_0_34_85
*2207 FILLER_0_35_103
*2208 FILLER_0_35_111
*2209 FILLER_0_35_138
*2210 FILLER_0_35_15
*2211 FILLER_0_35_169
*2212 FILLER_0_35_177
*2213 FILLER_0_35_197
*2214 FILLER_0_35_21
*2215 FILLER_0_35_217
*2216 FILLER_0_35_223
*2217 FILLER_0_35_225
*2218 FILLER_0_35_265
*2219 FILLER_0_35_290
*2220 FILLER_0_35_3
*2221 FILLER_0_35_305
*2222 FILLER_0_35_332
*2223 FILLER_0_35_361
*2224 FILLER_0_35_373
*2225 FILLER_0_35_385
*2226 FILLER_0_35_391
*2227 FILLER_0_35_393
*2228 FILLER_0_35_405
*2229 FILLER_0_35_417
*2230 FILLER_0_35_429
*2231 FILLER_0_35_441
*2232 FILLER_0_35_447
*2233 FILLER_0_35_449
*2234 FILLER_0_35_461
*2235 FILLER_0_35_473
*2236 FILLER_0_35_485
*2237 FILLER_0_35_49
*2238 FILLER_0_35_497
*2239 FILLER_0_35_503
*2240 FILLER_0_35_505
*2241 FILLER_0_35_513
*2242 FILLER_0_35_55
*2243 FILLER_0_35_65
*2244 FILLER_0_35_73
*2245 FILLER_0_36_109
*2246 FILLER_0_36_121
*2247 FILLER_0_36_129
*2248 FILLER_0_36_161
*2249 FILLER_0_36_173
*2250 FILLER_0_36_181
*2251 FILLER_0_36_194
*2252 FILLER_0_36_205
*2253 FILLER_0_36_209
*2254 FILLER_0_36_250
*2255 FILLER_0_36_262
*2256 FILLER_0_36_29
*2257 FILLER_0_36_3
*2258 FILLER_0_36_307
*2259 FILLER_0_36_309
*2260 FILLER_0_36_314
*2261 FILLER_0_36_322
*2262 FILLER_0_36_345
*2263 FILLER_0_36_357
*2264 FILLER_0_36_363
*2265 FILLER_0_36_365
*2266 FILLER_0_36_377
*2267 FILLER_0_36_389
*2268 FILLER_0_36_401
*2269 FILLER_0_36_41
*2270 FILLER_0_36_413
*2271 FILLER_0_36_419
*2272 FILLER_0_36_421
*2273 FILLER_0_36_433
*2274 FILLER_0_36_445
*2275 FILLER_0_36_457
*2276 FILLER_0_36_469
*2277 FILLER_0_36_475
*2278 FILLER_0_36_477
*2279 FILLER_0_36_489
*2280 FILLER_0_36_501
*2281 FILLER_0_36_513
*2282 FILLER_0_36_7
*2283 FILLER_0_36_72
*2284 FILLER_0_36_85
*2285 FILLER_0_36_97
*2286 FILLER_0_37_113
*2287 FILLER_0_37_125
*2288 FILLER_0_37_129
*2289 FILLER_0_37_163
*2290 FILLER_0_37_167
*2291 FILLER_0_37_169
*2292 FILLER_0_37_173
*2293 FILLER_0_37_182
*2294 FILLER_0_37_194
*2295 FILLER_0_37_202
*2296 FILLER_0_37_23
*2297 FILLER_0_37_245
*2298 FILLER_0_37_265
*2299 FILLER_0_37_277
*2300 FILLER_0_37_281
*2301 FILLER_0_37_291
*2302 FILLER_0_37_299
*2303 FILLER_0_37_319
*2304 FILLER_0_37_331
*2305 FILLER_0_37_345
*2306 FILLER_0_37_35
*2307 FILLER_0_37_357
*2308 FILLER_0_37_369
*2309 FILLER_0_37_381
*2310 FILLER_0_37_389
*2311 FILLER_0_37_393
*2312 FILLER_0_37_405
*2313 FILLER_0_37_417
*2314 FILLER_0_37_429
*2315 FILLER_0_37_441
*2316 FILLER_0_37_447
*2317 FILLER_0_37_449
*2318 FILLER_0_37_461
*2319 FILLER_0_37_473
*2320 FILLER_0_37_485
*2321 FILLER_0_37_497
*2322 FILLER_0_37_503
*2323 FILLER_0_37_505
*2324 FILLER_0_37_513
*2325 FILLER_0_37_54
*2326 FILLER_0_37_57
*2327 FILLER_0_37_69
*2328 FILLER_0_37_90
*2329 FILLER_0_38_120
*2330 FILLER_0_38_132
*2331 FILLER_0_38_15
*2332 FILLER_0_38_185
*2333 FILLER_0_38_189
*2334 FILLER_0_38_193
*2335 FILLER_0_38_197
*2336 FILLER_0_38_201
*2337 FILLER_0_38_205
*2338 FILLER_0_38_213
*2339 FILLER_0_38_219
*2340 FILLER_0_38_231
*2341 FILLER_0_38_243
*2342 FILLER_0_38_251
*2343 FILLER_0_38_253
*2344 FILLER_0_38_265
*2345 FILLER_0_38_27
*2346 FILLER_0_38_274
*2347 FILLER_0_38_278
*2348 FILLER_0_38_29
*2349 FILLER_0_38_295
*2350 FILLER_0_38_3
*2351 FILLER_0_38_307
*2352 FILLER_0_38_309
*2353 FILLER_0_38_317
*2354 FILLER_0_38_345
*2355 FILLER_0_38_357
*2356 FILLER_0_38_363
*2357 FILLER_0_38_365
*2358 FILLER_0_38_37
*2359 FILLER_0_38_377
*2360 FILLER_0_38_389
*2361 FILLER_0_38_401
*2362 FILLER_0_38_413
*2363 FILLER_0_38_419
*2364 FILLER_0_38_421
*2365 FILLER_0_38_433
*2366 FILLER_0_38_445
*2367 FILLER_0_38_457
*2368 FILLER_0_38_469
*2369 FILLER_0_38_475
*2370 FILLER_0_38_477
*2371 FILLER_0_38_489
*2372 FILLER_0_38_501
*2373 FILLER_0_38_513
*2374 FILLER_0_38_66
*2375 FILLER_0_38_78
*2376 FILLER_0_38_85
*2377 FILLER_0_38_97
*2378 FILLER_0_39_102
*2379 FILLER_0_39_111
*2380 FILLER_0_39_113
*2381 FILLER_0_39_123
*2382 FILLER_0_39_135
*2383 FILLER_0_39_147
*2384 FILLER_0_39_15
*2385 FILLER_0_39_155
*2386 FILLER_0_39_169
*2387 FILLER_0_39_213
*2388 FILLER_0_39_222
*2389 FILLER_0_39_225
*2390 FILLER_0_39_234
*2391 FILLER_0_39_246
*2392 FILLER_0_39_261
*2393 FILLER_0_39_27
*2394 FILLER_0_39_293
*2395 FILLER_0_39_3
*2396 FILLER_0_39_325
*2397 FILLER_0_39_333
*2398 FILLER_0_39_337
*2399 FILLER_0_39_355
*2400 FILLER_0_39_367
*2401 FILLER_0_39_379
*2402 FILLER_0_39_391
*2403 FILLER_0_39_393
*2404 FILLER_0_39_405
*2405 FILLER_0_39_417
*2406 FILLER_0_39_429
*2407 FILLER_0_39_441
*2408 FILLER_0_39_447
*2409 FILLER_0_39_449
*2410 FILLER_0_39_461
*2411 FILLER_0_39_473
*2412 FILLER_0_39_485
*2413 FILLER_0_39_497
*2414 FILLER_0_39_503
*2415 FILLER_0_39_505
*2416 FILLER_0_39_513
*2417 FILLER_0_39_52
*2418 FILLER_0_39_66
*2419 FILLER_0_39_78
*2420 FILLER_0_39_90
*2421 FILLER_0_3_105
*2422 FILLER_0_3_111
*2423 FILLER_0_3_113
*2424 FILLER_0_3_125
*2425 FILLER_0_3_137
*2426 FILLER_0_3_149
*2427 FILLER_0_3_15
*2428 FILLER_0_3_161
*2429 FILLER_0_3_167
*2430 FILLER_0_3_169
*2431 FILLER_0_3_181
*2432 FILLER_0_3_193
*2433 FILLER_0_3_205
*2434 FILLER_0_3_217
*2435 FILLER_0_3_223
*2436 FILLER_0_3_225
*2437 FILLER_0_3_237
*2438 FILLER_0_3_249
*2439 FILLER_0_3_261
*2440 FILLER_0_3_27
*2441 FILLER_0_3_273
*2442 FILLER_0_3_279
*2443 FILLER_0_3_281
*2444 FILLER_0_3_293
*2445 FILLER_0_3_3
*2446 FILLER_0_3_305
*2447 FILLER_0_3_317
*2448 FILLER_0_3_329
*2449 FILLER_0_3_335
*2450 FILLER_0_3_337
*2451 FILLER_0_3_349
*2452 FILLER_0_3_361
*2453 FILLER_0_3_373
*2454 FILLER_0_3_385
*2455 FILLER_0_3_39
*2456 FILLER_0_3_391
*2457 FILLER_0_3_393
*2458 FILLER_0_3_405
*2459 FILLER_0_3_417
*2460 FILLER_0_3_429
*2461 FILLER_0_3_441
*2462 FILLER_0_3_447
*2463 FILLER_0_3_449
*2464 FILLER_0_3_461
*2465 FILLER_0_3_473
*2466 FILLER_0_3_485
*2467 FILLER_0_3_497
*2468 FILLER_0_3_503
*2469 FILLER_0_3_505
*2470 FILLER_0_3_51
*2471 FILLER_0_3_513
*2472 FILLER_0_3_55
*2473 FILLER_0_3_57
*2474 FILLER_0_3_69
*2475 FILLER_0_3_81
*2476 FILLER_0_3_93
*2477 FILLER_0_40_112
*2478 FILLER_0_40_124
*2479 FILLER_0_40_141
*2480 FILLER_0_40_153
*2481 FILLER_0_40_249
*2482 FILLER_0_40_269
*2483 FILLER_0_40_281
*2484 FILLER_0_40_3
*2485 FILLER_0_40_325
*2486 FILLER_0_40_337
*2487 FILLER_0_40_345
*2488 FILLER_0_40_36
*2489 FILLER_0_40_362
*2490 FILLER_0_40_365
*2491 FILLER_0_40_377
*2492 FILLER_0_40_389
*2493 FILLER_0_40_401
*2494 FILLER_0_40_413
*2495 FILLER_0_40_419
*2496 FILLER_0_40_42
*2497 FILLER_0_40_421
*2498 FILLER_0_40_433
*2499 FILLER_0_40_445
*2500 FILLER_0_40_457
*2501 FILLER_0_40_469
*2502 FILLER_0_40_475
*2503 FILLER_0_40_477
*2504 FILLER_0_40_489
*2505 FILLER_0_40_501
*2506 FILLER_0_40_513
*2507 FILLER_0_40_7
*2508 FILLER_0_40_85
*2509 FILLER_0_40_97
*2510 FILLER_0_41_109
*2511 FILLER_0_41_125
*2512 FILLER_0_41_147
*2513 FILLER_0_41_163
*2514 FILLER_0_41_167
*2515 FILLER_0_41_178
*2516 FILLER_0_41_184
*2517 FILLER_0_41_211
*2518 FILLER_0_41_23
*2519 FILLER_0_41_234
*2520 FILLER_0_41_267
*2521 FILLER_0_41_279
*2522 FILLER_0_41_289
*2523 FILLER_0_41_301
*2524 FILLER_0_41_305
*2525 FILLER_0_41_309
*2526 FILLER_0_41_331
*2527 FILLER_0_41_335
*2528 FILLER_0_41_337
*2529 FILLER_0_41_349
*2530 FILLER_0_41_35
*2531 FILLER_0_41_361
*2532 FILLER_0_41_373
*2533 FILLER_0_41_385
*2534 FILLER_0_41_391
*2535 FILLER_0_41_393
*2536 FILLER_0_41_405
*2537 FILLER_0_41_417
*2538 FILLER_0_41_429
*2539 FILLER_0_41_43
*2540 FILLER_0_41_441
*2541 FILLER_0_41_447
*2542 FILLER_0_41_449
*2543 FILLER_0_41_461
*2544 FILLER_0_41_473
*2545 FILLER_0_41_48
*2546 FILLER_0_41_485
*2547 FILLER_0_41_497
*2548 FILLER_0_41_503
*2549 FILLER_0_41_505
*2550 FILLER_0_41_511
*2551 FILLER_0_41_57
*2552 FILLER_0_41_63
*2553 FILLER_0_41_75
*2554 FILLER_0_41_83
*2555 FILLER_0_41_92
*2556 FILLER_0_41_96
*2557 FILLER_0_42_107
*2558 FILLER_0_42_119
*2559 FILLER_0_42_13
*2560 FILLER_0_42_144
*2561 FILLER_0_42_148
*2562 FILLER_0_42_163
*2563 FILLER_0_42_171
*2564 FILLER_0_42_182
*2565 FILLER_0_42_194
*2566 FILLER_0_42_205
*2567 FILLER_0_42_233
*2568 FILLER_0_42_248
*2569 FILLER_0_42_25
*2570 FILLER_0_42_261
*2571 FILLER_0_42_29
*2572 FILLER_0_42_291
*2573 FILLER_0_42_300
*2574 FILLER_0_42_309
*2575 FILLER_0_42_313
*2576 FILLER_0_42_331
*2577 FILLER_0_42_343
*2578 FILLER_0_42_35
*2579 FILLER_0_42_355
*2580 FILLER_0_42_363
*2581 FILLER_0_42_365
*2582 FILLER_0_42_377
*2583 FILLER_0_42_389
*2584 FILLER_0_42_401
*2585 FILLER_0_42_413
*2586 FILLER_0_42_419
*2587 FILLER_0_42_421
*2588 FILLER_0_42_433
*2589 FILLER_0_42_445
*2590 FILLER_0_42_457
*2591 FILLER_0_42_469
*2592 FILLER_0_42_475
*2593 FILLER_0_42_477
*2594 FILLER_0_42_489
*2595 FILLER_0_42_501
*2596 FILLER_0_42_513
*2597 FILLER_0_42_65
*2598 FILLER_0_42_85
*2599 FILLER_0_42_9
*2600 FILLER_0_42_93
*2601 FILLER_0_43_109
*2602 FILLER_0_43_127
*2603 FILLER_0_43_131
*2604 FILLER_0_43_158
*2605 FILLER_0_43_166
*2606 FILLER_0_43_169
*2607 FILLER_0_43_190
*2608 FILLER_0_43_202
*2609 FILLER_0_43_214
*2610 FILLER_0_43_222
*2611 FILLER_0_43_225
*2612 FILLER_0_43_239
*2613 FILLER_0_43_251
*2614 FILLER_0_43_259
*2615 FILLER_0_43_28
*2616 FILLER_0_43_311
*2617 FILLER_0_43_323
*2618 FILLER_0_43_327
*2619 FILLER_0_43_331
*2620 FILLER_0_43_335
*2621 FILLER_0_43_346
*2622 FILLER_0_43_358
*2623 FILLER_0_43_370
*2624 FILLER_0_43_382
*2625 FILLER_0_43_390
*2626 FILLER_0_43_393
*2627 FILLER_0_43_40
*2628 FILLER_0_43_405
*2629 FILLER_0_43_417
*2630 FILLER_0_43_429
*2631 FILLER_0_43_441
*2632 FILLER_0_43_447
*2633 FILLER_0_43_449
*2634 FILLER_0_43_461
*2635 FILLER_0_43_473
*2636 FILLER_0_43_485
*2637 FILLER_0_43_497
*2638 FILLER_0_43_503
*2639 FILLER_0_43_505
*2640 FILLER_0_43_513
*2641 FILLER_0_43_52
*2642 FILLER_0_43_57
*2643 FILLER_0_43_63
*2644 FILLER_0_43_74
*2645 FILLER_0_43_82
*2646 FILLER_0_44_100
*2647 FILLER_0_44_112
*2648 FILLER_0_44_132
*2649 FILLER_0_44_141
*2650 FILLER_0_44_15
*2651 FILLER_0_44_159
*2652 FILLER_0_44_183
*2653 FILLER_0_44_197
*2654 FILLER_0_44_208
*2655 FILLER_0_44_21
*2656 FILLER_0_44_220
*2657 FILLER_0_44_232
*2658 FILLER_0_44_244
*2659 FILLER_0_44_253
*2660 FILLER_0_44_261
*2661 FILLER_0_44_267
*2662 FILLER_0_44_27
*2663 FILLER_0_44_3
*2664 FILLER_0_44_303
*2665 FILLER_0_44_307
*2666 FILLER_0_44_309
*2667 FILLER_0_44_313
*2668 FILLER_0_44_355
*2669 FILLER_0_44_363
*2670 FILLER_0_44_365
*2671 FILLER_0_44_377
*2672 FILLER_0_44_38
*2673 FILLER_0_44_389
*2674 FILLER_0_44_401
*2675 FILLER_0_44_413
*2676 FILLER_0_44_419
*2677 FILLER_0_44_421
*2678 FILLER_0_44_433
*2679 FILLER_0_44_44
*2680 FILLER_0_44_445
*2681 FILLER_0_44_457
*2682 FILLER_0_44_469
*2683 FILLER_0_44_475
*2684 FILLER_0_44_477
*2685 FILLER_0_44_489
*2686 FILLER_0_44_501
*2687 FILLER_0_44_513
*2688 FILLER_0_44_52
*2689 FILLER_0_44_63
*2690 FILLER_0_44_75
*2691 FILLER_0_44_83
*2692 FILLER_0_45_111
*2693 FILLER_0_45_113
*2694 FILLER_0_45_120
*2695 FILLER_0_45_124
*2696 FILLER_0_45_146
*2697 FILLER_0_45_162
*2698 FILLER_0_45_178
*2699 FILLER_0_45_219
*2700 FILLER_0_45_223
*2701 FILLER_0_45_242
*2702 FILLER_0_45_267
*2703 FILLER_0_45_279
*2704 FILLER_0_45_281
*2705 FILLER_0_45_285
*2706 FILLER_0_45_3
*2707 FILLER_0_45_356
*2708 FILLER_0_45_368
*2709 FILLER_0_45_380
*2710 FILLER_0_45_393
*2711 FILLER_0_45_405
*2712 FILLER_0_45_417
*2713 FILLER_0_45_429
*2714 FILLER_0_45_441
*2715 FILLER_0_45_447
*2716 FILLER_0_45_449
*2717 FILLER_0_45_461
*2718 FILLER_0_45_473
*2719 FILLER_0_45_485
*2720 FILLER_0_45_497
*2721 FILLER_0_45_503
*2722 FILLER_0_45_505
*2723 FILLER_0_45_51
*2724 FILLER_0_45_513
*2725 FILLER_0_45_55
*2726 FILLER_0_45_77
*2727 FILLER_0_45_81
*2728 FILLER_0_45_88
*2729 FILLER_0_45_99
*2730 FILLER_0_46_117
*2731 FILLER_0_46_147
*2732 FILLER_0_46_15
*2733 FILLER_0_46_164
*2734 FILLER_0_46_176
*2735 FILLER_0_46_188
*2736 FILLER_0_46_200
*2737 FILLER_0_46_212
*2738 FILLER_0_46_247
*2739 FILLER_0_46_269
*2740 FILLER_0_46_27
*2741 FILLER_0_46_281
*2742 FILLER_0_46_295
*2743 FILLER_0_46_3
*2744 FILLER_0_46_307
*2745 FILLER_0_46_320
*2746 FILLER_0_46_324
*2747 FILLER_0_46_346
*2748 FILLER_0_46_358
*2749 FILLER_0_46_36
*2750 FILLER_0_46_365
*2751 FILLER_0_46_377
*2752 FILLER_0_46_389
*2753 FILLER_0_46_401
*2754 FILLER_0_46_413
*2755 FILLER_0_46_419
*2756 FILLER_0_46_421
*2757 FILLER_0_46_433
*2758 FILLER_0_46_445
*2759 FILLER_0_46_457
*2760 FILLER_0_46_469
*2761 FILLER_0_46_475
*2762 FILLER_0_46_477
*2763 FILLER_0_46_48
*2764 FILLER_0_46_489
*2765 FILLER_0_46_501
*2766 FILLER_0_46_513
*2767 FILLER_0_46_60
*2768 FILLER_0_46_68
*2769 FILLER_0_46_73
*2770 FILLER_0_46_85
*2771 FILLER_0_47_106
*2772 FILLER_0_47_11
*2773 FILLER_0_47_113
*2774 FILLER_0_47_158
*2775 FILLER_0_47_166
*2776 FILLER_0_47_169
*2777 FILLER_0_47_183
*2778 FILLER_0_47_198
*2779 FILLER_0_47_210
*2780 FILLER_0_47_218
*2781 FILLER_0_47_223
*2782 FILLER_0_47_264
*2783 FILLER_0_47_276
*2784 FILLER_0_47_281
*2785 FILLER_0_47_289
*2786 FILLER_0_47_3
*2787 FILLER_0_47_311
*2788 FILLER_0_47_32
*2789 FILLER_0_47_323
*2790 FILLER_0_47_335
*2791 FILLER_0_47_345
*2792 FILLER_0_47_357
*2793 FILLER_0_47_369
*2794 FILLER_0_47_381
*2795 FILLER_0_47_389
*2796 FILLER_0_47_393
*2797 FILLER_0_47_405
*2798 FILLER_0_47_417
*2799 FILLER_0_47_429
*2800 FILLER_0_47_441
*2801 FILLER_0_47_447
*2802 FILLER_0_47_449
*2803 FILLER_0_47_461
*2804 FILLER_0_47_473
*2805 FILLER_0_47_485
*2806 FILLER_0_47_497
*2807 FILLER_0_47_50
*2808 FILLER_0_47_503
*2809 FILLER_0_47_505
*2810 FILLER_0_47_513
*2811 FILLER_0_47_66
*2812 FILLER_0_47_78
*2813 FILLER_0_47_86
*2814 FILLER_0_47_90
*2815 FILLER_0_48_107
*2816 FILLER_0_48_115
*2817 FILLER_0_48_134
*2818 FILLER_0_48_141
*2819 FILLER_0_48_158
*2820 FILLER_0_48_205
*2821 FILLER_0_48_213
*2822 FILLER_0_48_23
*2823 FILLER_0_48_232
*2824 FILLER_0_48_246
*2825 FILLER_0_48_261
*2826 FILLER_0_48_27
*2827 FILLER_0_48_286
*2828 FILLER_0_48_29
*2829 FILLER_0_48_290
*2830 FILLER_0_48_305
*2831 FILLER_0_48_318
*2832 FILLER_0_48_346
*2833 FILLER_0_48_356
*2834 FILLER_0_48_365
*2835 FILLER_0_48_37
*2836 FILLER_0_48_377
*2837 FILLER_0_48_389
*2838 FILLER_0_48_401
*2839 FILLER_0_48_413
*2840 FILLER_0_48_419
*2841 FILLER_0_48_421
*2842 FILLER_0_48_433
*2843 FILLER_0_48_445
*2844 FILLER_0_48_457
*2845 FILLER_0_48_469
*2846 FILLER_0_48_475
*2847 FILLER_0_48_477
*2848 FILLER_0_48_489
*2849 FILLER_0_48_501
*2850 FILLER_0_48_513
*2851 FILLER_0_48_60
*2852 FILLER_0_48_81
*2853 FILLER_0_49_102
*2854 FILLER_0_49_110
*2855 FILLER_0_49_113
*2856 FILLER_0_49_125
*2857 FILLER_0_49_133
*2858 FILLER_0_49_145
*2859 FILLER_0_49_15
*2860 FILLER_0_49_157
*2861 FILLER_0_49_178
*2862 FILLER_0_49_187
*2863 FILLER_0_49_204
*2864 FILLER_0_49_216
*2865 FILLER_0_49_225
*2866 FILLER_0_49_239
*2867 FILLER_0_49_251
*2868 FILLER_0_49_259
*2869 FILLER_0_49_27
*2870 FILLER_0_49_290
*2871 FILLER_0_49_3
*2872 FILLER_0_49_308
*2873 FILLER_0_49_329
*2874 FILLER_0_49_335
*2875 FILLER_0_49_337
*2876 FILLER_0_49_364
*2877 FILLER_0_49_376
*2878 FILLER_0_49_388
*2879 FILLER_0_49_39
*2880 FILLER_0_49_393
*2881 FILLER_0_49_405
*2882 FILLER_0_49_417
*2883 FILLER_0_49_429
*2884 FILLER_0_49_441
*2885 FILLER_0_49_447
*2886 FILLER_0_49_449
*2887 FILLER_0_49_461
*2888 FILLER_0_49_473
*2889 FILLER_0_49_485
*2890 FILLER_0_49_497
*2891 FILLER_0_49_503
*2892 FILLER_0_49_505
*2893 FILLER_0_49_51
*2894 FILLER_0_49_513
*2895 FILLER_0_49_55
*2896 FILLER_0_49_57
*2897 FILLER_0_49_61
*2898 FILLER_0_49_85
*2899 FILLER_0_49_97
*2900 FILLER_0_4_109
*2901 FILLER_0_4_121
*2902 FILLER_0_4_133
*2903 FILLER_0_4_139
*2904 FILLER_0_4_141
*2905 FILLER_0_4_15
*2906 FILLER_0_4_153
*2907 FILLER_0_4_165
*2908 FILLER_0_4_177
*2909 FILLER_0_4_189
*2910 FILLER_0_4_195
*2911 FILLER_0_4_197
*2912 FILLER_0_4_209
*2913 FILLER_0_4_221
*2914 FILLER_0_4_233
*2915 FILLER_0_4_245
*2916 FILLER_0_4_251
*2917 FILLER_0_4_253
*2918 FILLER_0_4_265
*2919 FILLER_0_4_27
*2920 FILLER_0_4_277
*2921 FILLER_0_4_289
*2922 FILLER_0_4_29
*2923 FILLER_0_4_3
*2924 FILLER_0_4_301
*2925 FILLER_0_4_307
*2926 FILLER_0_4_309
*2927 FILLER_0_4_321
*2928 FILLER_0_4_333
*2929 FILLER_0_4_345
*2930 FILLER_0_4_357
*2931 FILLER_0_4_363
*2932 FILLER_0_4_365
*2933 FILLER_0_4_377
*2934 FILLER_0_4_389
*2935 FILLER_0_4_401
*2936 FILLER_0_4_41
*2937 FILLER_0_4_413
*2938 FILLER_0_4_419
*2939 FILLER_0_4_421
*2940 FILLER_0_4_433
*2941 FILLER_0_4_445
*2942 FILLER_0_4_457
*2943 FILLER_0_4_469
*2944 FILLER_0_4_475
*2945 FILLER_0_4_477
*2946 FILLER_0_4_489
*2947 FILLER_0_4_501
*2948 FILLER_0_4_513
*2949 FILLER_0_4_53
*2950 FILLER_0_4_65
*2951 FILLER_0_4_77
*2952 FILLER_0_4_83
*2953 FILLER_0_4_85
*2954 FILLER_0_4_97
*2955 FILLER_0_50_100
*2956 FILLER_0_50_127
*2957 FILLER_0_50_139
*2958 FILLER_0_50_141
*2959 FILLER_0_50_149
*2960 FILLER_0_50_186
*2961 FILLER_0_50_195
*2962 FILLER_0_50_221
*2963 FILLER_0_50_229
*2964 FILLER_0_50_23
*2965 FILLER_0_50_250
*2966 FILLER_0_50_261
*2967 FILLER_0_50_27
*2968 FILLER_0_50_279
*2969 FILLER_0_50_304
*2970 FILLER_0_50_32
*2971 FILLER_0_50_321
*2972 FILLER_0_50_333
*2973 FILLER_0_50_365
*2974 FILLER_0_50_377
*2975 FILLER_0_50_389
*2976 FILLER_0_50_401
*2977 FILLER_0_50_413
*2978 FILLER_0_50_419
*2979 FILLER_0_50_421
*2980 FILLER_0_50_43
*2981 FILLER_0_50_433
*2982 FILLER_0_50_445
*2983 FILLER_0_50_457
*2984 FILLER_0_50_469
*2985 FILLER_0_50_475
*2986 FILLER_0_50_477
*2987 FILLER_0_50_489
*2988 FILLER_0_50_501
*2989 FILLER_0_50_513
*2990 FILLER_0_50_55
*2991 FILLER_0_50_67
*2992 FILLER_0_50_79
*2993 FILLER_0_50_83
*2994 FILLER_0_50_85
*2995 FILLER_0_50_96
*2996 FILLER_0_51_108
*2997 FILLER_0_51_113
*2998 FILLER_0_51_125
*2999 FILLER_0_51_164
*3000 FILLER_0_51_178
*3001 FILLER_0_51_190
*3002 FILLER_0_51_221
*3003 FILLER_0_51_252
*3004 FILLER_0_51_264
*3005 FILLER_0_51_276
*3006 FILLER_0_51_281
*3007 FILLER_0_51_285
*3008 FILLER_0_51_295
*3009 FILLER_0_51_307
*3010 FILLER_0_51_331
*3011 FILLER_0_51_335
*3012 FILLER_0_51_337
*3013 FILLER_0_51_345
*3014 FILLER_0_51_357
*3015 FILLER_0_51_369
*3016 FILLER_0_51_381
*3017 FILLER_0_51_389
*3018 FILLER_0_51_393
*3019 FILLER_0_51_405
*3020 FILLER_0_51_417
*3021 FILLER_0_51_429
*3022 FILLER_0_51_43
*3023 FILLER_0_51_441
*3024 FILLER_0_51_447
*3025 FILLER_0_51_449
*3026 FILLER_0_51_461
*3027 FILLER_0_51_473
*3028 FILLER_0_51_485
*3029 FILLER_0_51_497
*3030 FILLER_0_51_503
*3031 FILLER_0_51_505
*3032 FILLER_0_51_51
*3033 FILLER_0_51_513
*3034 FILLER_0_51_57
*3035 FILLER_0_51_67
*3036 FILLER_0_51_79
*3037 FILLER_0_51_85
*3038 FILLER_0_51_95
*3039 FILLER_0_52_128
*3040 FILLER_0_52_135
*3041 FILLER_0_52_15
*3042 FILLER_0_52_186
*3043 FILLER_0_52_194
*3044 FILLER_0_52_197
*3045 FILLER_0_52_205
*3046 FILLER_0_52_21
*3047 FILLER_0_52_225
*3048 FILLER_0_52_246
*3049 FILLER_0_52_277
*3050 FILLER_0_52_29
*3051 FILLER_0_52_3
*3052 FILLER_0_52_302
*3053 FILLER_0_52_306
*3054 FILLER_0_52_309
*3055 FILLER_0_52_351
*3056 FILLER_0_52_363
*3057 FILLER_0_52_365
*3058 FILLER_0_52_37
*3059 FILLER_0_52_377
*3060 FILLER_0_52_389
*3061 FILLER_0_52_401
*3062 FILLER_0_52_413
*3063 FILLER_0_52_419
*3064 FILLER_0_52_421
*3065 FILLER_0_52_433
*3066 FILLER_0_52_445
*3067 FILLER_0_52_45
*3068 FILLER_0_52_457
*3069 FILLER_0_52_469
*3070 FILLER_0_52_475
*3071 FILLER_0_52_477
*3072 FILLER_0_52_489
*3073 FILLER_0_52_501
*3074 FILLER_0_52_513
*3075 FILLER_0_52_75
*3076 FILLER_0_53_107
*3077 FILLER_0_53_111
*3078 FILLER_0_53_113
*3079 FILLER_0_53_125
*3080 FILLER_0_53_137
*3081 FILLER_0_53_141
*3082 FILLER_0_53_15
*3083 FILLER_0_53_162
*3084 FILLER_0_53_166
*3085 FILLER_0_53_169
*3086 FILLER_0_53_179
*3087 FILLER_0_53_185
*3088 FILLER_0_53_195
*3089 FILLER_0_53_219
*3090 FILLER_0_53_223
*3091 FILLER_0_53_225
*3092 FILLER_0_53_23
*3093 FILLER_0_53_240
*3094 FILLER_0_53_268
*3095 FILLER_0_53_297
*3096 FILLER_0_53_3
*3097 FILLER_0_53_31
*3098 FILLER_0_53_315
*3099 FILLER_0_53_330
*3100 FILLER_0_53_361
*3101 FILLER_0_53_373
*3102 FILLER_0_53_385
*3103 FILLER_0_53_391
*3104 FILLER_0_53_393
*3105 FILLER_0_53_405
*3106 FILLER_0_53_417
*3107 FILLER_0_53_429
*3108 FILLER_0_53_43
*3109 FILLER_0_53_441
*3110 FILLER_0_53_447
*3111 FILLER_0_53_449
*3112 FILLER_0_53_461
*3113 FILLER_0_53_473
*3114 FILLER_0_53_485
*3115 FILLER_0_53_497
*3116 FILLER_0_53_503
*3117 FILLER_0_53_505
*3118 FILLER_0_53_513
*3119 FILLER_0_53_57
*3120 FILLER_0_53_83
*3121 FILLER_0_53_95
*3122 FILLER_0_54_109
*3123 FILLER_0_54_121
*3124 FILLER_0_54_133
*3125 FILLER_0_54_139
*3126 FILLER_0_54_144
*3127 FILLER_0_54_15
*3128 FILLER_0_54_156
*3129 FILLER_0_54_176
*3130 FILLER_0_54_222
*3131 FILLER_0_54_234
*3132 FILLER_0_54_246
*3133 FILLER_0_54_251
*3134 FILLER_0_54_253
*3135 FILLER_0_54_264
*3136 FILLER_0_54_27
*3137 FILLER_0_54_276
*3138 FILLER_0_54_288
*3139 FILLER_0_54_29
*3140 FILLER_0_54_3
*3141 FILLER_0_54_300
*3142 FILLER_0_54_318
*3143 FILLER_0_54_326
*3144 FILLER_0_54_343
*3145 FILLER_0_54_355
*3146 FILLER_0_54_363
*3147 FILLER_0_54_365
*3148 FILLER_0_54_377
*3149 FILLER_0_54_389
*3150 FILLER_0_54_401
*3151 FILLER_0_54_41
*3152 FILLER_0_54_413
*3153 FILLER_0_54_419
*3154 FILLER_0_54_421
*3155 FILLER_0_54_433
*3156 FILLER_0_54_445
*3157 FILLER_0_54_457
*3158 FILLER_0_54_469
*3159 FILLER_0_54_475
*3160 FILLER_0_54_477
*3161 FILLER_0_54_489
*3162 FILLER_0_54_501
*3163 FILLER_0_54_513
*3164 FILLER_0_54_62
*3165 FILLER_0_54_72
*3166 FILLER_0_54_85
*3167 FILLER_0_54_97
*3168 FILLER_0_55_105
*3169 FILLER_0_55_15
*3170 FILLER_0_55_150
*3171 FILLER_0_55_162
*3172 FILLER_0_55_189
*3173 FILLER_0_55_201
*3174 FILLER_0_55_219
*3175 FILLER_0_55_223
*3176 FILLER_0_55_225
*3177 FILLER_0_55_237
*3178 FILLER_0_55_261
*3179 FILLER_0_55_27
*3180 FILLER_0_55_273
*3181 FILLER_0_55_277
*3182 FILLER_0_55_290
*3183 FILLER_0_55_3
*3184 FILLER_0_55_302
*3185 FILLER_0_55_322
*3186 FILLER_0_55_354
*3187 FILLER_0_55_366
*3188 FILLER_0_55_378
*3189 FILLER_0_55_39
*3190 FILLER_0_55_390
*3191 FILLER_0_55_393
*3192 FILLER_0_55_405
*3193 FILLER_0_55_417
*3194 FILLER_0_55_429
*3195 FILLER_0_55_441
*3196 FILLER_0_55_447
*3197 FILLER_0_55_449
*3198 FILLER_0_55_461
*3199 FILLER_0_55_473
*3200 FILLER_0_55_485
*3201 FILLER_0_55_497
*3202 FILLER_0_55_503
*3203 FILLER_0_55_505
*3204 FILLER_0_55_51
*3205 FILLER_0_55_513
*3206 FILLER_0_55_55
*3207 FILLER_0_55_57
*3208 FILLER_0_55_69
*3209 FILLER_0_55_81
*3210 FILLER_0_55_93
*3211 FILLER_0_56_136
*3212 FILLER_0_56_15
*3213 FILLER_0_56_157
*3214 FILLER_0_56_169
*3215 FILLER_0_56_181
*3216 FILLER_0_56_193
*3217 FILLER_0_56_197
*3218 FILLER_0_56_202
*3219 FILLER_0_56_225
*3220 FILLER_0_56_229
*3221 FILLER_0_56_239
*3222 FILLER_0_56_251
*3223 FILLER_0_56_27
*3224 FILLER_0_56_270
*3225 FILLER_0_56_29
*3226 FILLER_0_56_295
*3227 FILLER_0_56_3
*3228 FILLER_0_56_307
*3229 FILLER_0_56_318
*3230 FILLER_0_56_330
*3231 FILLER_0_56_342
*3232 FILLER_0_56_354
*3233 FILLER_0_56_362
*3234 FILLER_0_56_365
*3235 FILLER_0_56_377
*3236 FILLER_0_56_389
*3237 FILLER_0_56_401
*3238 FILLER_0_56_41
*3239 FILLER_0_56_413
*3240 FILLER_0_56_419
*3241 FILLER_0_56_421
*3242 FILLER_0_56_433
*3243 FILLER_0_56_445
*3244 FILLER_0_56_457
*3245 FILLER_0_56_469
*3246 FILLER_0_56_475
*3247 FILLER_0_56_477
*3248 FILLER_0_56_489
*3249 FILLER_0_56_501
*3250 FILLER_0_56_509
*3251 FILLER_0_56_53
*3252 FILLER_0_56_65
*3253 FILLER_0_56_77
*3254 FILLER_0_56_83
*3255 FILLER_0_56_85
*3256 FILLER_0_56_97
*3257 FILLER_0_57_105
*3258 FILLER_0_57_111
*3259 FILLER_0_57_142
*3260 FILLER_0_57_15
*3261 FILLER_0_57_160
*3262 FILLER_0_57_164
*3263 FILLER_0_57_185
*3264 FILLER_0_57_198
*3265 FILLER_0_57_222
*3266 FILLER_0_57_262
*3267 FILLER_0_57_27
*3268 FILLER_0_57_274
*3269 FILLER_0_57_279
*3270 FILLER_0_57_290
*3271 FILLER_0_57_3
*3272 FILLER_0_57_329
*3273 FILLER_0_57_335
*3274 FILLER_0_57_337
*3275 FILLER_0_57_349
*3276 FILLER_0_57_361
*3277 FILLER_0_57_373
*3278 FILLER_0_57_385
*3279 FILLER_0_57_39
*3280 FILLER_0_57_391
*3281 FILLER_0_57_393
*3282 FILLER_0_57_405
*3283 FILLER_0_57_417
*3284 FILLER_0_57_429
*3285 FILLER_0_57_441
*3286 FILLER_0_57_447
*3287 FILLER_0_57_449
*3288 FILLER_0_57_461
*3289 FILLER_0_57_473
*3290 FILLER_0_57_485
*3291 FILLER_0_57_497
*3292 FILLER_0_57_503
*3293 FILLER_0_57_505
*3294 FILLER_0_57_51
*3295 FILLER_0_57_513
*3296 FILLER_0_57_55
*3297 FILLER_0_57_57
*3298 FILLER_0_57_69
*3299 FILLER_0_57_81
*3300 FILLER_0_57_93
*3301 FILLER_0_58_109
*3302 FILLER_0_58_121
*3303 FILLER_0_58_139
*3304 FILLER_0_58_141
*3305 FILLER_0_58_15
*3306 FILLER_0_58_197
*3307 FILLER_0_58_219
*3308 FILLER_0_58_230
*3309 FILLER_0_58_246
*3310 FILLER_0_58_269
*3311 FILLER_0_58_27
*3312 FILLER_0_58_29
*3313 FILLER_0_58_3
*3314 FILLER_0_58_312
*3315 FILLER_0_58_322
*3316 FILLER_0_58_334
*3317 FILLER_0_58_346
*3318 FILLER_0_58_358
*3319 FILLER_0_58_365
*3320 FILLER_0_58_377
*3321 FILLER_0_58_389
*3322 FILLER_0_58_401
*3323 FILLER_0_58_41
*3324 FILLER_0_58_413
*3325 FILLER_0_58_419
*3326 FILLER_0_58_421
*3327 FILLER_0_58_433
*3328 FILLER_0_58_445
*3329 FILLER_0_58_457
*3330 FILLER_0_58_469
*3331 FILLER_0_58_475
*3332 FILLER_0_58_477
*3333 FILLER_0_58_489
*3334 FILLER_0_58_501
*3335 FILLER_0_58_513
*3336 FILLER_0_58_53
*3337 FILLER_0_58_65
*3338 FILLER_0_58_77
*3339 FILLER_0_58_83
*3340 FILLER_0_58_85
*3341 FILLER_0_58_97
*3342 FILLER_0_59_105
*3343 FILLER_0_59_111
*3344 FILLER_0_59_113
*3345 FILLER_0_59_125
*3346 FILLER_0_59_137
*3347 FILLER_0_59_146
*3348 FILLER_0_59_169
*3349 FILLER_0_59_191
*3350 FILLER_0_59_203
*3351 FILLER_0_59_207
*3352 FILLER_0_59_21
*3353 FILLER_0_59_211
*3354 FILLER_0_59_223
*3355 FILLER_0_59_225
*3356 FILLER_0_59_240
*3357 FILLER_0_59_261
*3358 FILLER_0_59_271
*3359 FILLER_0_59_279
*3360 FILLER_0_59_281
*3361 FILLER_0_59_295
*3362 FILLER_0_59_314
*3363 FILLER_0_59_326
*3364 FILLER_0_59_33
*3365 FILLER_0_59_334
*3366 FILLER_0_59_337
*3367 FILLER_0_59_349
*3368 FILLER_0_59_361
*3369 FILLER_0_59_373
*3370 FILLER_0_59_385
*3371 FILLER_0_59_391
*3372 FILLER_0_59_393
*3373 FILLER_0_59_405
*3374 FILLER_0_59_417
*3375 FILLER_0_59_429
*3376 FILLER_0_59_441
*3377 FILLER_0_59_447
*3378 FILLER_0_59_449
*3379 FILLER_0_59_45
*3380 FILLER_0_59_461
*3381 FILLER_0_59_473
*3382 FILLER_0_59_485
*3383 FILLER_0_59_497
*3384 FILLER_0_59_503
*3385 FILLER_0_59_505
*3386 FILLER_0_59_513
*3387 FILLER_0_59_53
*3388 FILLER_0_59_57
*3389 FILLER_0_59_69
*3390 FILLER_0_59_81
*3391 FILLER_0_59_9
*3392 FILLER_0_59_93
*3393 FILLER_0_5_105
*3394 FILLER_0_5_111
*3395 FILLER_0_5_113
*3396 FILLER_0_5_125
*3397 FILLER_0_5_137
*3398 FILLER_0_5_149
*3399 FILLER_0_5_15
*3400 FILLER_0_5_161
*3401 FILLER_0_5_167
*3402 FILLER_0_5_169
*3403 FILLER_0_5_181
*3404 FILLER_0_5_193
*3405 FILLER_0_5_205
*3406 FILLER_0_5_217
*3407 FILLER_0_5_223
*3408 FILLER_0_5_225
*3409 FILLER_0_5_237
*3410 FILLER_0_5_249
*3411 FILLER_0_5_261
*3412 FILLER_0_5_27
*3413 FILLER_0_5_273
*3414 FILLER_0_5_279
*3415 FILLER_0_5_281
*3416 FILLER_0_5_293
*3417 FILLER_0_5_3
*3418 FILLER_0_5_305
*3419 FILLER_0_5_317
*3420 FILLER_0_5_329
*3421 FILLER_0_5_335
*3422 FILLER_0_5_337
*3423 FILLER_0_5_349
*3424 FILLER_0_5_361
*3425 FILLER_0_5_373
*3426 FILLER_0_5_385
*3427 FILLER_0_5_39
*3428 FILLER_0_5_391
*3429 FILLER_0_5_393
*3430 FILLER_0_5_405
*3431 FILLER_0_5_417
*3432 FILLER_0_5_429
*3433 FILLER_0_5_441
*3434 FILLER_0_5_447
*3435 FILLER_0_5_449
*3436 FILLER_0_5_461
*3437 FILLER_0_5_473
*3438 FILLER_0_5_485
*3439 FILLER_0_5_497
*3440 FILLER_0_5_503
*3441 FILLER_0_5_505
*3442 FILLER_0_5_51
*3443 FILLER_0_5_513
*3444 FILLER_0_5_55
*3445 FILLER_0_5_57
*3446 FILLER_0_5_69
*3447 FILLER_0_5_81
*3448 FILLER_0_5_93
*3449 FILLER_0_60_109
*3450 FILLER_0_60_121
*3451 FILLER_0_60_133
*3452 FILLER_0_60_139
*3453 FILLER_0_60_141
*3454 FILLER_0_60_15
*3455 FILLER_0_60_150
*3456 FILLER_0_60_158
*3457 FILLER_0_60_176
*3458 FILLER_0_60_188
*3459 FILLER_0_60_193
*3460 FILLER_0_60_197
*3461 FILLER_0_60_201
*3462 FILLER_0_60_211
*3463 FILLER_0_60_223
*3464 FILLER_0_60_253
*3465 FILLER_0_60_265
*3466 FILLER_0_60_27
*3467 FILLER_0_60_277
*3468 FILLER_0_60_289
*3469 FILLER_0_60_29
*3470 FILLER_0_60_3
*3471 FILLER_0_60_301
*3472 FILLER_0_60_307
*3473 FILLER_0_60_309
*3474 FILLER_0_60_321
*3475 FILLER_0_60_333
*3476 FILLER_0_60_345
*3477 FILLER_0_60_357
*3478 FILLER_0_60_363
*3479 FILLER_0_60_365
*3480 FILLER_0_60_377
*3481 FILLER_0_60_389
*3482 FILLER_0_60_401
*3483 FILLER_0_60_41
*3484 FILLER_0_60_413
*3485 FILLER_0_60_419
*3486 FILLER_0_60_421
*3487 FILLER_0_60_433
*3488 FILLER_0_60_445
*3489 FILLER_0_60_457
*3490 FILLER_0_60_469
*3491 FILLER_0_60_475
*3492 FILLER_0_60_477
*3493 FILLER_0_60_489
*3494 FILLER_0_60_501
*3495 FILLER_0_60_513
*3496 FILLER_0_60_53
*3497 FILLER_0_60_65
*3498 FILLER_0_60_77
*3499 FILLER_0_60_83
*3500 FILLER_0_60_85
*3501 FILLER_0_60_97
*3502 FILLER_0_61_105
*3503 FILLER_0_61_111
*3504 FILLER_0_61_113
*3505 FILLER_0_61_125
*3506 FILLER_0_61_137
*3507 FILLER_0_61_15
*3508 FILLER_0_61_178
*3509 FILLER_0_61_212
*3510 FILLER_0_61_225
*3511 FILLER_0_61_237
*3512 FILLER_0_61_241
*3513 FILLER_0_61_267
*3514 FILLER_0_61_27
*3515 FILLER_0_61_279
*3516 FILLER_0_61_281
*3517 FILLER_0_61_293
*3518 FILLER_0_61_3
*3519 FILLER_0_61_305
*3520 FILLER_0_61_317
*3521 FILLER_0_61_329
*3522 FILLER_0_61_335
*3523 FILLER_0_61_337
*3524 FILLER_0_61_349
*3525 FILLER_0_61_361
*3526 FILLER_0_61_373
*3527 FILLER_0_61_385
*3528 FILLER_0_61_39
*3529 FILLER_0_61_391
*3530 FILLER_0_61_393
*3531 FILLER_0_61_405
*3532 FILLER_0_61_417
*3533 FILLER_0_61_429
*3534 FILLER_0_61_441
*3535 FILLER_0_61_447
*3536 FILLER_0_61_449
*3537 FILLER_0_61_461
*3538 FILLER_0_61_473
*3539 FILLER_0_61_485
*3540 FILLER_0_61_497
*3541 FILLER_0_61_503
*3542 FILLER_0_61_505
*3543 FILLER_0_61_51
*3544 FILLER_0_61_513
*3545 FILLER_0_61_55
*3546 FILLER_0_61_57
*3547 FILLER_0_61_69
*3548 FILLER_0_61_81
*3549 FILLER_0_61_93
*3550 FILLER_0_62_109
*3551 FILLER_0_62_121
*3552 FILLER_0_62_133
*3553 FILLER_0_62_139
*3554 FILLER_0_62_141
*3555 FILLER_0_62_15
*3556 FILLER_0_62_153
*3557 FILLER_0_62_172
*3558 FILLER_0_62_183
*3559 FILLER_0_62_195
*3560 FILLER_0_62_217
*3561 FILLER_0_62_229
*3562 FILLER_0_62_241
*3563 FILLER_0_62_249
*3564 FILLER_0_62_253
*3565 FILLER_0_62_259
*3566 FILLER_0_62_268
*3567 FILLER_0_62_27
*3568 FILLER_0_62_280
*3569 FILLER_0_62_29
*3570 FILLER_0_62_292
*3571 FILLER_0_62_3
*3572 FILLER_0_62_304
*3573 FILLER_0_62_309
*3574 FILLER_0_62_321
*3575 FILLER_0_62_333
*3576 FILLER_0_62_345
*3577 FILLER_0_62_357
*3578 FILLER_0_62_363
*3579 FILLER_0_62_365
*3580 FILLER_0_62_377
*3581 FILLER_0_62_389
*3582 FILLER_0_62_401
*3583 FILLER_0_62_41
*3584 FILLER_0_62_413
*3585 FILLER_0_62_419
*3586 FILLER_0_62_421
*3587 FILLER_0_62_433
*3588 FILLER_0_62_445
*3589 FILLER_0_62_457
*3590 FILLER_0_62_469
*3591 FILLER_0_62_475
*3592 FILLER_0_62_477
*3593 FILLER_0_62_489
*3594 FILLER_0_62_501
*3595 FILLER_0_62_513
*3596 FILLER_0_62_53
*3597 FILLER_0_62_65
*3598 FILLER_0_62_77
*3599 FILLER_0_62_83
*3600 FILLER_0_62_85
*3601 FILLER_0_62_97
*3602 FILLER_0_63_105
*3603 FILLER_0_63_111
*3604 FILLER_0_63_113
*3605 FILLER_0_63_125
*3606 FILLER_0_63_137
*3607 FILLER_0_63_149
*3608 FILLER_0_63_15
*3609 FILLER_0_63_161
*3610 FILLER_0_63_167
*3611 FILLER_0_63_169
*3612 FILLER_0_63_181
*3613 FILLER_0_63_193
*3614 FILLER_0_63_207
*3615 FILLER_0_63_219
*3616 FILLER_0_63_223
*3617 FILLER_0_63_225
*3618 FILLER_0_63_237
*3619 FILLER_0_63_249
*3620 FILLER_0_63_261
*3621 FILLER_0_63_27
*3622 FILLER_0_63_273
*3623 FILLER_0_63_279
*3624 FILLER_0_63_281
*3625 FILLER_0_63_293
*3626 FILLER_0_63_3
*3627 FILLER_0_63_305
*3628 FILLER_0_63_317
*3629 FILLER_0_63_329
*3630 FILLER_0_63_335
*3631 FILLER_0_63_337
*3632 FILLER_0_63_349
*3633 FILLER_0_63_361
*3634 FILLER_0_63_373
*3635 FILLER_0_63_385
*3636 FILLER_0_63_39
*3637 FILLER_0_63_391
*3638 FILLER_0_63_393
*3639 FILLER_0_63_405
*3640 FILLER_0_63_417
*3641 FILLER_0_63_429
*3642 FILLER_0_63_441
*3643 FILLER_0_63_447
*3644 FILLER_0_63_449
*3645 FILLER_0_63_461
*3646 FILLER_0_63_473
*3647 FILLER_0_63_485
*3648 FILLER_0_63_497
*3649 FILLER_0_63_503
*3650 FILLER_0_63_505
*3651 FILLER_0_63_51
*3652 FILLER_0_63_513
*3653 FILLER_0_63_55
*3654 FILLER_0_63_57
*3655 FILLER_0_63_69
*3656 FILLER_0_63_81
*3657 FILLER_0_63_93
*3658 FILLER_0_64_109
*3659 FILLER_0_64_121
*3660 FILLER_0_64_133
*3661 FILLER_0_64_139
*3662 FILLER_0_64_141
*3663 FILLER_0_64_15
*3664 FILLER_0_64_153
*3665 FILLER_0_64_165
*3666 FILLER_0_64_177
*3667 FILLER_0_64_189
*3668 FILLER_0_64_195
*3669 FILLER_0_64_197
*3670 FILLER_0_64_209
*3671 FILLER_0_64_221
*3672 FILLER_0_64_233
*3673 FILLER_0_64_245
*3674 FILLER_0_64_251
*3675 FILLER_0_64_253
*3676 FILLER_0_64_265
*3677 FILLER_0_64_27
*3678 FILLER_0_64_277
*3679 FILLER_0_64_289
*3680 FILLER_0_64_29
*3681 FILLER_0_64_3
*3682 FILLER_0_64_301
*3683 FILLER_0_64_307
*3684 FILLER_0_64_309
*3685 FILLER_0_64_321
*3686 FILLER_0_64_333
*3687 FILLER_0_64_345
*3688 FILLER_0_64_357
*3689 FILLER_0_64_363
*3690 FILLER_0_64_365
*3691 FILLER_0_64_377
*3692 FILLER_0_64_389
*3693 FILLER_0_64_401
*3694 FILLER_0_64_41
*3695 FILLER_0_64_413
*3696 FILLER_0_64_419
*3697 FILLER_0_64_421
*3698 FILLER_0_64_433
*3699 FILLER_0_64_445
*3700 FILLER_0_64_457
*3701 FILLER_0_64_469
*3702 FILLER_0_64_475
*3703 FILLER_0_64_477
*3704 FILLER_0_64_489
*3705 FILLER_0_64_501
*3706 FILLER_0_64_513
*3707 FILLER_0_64_53
*3708 FILLER_0_64_65
*3709 FILLER_0_64_77
*3710 FILLER_0_64_83
*3711 FILLER_0_64_85
*3712 FILLER_0_64_97
*3713 FILLER_0_65_105
*3714 FILLER_0_65_111
*3715 FILLER_0_65_113
*3716 FILLER_0_65_125
*3717 FILLER_0_65_137
*3718 FILLER_0_65_149
*3719 FILLER_0_65_15
*3720 FILLER_0_65_161
*3721 FILLER_0_65_167
*3722 FILLER_0_65_169
*3723 FILLER_0_65_181
*3724 FILLER_0_65_193
*3725 FILLER_0_65_205
*3726 FILLER_0_65_217
*3727 FILLER_0_65_223
*3728 FILLER_0_65_225
*3729 FILLER_0_65_237
*3730 FILLER_0_65_249
*3731 FILLER_0_65_261
*3732 FILLER_0_65_27
*3733 FILLER_0_65_273
*3734 FILLER_0_65_279
*3735 FILLER_0_65_281
*3736 FILLER_0_65_293
*3737 FILLER_0_65_3
*3738 FILLER_0_65_305
*3739 FILLER_0_65_317
*3740 FILLER_0_65_329
*3741 FILLER_0_65_335
*3742 FILLER_0_65_337
*3743 FILLER_0_65_349
*3744 FILLER_0_65_361
*3745 FILLER_0_65_373
*3746 FILLER_0_65_385
*3747 FILLER_0_65_39
*3748 FILLER_0_65_391
*3749 FILLER_0_65_393
*3750 FILLER_0_65_405
*3751 FILLER_0_65_417
*3752 FILLER_0_65_429
*3753 FILLER_0_65_441
*3754 FILLER_0_65_447
*3755 FILLER_0_65_449
*3756 FILLER_0_65_461
*3757 FILLER_0_65_473
*3758 FILLER_0_65_485
*3759 FILLER_0_65_497
*3760 FILLER_0_65_503
*3761 FILLER_0_65_505
*3762 FILLER_0_65_51
*3763 FILLER_0_65_513
*3764 FILLER_0_65_55
*3765 FILLER_0_65_57
*3766 FILLER_0_65_69
*3767 FILLER_0_65_81
*3768 FILLER_0_65_93
*3769 FILLER_0_66_109
*3770 FILLER_0_66_121
*3771 FILLER_0_66_133
*3772 FILLER_0_66_139
*3773 FILLER_0_66_141
*3774 FILLER_0_66_15
*3775 FILLER_0_66_153
*3776 FILLER_0_66_165
*3777 FILLER_0_66_177
*3778 FILLER_0_66_189
*3779 FILLER_0_66_195
*3780 FILLER_0_66_197
*3781 FILLER_0_66_209
*3782 FILLER_0_66_221
*3783 FILLER_0_66_233
*3784 FILLER_0_66_245
*3785 FILLER_0_66_251
*3786 FILLER_0_66_253
*3787 FILLER_0_66_265
*3788 FILLER_0_66_27
*3789 FILLER_0_66_277
*3790 FILLER_0_66_289
*3791 FILLER_0_66_29
*3792 FILLER_0_66_3
*3793 FILLER_0_66_301
*3794 FILLER_0_66_307
*3795 FILLER_0_66_309
*3796 FILLER_0_66_321
*3797 FILLER_0_66_333
*3798 FILLER_0_66_345
*3799 FILLER_0_66_357
*3800 FILLER_0_66_363
*3801 FILLER_0_66_365
*3802 FILLER_0_66_377
*3803 FILLER_0_66_389
*3804 FILLER_0_66_401
*3805 FILLER_0_66_41
*3806 FILLER_0_66_413
*3807 FILLER_0_66_419
*3808 FILLER_0_66_421
*3809 FILLER_0_66_433
*3810 FILLER_0_66_445
*3811 FILLER_0_66_457
*3812 FILLER_0_66_469
*3813 FILLER_0_66_475
*3814 FILLER_0_66_477
*3815 FILLER_0_66_489
*3816 FILLER_0_66_501
*3817 FILLER_0_66_513
*3818 FILLER_0_66_53
*3819 FILLER_0_66_65
*3820 FILLER_0_66_77
*3821 FILLER_0_66_83
*3822 FILLER_0_66_85
*3823 FILLER_0_66_97
*3824 FILLER_0_67_105
*3825 FILLER_0_67_111
*3826 FILLER_0_67_113
*3827 FILLER_0_67_125
*3828 FILLER_0_67_137
*3829 FILLER_0_67_149
*3830 FILLER_0_67_15
*3831 FILLER_0_67_161
*3832 FILLER_0_67_167
*3833 FILLER_0_67_169
*3834 FILLER_0_67_181
*3835 FILLER_0_67_193
*3836 FILLER_0_67_205
*3837 FILLER_0_67_217
*3838 FILLER_0_67_223
*3839 FILLER_0_67_225
*3840 FILLER_0_67_237
*3841 FILLER_0_67_249
*3842 FILLER_0_67_261
*3843 FILLER_0_67_27
*3844 FILLER_0_67_273
*3845 FILLER_0_67_279
*3846 FILLER_0_67_281
*3847 FILLER_0_67_293
*3848 FILLER_0_67_3
*3849 FILLER_0_67_305
*3850 FILLER_0_67_317
*3851 FILLER_0_67_329
*3852 FILLER_0_67_335
*3853 FILLER_0_67_337
*3854 FILLER_0_67_349
*3855 FILLER_0_67_361
*3856 FILLER_0_67_373
*3857 FILLER_0_67_385
*3858 FILLER_0_67_39
*3859 FILLER_0_67_391
*3860 FILLER_0_67_393
*3861 FILLER_0_67_405
*3862 FILLER_0_67_417
*3863 FILLER_0_67_429
*3864 FILLER_0_67_441
*3865 FILLER_0_67_447
*3866 FILLER_0_67_449
*3867 FILLER_0_67_461
*3868 FILLER_0_67_473
*3869 FILLER_0_67_485
*3870 FILLER_0_67_497
*3871 FILLER_0_67_503
*3872 FILLER_0_67_505
*3873 FILLER_0_67_51
*3874 FILLER_0_67_513
*3875 FILLER_0_67_55
*3876 FILLER_0_67_57
*3877 FILLER_0_67_69
*3878 FILLER_0_67_81
*3879 FILLER_0_67_93
*3880 FILLER_0_68_109
*3881 FILLER_0_68_121
*3882 FILLER_0_68_133
*3883 FILLER_0_68_139
*3884 FILLER_0_68_141
*3885 FILLER_0_68_15
*3886 FILLER_0_68_153
*3887 FILLER_0_68_165
*3888 FILLER_0_68_177
*3889 FILLER_0_68_189
*3890 FILLER_0_68_195
*3891 FILLER_0_68_197
*3892 FILLER_0_68_209
*3893 FILLER_0_68_221
*3894 FILLER_0_68_233
*3895 FILLER_0_68_245
*3896 FILLER_0_68_251
*3897 FILLER_0_68_253
*3898 FILLER_0_68_265
*3899 FILLER_0_68_27
*3900 FILLER_0_68_277
*3901 FILLER_0_68_289
*3902 FILLER_0_68_29
*3903 FILLER_0_68_3
*3904 FILLER_0_68_301
*3905 FILLER_0_68_307
*3906 FILLER_0_68_309
*3907 FILLER_0_68_321
*3908 FILLER_0_68_333
*3909 FILLER_0_68_345
*3910 FILLER_0_68_357
*3911 FILLER_0_68_363
*3912 FILLER_0_68_365
*3913 FILLER_0_68_377
*3914 FILLER_0_68_389
*3915 FILLER_0_68_401
*3916 FILLER_0_68_41
*3917 FILLER_0_68_413
*3918 FILLER_0_68_419
*3919 FILLER_0_68_421
*3920 FILLER_0_68_433
*3921 FILLER_0_68_445
*3922 FILLER_0_68_457
*3923 FILLER_0_68_469
*3924 FILLER_0_68_475
*3925 FILLER_0_68_477
*3926 FILLER_0_68_489
*3927 FILLER_0_68_501
*3928 FILLER_0_68_513
*3929 FILLER_0_68_53
*3930 FILLER_0_68_65
*3931 FILLER_0_68_77
*3932 FILLER_0_68_83
*3933 FILLER_0_68_85
*3934 FILLER_0_68_97
*3935 FILLER_0_69_105
*3936 FILLER_0_69_111
*3937 FILLER_0_69_113
*3938 FILLER_0_69_125
*3939 FILLER_0_69_137
*3940 FILLER_0_69_149
*3941 FILLER_0_69_15
*3942 FILLER_0_69_161
*3943 FILLER_0_69_167
*3944 FILLER_0_69_169
*3945 FILLER_0_69_181
*3946 FILLER_0_69_193
*3947 FILLER_0_69_205
*3948 FILLER_0_69_217
*3949 FILLER_0_69_223
*3950 FILLER_0_69_225
*3951 FILLER_0_69_237
*3952 FILLER_0_69_249
*3953 FILLER_0_69_261
*3954 FILLER_0_69_27
*3955 FILLER_0_69_273
*3956 FILLER_0_69_279
*3957 FILLER_0_69_281
*3958 FILLER_0_69_293
*3959 FILLER_0_69_3
*3960 FILLER_0_69_305
*3961 FILLER_0_69_317
*3962 FILLER_0_69_329
*3963 FILLER_0_69_335
*3964 FILLER_0_69_337
*3965 FILLER_0_69_349
*3966 FILLER_0_69_361
*3967 FILLER_0_69_373
*3968 FILLER_0_69_385
*3969 FILLER_0_69_39
*3970 FILLER_0_69_391
*3971 FILLER_0_69_393
*3972 FILLER_0_69_405
*3973 FILLER_0_69_417
*3974 FILLER_0_69_429
*3975 FILLER_0_69_441
*3976 FILLER_0_69_447
*3977 FILLER_0_69_449
*3978 FILLER_0_69_461
*3979 FILLER_0_69_473
*3980 FILLER_0_69_485
*3981 FILLER_0_69_497
*3982 FILLER_0_69_503
*3983 FILLER_0_69_505
*3984 FILLER_0_69_51
*3985 FILLER_0_69_513
*3986 FILLER_0_69_55
*3987 FILLER_0_69_57
*3988 FILLER_0_69_69
*3989 FILLER_0_69_81
*3990 FILLER_0_69_93
*3991 FILLER_0_6_109
*3992 FILLER_0_6_121
*3993 FILLER_0_6_133
*3994 FILLER_0_6_139
*3995 FILLER_0_6_141
*3996 FILLER_0_6_15
*3997 FILLER_0_6_153
*3998 FILLER_0_6_165
*3999 FILLER_0_6_177
*4000 FILLER_0_6_189
*4001 FILLER_0_6_195
*4002 FILLER_0_6_197
*4003 FILLER_0_6_209
*4004 FILLER_0_6_221
*4005 FILLER_0_6_233
*4006 FILLER_0_6_245
*4007 FILLER_0_6_251
*4008 FILLER_0_6_253
*4009 FILLER_0_6_265
*4010 FILLER_0_6_27
*4011 FILLER_0_6_277
*4012 FILLER_0_6_289
*4013 FILLER_0_6_29
*4014 FILLER_0_6_3
*4015 FILLER_0_6_301
*4016 FILLER_0_6_307
*4017 FILLER_0_6_309
*4018 FILLER_0_6_321
*4019 FILLER_0_6_333
*4020 FILLER_0_6_345
*4021 FILLER_0_6_357
*4022 FILLER_0_6_363
*4023 FILLER_0_6_365
*4024 FILLER_0_6_377
*4025 FILLER_0_6_389
*4026 FILLER_0_6_401
*4027 FILLER_0_6_41
*4028 FILLER_0_6_413
*4029 FILLER_0_6_419
*4030 FILLER_0_6_421
*4031 FILLER_0_6_433
*4032 FILLER_0_6_445
*4033 FILLER_0_6_457
*4034 FILLER_0_6_469
*4035 FILLER_0_6_475
*4036 FILLER_0_6_477
*4037 FILLER_0_6_489
*4038 FILLER_0_6_501
*4039 FILLER_0_6_513
*4040 FILLER_0_6_53
*4041 FILLER_0_6_65
*4042 FILLER_0_6_77
*4043 FILLER_0_6_83
*4044 FILLER_0_6_85
*4045 FILLER_0_6_97
*4046 FILLER_0_70_109
*4047 FILLER_0_70_121
*4048 FILLER_0_70_133
*4049 FILLER_0_70_139
*4050 FILLER_0_70_141
*4051 FILLER_0_70_15
*4052 FILLER_0_70_153
*4053 FILLER_0_70_165
*4054 FILLER_0_70_177
*4055 FILLER_0_70_189
*4056 FILLER_0_70_195
*4057 FILLER_0_70_197
*4058 FILLER_0_70_209
*4059 FILLER_0_70_221
*4060 FILLER_0_70_233
*4061 FILLER_0_70_245
*4062 FILLER_0_70_251
*4063 FILLER_0_70_253
*4064 FILLER_0_70_265
*4065 FILLER_0_70_27
*4066 FILLER_0_70_277
*4067 FILLER_0_70_289
*4068 FILLER_0_70_29
*4069 FILLER_0_70_3
*4070 FILLER_0_70_301
*4071 FILLER_0_70_307
*4072 FILLER_0_70_309
*4073 FILLER_0_70_321
*4074 FILLER_0_70_333
*4075 FILLER_0_70_345
*4076 FILLER_0_70_357
*4077 FILLER_0_70_363
*4078 FILLER_0_70_365
*4079 FILLER_0_70_377
*4080 FILLER_0_70_389
*4081 FILLER_0_70_401
*4082 FILLER_0_70_41
*4083 FILLER_0_70_413
*4084 FILLER_0_70_419
*4085 FILLER_0_70_421
*4086 FILLER_0_70_433
*4087 FILLER_0_70_445
*4088 FILLER_0_70_457
*4089 FILLER_0_70_469
*4090 FILLER_0_70_475
*4091 FILLER_0_70_477
*4092 FILLER_0_70_489
*4093 FILLER_0_70_501
*4094 FILLER_0_70_513
*4095 FILLER_0_70_53
*4096 FILLER_0_70_65
*4097 FILLER_0_70_77
*4098 FILLER_0_70_83
*4099 FILLER_0_70_85
*4100 FILLER_0_70_97
*4101 FILLER_0_71_105
*4102 FILLER_0_71_111
*4103 FILLER_0_71_113
*4104 FILLER_0_71_125
*4105 FILLER_0_71_137
*4106 FILLER_0_71_149
*4107 FILLER_0_71_15
*4108 FILLER_0_71_161
*4109 FILLER_0_71_167
*4110 FILLER_0_71_169
*4111 FILLER_0_71_181
*4112 FILLER_0_71_193
*4113 FILLER_0_71_205
*4114 FILLER_0_71_217
*4115 FILLER_0_71_223
*4116 FILLER_0_71_225
*4117 FILLER_0_71_237
*4118 FILLER_0_71_249
*4119 FILLER_0_71_261
*4120 FILLER_0_71_27
*4121 FILLER_0_71_273
*4122 FILLER_0_71_279
*4123 FILLER_0_71_281
*4124 FILLER_0_71_293
*4125 FILLER_0_71_3
*4126 FILLER_0_71_305
*4127 FILLER_0_71_317
*4128 FILLER_0_71_329
*4129 FILLER_0_71_335
*4130 FILLER_0_71_337
*4131 FILLER_0_71_349
*4132 FILLER_0_71_361
*4133 FILLER_0_71_373
*4134 FILLER_0_71_385
*4135 FILLER_0_71_39
*4136 FILLER_0_71_391
*4137 FILLER_0_71_393
*4138 FILLER_0_71_405
*4139 FILLER_0_71_417
*4140 FILLER_0_71_429
*4141 FILLER_0_71_441
*4142 FILLER_0_71_447
*4143 FILLER_0_71_449
*4144 FILLER_0_71_461
*4145 FILLER_0_71_473
*4146 FILLER_0_71_485
*4147 FILLER_0_71_497
*4148 FILLER_0_71_503
*4149 FILLER_0_71_505
*4150 FILLER_0_71_51
*4151 FILLER_0_71_513
*4152 FILLER_0_71_55
*4153 FILLER_0_71_57
*4154 FILLER_0_71_69
*4155 FILLER_0_71_81
*4156 FILLER_0_71_93
*4157 FILLER_0_72_109
*4158 FILLER_0_72_121
*4159 FILLER_0_72_133
*4160 FILLER_0_72_139
*4161 FILLER_0_72_141
*4162 FILLER_0_72_15
*4163 FILLER_0_72_153
*4164 FILLER_0_72_165
*4165 FILLER_0_72_177
*4166 FILLER_0_72_189
*4167 FILLER_0_72_195
*4168 FILLER_0_72_197
*4169 FILLER_0_72_209
*4170 FILLER_0_72_221
*4171 FILLER_0_72_233
*4172 FILLER_0_72_245
*4173 FILLER_0_72_251
*4174 FILLER_0_72_253
*4175 FILLER_0_72_265
*4176 FILLER_0_72_27
*4177 FILLER_0_72_277
*4178 FILLER_0_72_289
*4179 FILLER_0_72_29
*4180 FILLER_0_72_3
*4181 FILLER_0_72_301
*4182 FILLER_0_72_307
*4183 FILLER_0_72_309
*4184 FILLER_0_72_321
*4185 FILLER_0_72_333
*4186 FILLER_0_72_345
*4187 FILLER_0_72_357
*4188 FILLER_0_72_363
*4189 FILLER_0_72_365
*4190 FILLER_0_72_377
*4191 FILLER_0_72_389
*4192 FILLER_0_72_401
*4193 FILLER_0_72_41
*4194 FILLER_0_72_413
*4195 FILLER_0_72_419
*4196 FILLER_0_72_421
*4197 FILLER_0_72_433
*4198 FILLER_0_72_445
*4199 FILLER_0_72_457
*4200 FILLER_0_72_469
*4201 FILLER_0_72_475
*4202 FILLER_0_72_477
*4203 FILLER_0_72_489
*4204 FILLER_0_72_501
*4205 FILLER_0_72_509
*4206 FILLER_0_72_53
*4207 FILLER_0_72_65
*4208 FILLER_0_72_77
*4209 FILLER_0_72_83
*4210 FILLER_0_72_85
*4211 FILLER_0_72_97
*4212 FILLER_0_73_105
*4213 FILLER_0_73_111
*4214 FILLER_0_73_113
*4215 FILLER_0_73_125
*4216 FILLER_0_73_137
*4217 FILLER_0_73_149
*4218 FILLER_0_73_15
*4219 FILLER_0_73_161
*4220 FILLER_0_73_167
*4221 FILLER_0_73_169
*4222 FILLER_0_73_181
*4223 FILLER_0_73_193
*4224 FILLER_0_73_205
*4225 FILLER_0_73_217
*4226 FILLER_0_73_223
*4227 FILLER_0_73_225
*4228 FILLER_0_73_237
*4229 FILLER_0_73_249
*4230 FILLER_0_73_261
*4231 FILLER_0_73_27
*4232 FILLER_0_73_273
*4233 FILLER_0_73_279
*4234 FILLER_0_73_281
*4235 FILLER_0_73_293
*4236 FILLER_0_73_3
*4237 FILLER_0_73_305
*4238 FILLER_0_73_317
*4239 FILLER_0_73_329
*4240 FILLER_0_73_335
*4241 FILLER_0_73_337
*4242 FILLER_0_73_349
*4243 FILLER_0_73_361
*4244 FILLER_0_73_373
*4245 FILLER_0_73_385
*4246 FILLER_0_73_39
*4247 FILLER_0_73_391
*4248 FILLER_0_73_393
*4249 FILLER_0_73_405
*4250 FILLER_0_73_417
*4251 FILLER_0_73_429
*4252 FILLER_0_73_441
*4253 FILLER_0_73_447
*4254 FILLER_0_73_449
*4255 FILLER_0_73_461
*4256 FILLER_0_73_473
*4257 FILLER_0_73_485
*4258 FILLER_0_73_497
*4259 FILLER_0_73_503
*4260 FILLER_0_73_505
*4261 FILLER_0_73_51
*4262 FILLER_0_73_513
*4263 FILLER_0_73_55
*4264 FILLER_0_73_57
*4265 FILLER_0_73_69
*4266 FILLER_0_73_81
*4267 FILLER_0_73_93
*4268 FILLER_0_74_109
*4269 FILLER_0_74_121
*4270 FILLER_0_74_133
*4271 FILLER_0_74_139
*4272 FILLER_0_74_141
*4273 FILLER_0_74_15
*4274 FILLER_0_74_153
*4275 FILLER_0_74_165
*4276 FILLER_0_74_177
*4277 FILLER_0_74_189
*4278 FILLER_0_74_195
*4279 FILLER_0_74_197
*4280 FILLER_0_74_209
*4281 FILLER_0_74_221
*4282 FILLER_0_74_233
*4283 FILLER_0_74_245
*4284 FILLER_0_74_251
*4285 FILLER_0_74_253
*4286 FILLER_0_74_265
*4287 FILLER_0_74_27
*4288 FILLER_0_74_277
*4289 FILLER_0_74_289
*4290 FILLER_0_74_29
*4291 FILLER_0_74_3
*4292 FILLER_0_74_301
*4293 FILLER_0_74_307
*4294 FILLER_0_74_309
*4295 FILLER_0_74_321
*4296 FILLER_0_74_333
*4297 FILLER_0_74_345
*4298 FILLER_0_74_357
*4299 FILLER_0_74_363
*4300 FILLER_0_74_365
*4301 FILLER_0_74_377
*4302 FILLER_0_74_389
*4303 FILLER_0_74_401
*4304 FILLER_0_74_41
*4305 FILLER_0_74_413
*4306 FILLER_0_74_419
*4307 FILLER_0_74_421
*4308 FILLER_0_74_433
*4309 FILLER_0_74_445
*4310 FILLER_0_74_457
*4311 FILLER_0_74_469
*4312 FILLER_0_74_475
*4313 FILLER_0_74_477
*4314 FILLER_0_74_489
*4315 FILLER_0_74_501
*4316 FILLER_0_74_513
*4317 FILLER_0_74_53
*4318 FILLER_0_74_65
*4319 FILLER_0_74_77
*4320 FILLER_0_74_83
*4321 FILLER_0_74_85
*4322 FILLER_0_74_97
*4323 FILLER_0_75_105
*4324 FILLER_0_75_111
*4325 FILLER_0_75_113
*4326 FILLER_0_75_125
*4327 FILLER_0_75_137
*4328 FILLER_0_75_149
*4329 FILLER_0_75_161
*4330 FILLER_0_75_167
*4331 FILLER_0_75_169
*4332 FILLER_0_75_181
*4333 FILLER_0_75_193
*4334 FILLER_0_75_205
*4335 FILLER_0_75_21
*4336 FILLER_0_75_217
*4337 FILLER_0_75_223
*4338 FILLER_0_75_225
*4339 FILLER_0_75_237
*4340 FILLER_0_75_249
*4341 FILLER_0_75_261
*4342 FILLER_0_75_273
*4343 FILLER_0_75_279
*4344 FILLER_0_75_281
*4345 FILLER_0_75_293
*4346 FILLER_0_75_305
*4347 FILLER_0_75_317
*4348 FILLER_0_75_329
*4349 FILLER_0_75_33
*4350 FILLER_0_75_335
*4351 FILLER_0_75_337
*4352 FILLER_0_75_349
*4353 FILLER_0_75_361
*4354 FILLER_0_75_373
*4355 FILLER_0_75_385
*4356 FILLER_0_75_391
*4357 FILLER_0_75_393
*4358 FILLER_0_75_405
*4359 FILLER_0_75_417
*4360 FILLER_0_75_429
*4361 FILLER_0_75_441
*4362 FILLER_0_75_447
*4363 FILLER_0_75_449
*4364 FILLER_0_75_45
*4365 FILLER_0_75_461
*4366 FILLER_0_75_473
*4367 FILLER_0_75_485
*4368 FILLER_0_75_497
*4369 FILLER_0_75_503
*4370 FILLER_0_75_505
*4371 FILLER_0_75_513
*4372 FILLER_0_75_53
*4373 FILLER_0_75_57
*4374 FILLER_0_75_69
*4375 FILLER_0_75_81
*4376 FILLER_0_75_9
*4377 FILLER_0_75_93
*4378 FILLER_0_76_109
*4379 FILLER_0_76_121
*4380 FILLER_0_76_133
*4381 FILLER_0_76_139
*4382 FILLER_0_76_141
*4383 FILLER_0_76_15
*4384 FILLER_0_76_153
*4385 FILLER_0_76_165
*4386 FILLER_0_76_177
*4387 FILLER_0_76_189
*4388 FILLER_0_76_195
*4389 FILLER_0_76_197
*4390 FILLER_0_76_209
*4391 FILLER_0_76_221
*4392 FILLER_0_76_233
*4393 FILLER_0_76_245
*4394 FILLER_0_76_251
*4395 FILLER_0_76_253
*4396 FILLER_0_76_265
*4397 FILLER_0_76_27
*4398 FILLER_0_76_277
*4399 FILLER_0_76_289
*4400 FILLER_0_76_29
*4401 FILLER_0_76_3
*4402 FILLER_0_76_301
*4403 FILLER_0_76_307
*4404 FILLER_0_76_309
*4405 FILLER_0_76_321
*4406 FILLER_0_76_333
*4407 FILLER_0_76_345
*4408 FILLER_0_76_357
*4409 FILLER_0_76_363
*4410 FILLER_0_76_365
*4411 FILLER_0_76_377
*4412 FILLER_0_76_389
*4413 FILLER_0_76_401
*4414 FILLER_0_76_41
*4415 FILLER_0_76_413
*4416 FILLER_0_76_419
*4417 FILLER_0_76_421
*4418 FILLER_0_76_433
*4419 FILLER_0_76_445
*4420 FILLER_0_76_457
*4421 FILLER_0_76_469
*4422 FILLER_0_76_475
*4423 FILLER_0_76_477
*4424 FILLER_0_76_489
*4425 FILLER_0_76_501
*4426 FILLER_0_76_513
*4427 FILLER_0_76_53
*4428 FILLER_0_76_65
*4429 FILLER_0_76_77
*4430 FILLER_0_76_83
*4431 FILLER_0_76_85
*4432 FILLER_0_76_97
*4433 FILLER_0_77_105
*4434 FILLER_0_77_111
*4435 FILLER_0_77_113
*4436 FILLER_0_77_125
*4437 FILLER_0_77_137
*4438 FILLER_0_77_149
*4439 FILLER_0_77_15
*4440 FILLER_0_77_161
*4441 FILLER_0_77_167
*4442 FILLER_0_77_169
*4443 FILLER_0_77_181
*4444 FILLER_0_77_193
*4445 FILLER_0_77_205
*4446 FILLER_0_77_217
*4447 FILLER_0_77_223
*4448 FILLER_0_77_225
*4449 FILLER_0_77_237
*4450 FILLER_0_77_249
*4451 FILLER_0_77_261
*4452 FILLER_0_77_27
*4453 FILLER_0_77_273
*4454 FILLER_0_77_279
*4455 FILLER_0_77_281
*4456 FILLER_0_77_293
*4457 FILLER_0_77_3
*4458 FILLER_0_77_305
*4459 FILLER_0_77_317
*4460 FILLER_0_77_329
*4461 FILLER_0_77_335
*4462 FILLER_0_77_337
*4463 FILLER_0_77_349
*4464 FILLER_0_77_361
*4465 FILLER_0_77_373
*4466 FILLER_0_77_385
*4467 FILLER_0_77_39
*4468 FILLER_0_77_391
*4469 FILLER_0_77_393
*4470 FILLER_0_77_405
*4471 FILLER_0_77_417
*4472 FILLER_0_77_429
*4473 FILLER_0_77_441
*4474 FILLER_0_77_447
*4475 FILLER_0_77_449
*4476 FILLER_0_77_461
*4477 FILLER_0_77_473
*4478 FILLER_0_77_485
*4479 FILLER_0_77_497
*4480 FILLER_0_77_503
*4481 FILLER_0_77_505
*4482 FILLER_0_77_51
*4483 FILLER_0_77_513
*4484 FILLER_0_77_55
*4485 FILLER_0_77_57
*4486 FILLER_0_77_69
*4487 FILLER_0_77_81
*4488 FILLER_0_77_93
*4489 FILLER_0_78_109
*4490 FILLER_0_78_121
*4491 FILLER_0_78_133
*4492 FILLER_0_78_139
*4493 FILLER_0_78_141
*4494 FILLER_0_78_15
*4495 FILLER_0_78_153
*4496 FILLER_0_78_165
*4497 FILLER_0_78_177
*4498 FILLER_0_78_189
*4499 FILLER_0_78_195
*4500 FILLER_0_78_197
*4501 FILLER_0_78_209
*4502 FILLER_0_78_221
*4503 FILLER_0_78_233
*4504 FILLER_0_78_245
*4505 FILLER_0_78_251
*4506 FILLER_0_78_253
*4507 FILLER_0_78_265
*4508 FILLER_0_78_27
*4509 FILLER_0_78_277
*4510 FILLER_0_78_289
*4511 FILLER_0_78_29
*4512 FILLER_0_78_3
*4513 FILLER_0_78_301
*4514 FILLER_0_78_307
*4515 FILLER_0_78_309
*4516 FILLER_0_78_321
*4517 FILLER_0_78_333
*4518 FILLER_0_78_345
*4519 FILLER_0_78_357
*4520 FILLER_0_78_363
*4521 FILLER_0_78_365
*4522 FILLER_0_78_377
*4523 FILLER_0_78_389
*4524 FILLER_0_78_401
*4525 FILLER_0_78_41
*4526 FILLER_0_78_413
*4527 FILLER_0_78_419
*4528 FILLER_0_78_421
*4529 FILLER_0_78_433
*4530 FILLER_0_78_445
*4531 FILLER_0_78_457
*4532 FILLER_0_78_469
*4533 FILLER_0_78_475
*4534 FILLER_0_78_477
*4535 FILLER_0_78_489
*4536 FILLER_0_78_501
*4537 FILLER_0_78_513
*4538 FILLER_0_78_53
*4539 FILLER_0_78_65
*4540 FILLER_0_78_77
*4541 FILLER_0_78_83
*4542 FILLER_0_78_85
*4543 FILLER_0_78_97
*4544 FILLER_0_79_105
*4545 FILLER_0_79_111
*4546 FILLER_0_79_113
*4547 FILLER_0_79_125
*4548 FILLER_0_79_137
*4549 FILLER_0_79_149
*4550 FILLER_0_79_15
*4551 FILLER_0_79_161
*4552 FILLER_0_79_167
*4553 FILLER_0_79_169
*4554 FILLER_0_79_181
*4555 FILLER_0_79_193
*4556 FILLER_0_79_205
*4557 FILLER_0_79_217
*4558 FILLER_0_79_223
*4559 FILLER_0_79_225
*4560 FILLER_0_79_237
*4561 FILLER_0_79_249
*4562 FILLER_0_79_261
*4563 FILLER_0_79_27
*4564 FILLER_0_79_273
*4565 FILLER_0_79_279
*4566 FILLER_0_79_281
*4567 FILLER_0_79_293
*4568 FILLER_0_79_3
*4569 FILLER_0_79_305
*4570 FILLER_0_79_317
*4571 FILLER_0_79_329
*4572 FILLER_0_79_335
*4573 FILLER_0_79_337
*4574 FILLER_0_79_349
*4575 FILLER_0_79_361
*4576 FILLER_0_79_373
*4577 FILLER_0_79_385
*4578 FILLER_0_79_39
*4579 FILLER_0_79_391
*4580 FILLER_0_79_393
*4581 FILLER_0_79_405
*4582 FILLER_0_79_417
*4583 FILLER_0_79_429
*4584 FILLER_0_79_441
*4585 FILLER_0_79_447
*4586 FILLER_0_79_449
*4587 FILLER_0_79_461
*4588 FILLER_0_79_473
*4589 FILLER_0_79_485
*4590 FILLER_0_79_497
*4591 FILLER_0_79_503
*4592 FILLER_0_79_505
*4593 FILLER_0_79_51
*4594 FILLER_0_79_513
*4595 FILLER_0_79_55
*4596 FILLER_0_79_57
*4597 FILLER_0_79_69
*4598 FILLER_0_79_81
*4599 FILLER_0_79_93
*4600 FILLER_0_7_105
*4601 FILLER_0_7_111
*4602 FILLER_0_7_113
*4603 FILLER_0_7_125
*4604 FILLER_0_7_137
*4605 FILLER_0_7_149
*4606 FILLER_0_7_15
*4607 FILLER_0_7_161
*4608 FILLER_0_7_167
*4609 FILLER_0_7_169
*4610 FILLER_0_7_181
*4611 FILLER_0_7_193
*4612 FILLER_0_7_205
*4613 FILLER_0_7_217
*4614 FILLER_0_7_223
*4615 FILLER_0_7_225
*4616 FILLER_0_7_237
*4617 FILLER_0_7_249
*4618 FILLER_0_7_261
*4619 FILLER_0_7_27
*4620 FILLER_0_7_273
*4621 FILLER_0_7_279
*4622 FILLER_0_7_281
*4623 FILLER_0_7_293
*4624 FILLER_0_7_3
*4625 FILLER_0_7_305
*4626 FILLER_0_7_317
*4627 FILLER_0_7_329
*4628 FILLER_0_7_335
*4629 FILLER_0_7_337
*4630 FILLER_0_7_349
*4631 FILLER_0_7_361
*4632 FILLER_0_7_373
*4633 FILLER_0_7_385
*4634 FILLER_0_7_39
*4635 FILLER_0_7_391
*4636 FILLER_0_7_393
*4637 FILLER_0_7_405
*4638 FILLER_0_7_417
*4639 FILLER_0_7_429
*4640 FILLER_0_7_441
*4641 FILLER_0_7_447
*4642 FILLER_0_7_449
*4643 FILLER_0_7_461
*4644 FILLER_0_7_473
*4645 FILLER_0_7_485
*4646 FILLER_0_7_497
*4647 FILLER_0_7_503
*4648 FILLER_0_7_505
*4649 FILLER_0_7_51
*4650 FILLER_0_7_513
*4651 FILLER_0_7_55
*4652 FILLER_0_7_57
*4653 FILLER_0_7_69
*4654 FILLER_0_7_81
*4655 FILLER_0_7_93
*4656 FILLER_0_80_109
*4657 FILLER_0_80_121
*4658 FILLER_0_80_133
*4659 FILLER_0_80_139
*4660 FILLER_0_80_141
*4661 FILLER_0_80_15
*4662 FILLER_0_80_153
*4663 FILLER_0_80_165
*4664 FILLER_0_80_177
*4665 FILLER_0_80_189
*4666 FILLER_0_80_195
*4667 FILLER_0_80_197
*4668 FILLER_0_80_209
*4669 FILLER_0_80_221
*4670 FILLER_0_80_233
*4671 FILLER_0_80_245
*4672 FILLER_0_80_251
*4673 FILLER_0_80_253
*4674 FILLER_0_80_265
*4675 FILLER_0_80_27
*4676 FILLER_0_80_277
*4677 FILLER_0_80_289
*4678 FILLER_0_80_29
*4679 FILLER_0_80_3
*4680 FILLER_0_80_301
*4681 FILLER_0_80_307
*4682 FILLER_0_80_309
*4683 FILLER_0_80_321
*4684 FILLER_0_80_333
*4685 FILLER_0_80_345
*4686 FILLER_0_80_357
*4687 FILLER_0_80_363
*4688 FILLER_0_80_365
*4689 FILLER_0_80_377
*4690 FILLER_0_80_389
*4691 FILLER_0_80_401
*4692 FILLER_0_80_41
*4693 FILLER_0_80_413
*4694 FILLER_0_80_419
*4695 FILLER_0_80_421
*4696 FILLER_0_80_433
*4697 FILLER_0_80_445
*4698 FILLER_0_80_457
*4699 FILLER_0_80_469
*4700 FILLER_0_80_475
*4701 FILLER_0_80_477
*4702 FILLER_0_80_489
*4703 FILLER_0_80_501
*4704 FILLER_0_80_513
*4705 FILLER_0_80_53
*4706 FILLER_0_80_65
*4707 FILLER_0_80_77
*4708 FILLER_0_80_83
*4709 FILLER_0_80_85
*4710 FILLER_0_80_97
*4711 FILLER_0_81_105
*4712 FILLER_0_81_111
*4713 FILLER_0_81_113
*4714 FILLER_0_81_125
*4715 FILLER_0_81_137
*4716 FILLER_0_81_149
*4717 FILLER_0_81_15
*4718 FILLER_0_81_161
*4719 FILLER_0_81_167
*4720 FILLER_0_81_169
*4721 FILLER_0_81_181
*4722 FILLER_0_81_193
*4723 FILLER_0_81_205
*4724 FILLER_0_81_217
*4725 FILLER_0_81_223
*4726 FILLER_0_81_225
*4727 FILLER_0_81_237
*4728 FILLER_0_81_249
*4729 FILLER_0_81_261
*4730 FILLER_0_81_27
*4731 FILLER_0_81_273
*4732 FILLER_0_81_279
*4733 FILLER_0_81_281
*4734 FILLER_0_81_293
*4735 FILLER_0_81_3
*4736 FILLER_0_81_305
*4737 FILLER_0_81_317
*4738 FILLER_0_81_329
*4739 FILLER_0_81_335
*4740 FILLER_0_81_337
*4741 FILLER_0_81_349
*4742 FILLER_0_81_361
*4743 FILLER_0_81_373
*4744 FILLER_0_81_385
*4745 FILLER_0_81_39
*4746 FILLER_0_81_391
*4747 FILLER_0_81_393
*4748 FILLER_0_81_405
*4749 FILLER_0_81_417
*4750 FILLER_0_81_429
*4751 FILLER_0_81_441
*4752 FILLER_0_81_447
*4753 FILLER_0_81_449
*4754 FILLER_0_81_461
*4755 FILLER_0_81_473
*4756 FILLER_0_81_485
*4757 FILLER_0_81_497
*4758 FILLER_0_81_503
*4759 FILLER_0_81_505
*4760 FILLER_0_81_51
*4761 FILLER_0_81_513
*4762 FILLER_0_81_55
*4763 FILLER_0_81_57
*4764 FILLER_0_81_69
*4765 FILLER_0_81_81
*4766 FILLER_0_81_93
*4767 FILLER_0_82_105
*4768 FILLER_0_82_111
*4769 FILLER_0_82_113
*4770 FILLER_0_82_125
*4771 FILLER_0_82_137
*4772 FILLER_0_82_141
*4773 FILLER_0_82_153
*4774 FILLER_0_82_165
*4775 FILLER_0_82_169
*4776 FILLER_0_82_181
*4777 FILLER_0_82_19
*4778 FILLER_0_82_193
*4779 FILLER_0_82_197
*4780 FILLER_0_82_209
*4781 FILLER_0_82_221
*4782 FILLER_0_82_225
*4783 FILLER_0_82_237
*4784 FILLER_0_82_249
*4785 FILLER_0_82_253
*4786 FILLER_0_82_265
*4787 FILLER_0_82_27
*4788 FILLER_0_82_277
*4789 FILLER_0_82_281
*4790 FILLER_0_82_29
*4791 FILLER_0_82_293
*4792 FILLER_0_82_305
*4793 FILLER_0_82_309
*4794 FILLER_0_82_321
*4795 FILLER_0_82_333
*4796 FILLER_0_82_337
*4797 FILLER_0_82_349
*4798 FILLER_0_82_359
*4799 FILLER_0_82_363
*4800 FILLER_0_82_365
*4801 FILLER_0_82_377
*4802 FILLER_0_82_389
*4803 FILLER_0_82_393
*4804 FILLER_0_82_405
*4805 FILLER_0_82_41
*4806 FILLER_0_82_417
*4807 FILLER_0_82_421
*4808 FILLER_0_82_433
*4809 FILLER_0_82_445
*4810 FILLER_0_82_455
*4811 FILLER_0_82_459
*4812 FILLER_0_82_471
*4813 FILLER_0_82_475
*4814 FILLER_0_82_477
*4815 FILLER_0_82_489
*4816 FILLER_0_82_501
*4817 FILLER_0_82_505
*4818 FILLER_0_82_509
*4819 FILLER_0_82_53
*4820 FILLER_0_82_57
*4821 FILLER_0_82_69
*4822 FILLER_0_82_7
*4823 FILLER_0_82_81
*4824 FILLER_0_82_85
*4825 FILLER_0_82_93
*4826 FILLER_0_8_109
*4827 FILLER_0_8_121
*4828 FILLER_0_8_133
*4829 FILLER_0_8_139
*4830 FILLER_0_8_141
*4831 FILLER_0_8_15
*4832 FILLER_0_8_153
*4833 FILLER_0_8_165
*4834 FILLER_0_8_177
*4835 FILLER_0_8_189
*4836 FILLER_0_8_195
*4837 FILLER_0_8_197
*4838 FILLER_0_8_209
*4839 FILLER_0_8_221
*4840 FILLER_0_8_233
*4841 FILLER_0_8_245
*4842 FILLER_0_8_251
*4843 FILLER_0_8_253
*4844 FILLER_0_8_265
*4845 FILLER_0_8_27
*4846 FILLER_0_8_277
*4847 FILLER_0_8_289
*4848 FILLER_0_8_29
*4849 FILLER_0_8_3
*4850 FILLER_0_8_301
*4851 FILLER_0_8_307
*4852 FILLER_0_8_309
*4853 FILLER_0_8_321
*4854 FILLER_0_8_333
*4855 FILLER_0_8_345
*4856 FILLER_0_8_357
*4857 FILLER_0_8_363
*4858 FILLER_0_8_365
*4859 FILLER_0_8_377
*4860 FILLER_0_8_389
*4861 FILLER_0_8_401
*4862 FILLER_0_8_41
*4863 FILLER_0_8_413
*4864 FILLER_0_8_419
*4865 FILLER_0_8_421
*4866 FILLER_0_8_433
*4867 FILLER_0_8_445
*4868 FILLER_0_8_457
*4869 FILLER_0_8_469
*4870 FILLER_0_8_475
*4871 FILLER_0_8_477
*4872 FILLER_0_8_489
*4873 FILLER_0_8_501
*4874 FILLER_0_8_513
*4875 FILLER_0_8_53
*4876 FILLER_0_8_65
*4877 FILLER_0_8_77
*4878 FILLER_0_8_83
*4879 FILLER_0_8_85
*4880 FILLER_0_8_97
*4881 FILLER_0_9_105
*4882 FILLER_0_9_111
*4883 FILLER_0_9_113
*4884 FILLER_0_9_125
*4885 FILLER_0_9_137
*4886 FILLER_0_9_149
*4887 FILLER_0_9_15
*4888 FILLER_0_9_161
*4889 FILLER_0_9_167
*4890 FILLER_0_9_169
*4891 FILLER_0_9_181
*4892 FILLER_0_9_193
*4893 FILLER_0_9_205
*4894 FILLER_0_9_217
*4895 FILLER_0_9_223
*4896 FILLER_0_9_225
*4897 FILLER_0_9_237
*4898 FILLER_0_9_249
*4899 FILLER_0_9_261
*4900 FILLER_0_9_27
*4901 FILLER_0_9_273
*4902 FILLER_0_9_279
*4903 FILLER_0_9_281
*4904 FILLER_0_9_293
*4905 FILLER_0_9_3
*4906 FILLER_0_9_305
*4907 FILLER_0_9_317
*4908 FILLER_0_9_329
*4909 FILLER_0_9_335
*4910 FILLER_0_9_337
*4911 FILLER_0_9_349
*4912 FILLER_0_9_361
*4913 FILLER_0_9_373
*4914 FILLER_0_9_385
*4915 FILLER_0_9_39
*4916 FILLER_0_9_391
*4917 FILLER_0_9_393
*4918 FILLER_0_9_405
*4919 FILLER_0_9_417
*4920 FILLER_0_9_429
*4921 FILLER_0_9_441
*4922 FILLER_0_9_447
*4923 FILLER_0_9_449
*4924 FILLER_0_9_461
*4925 FILLER_0_9_473
*4926 FILLER_0_9_485
*4927 FILLER_0_9_497
*4928 FILLER_0_9_503
*4929 FILLER_0_9_505
*4930 FILLER_0_9_509
*4931 FILLER_0_9_51
*4932 FILLER_0_9_55
*4933 FILLER_0_9_57
*4934 FILLER_0_9_69
*4935 FILLER_0_9_81
*4936 FILLER_0_9_93
*4937 PHY_0
*4938 PHY_1
*4939 PHY_10
*4940 PHY_100
*4941 PHY_101
*4942 PHY_102
*4943 PHY_103
*4944 PHY_104
*4945 PHY_105
*4946 PHY_106
*4947 PHY_107
*4948 PHY_108
*4949 PHY_109
*4950 PHY_11
*4951 PHY_110
*4952 PHY_111
*4953 PHY_112
*4954 PHY_113
*4955 PHY_114
*4956 PHY_115
*4957 PHY_116
*4958 PHY_117
*4959 PHY_118
*4960 PHY_119
*4961 PHY_12
*4962 PHY_120
*4963 PHY_121
*4964 PHY_122
*4965 PHY_123
*4966 PHY_124
*4967 PHY_125
*4968 PHY_126
*4969 PHY_127
*4970 PHY_128
*4971 PHY_129
*4972 PHY_13
*4973 PHY_130
*4974 PHY_131
*4975 PHY_132
*4976 PHY_133
*4977 PHY_134
*4978 PHY_135
*4979 PHY_136
*4980 PHY_137
*4981 PHY_138
*4982 PHY_139
*4983 PHY_14
*4984 PHY_140
*4985 PHY_141
*4986 PHY_142
*4987 PHY_143
*4988 PHY_144
*4989 PHY_145
*4990 PHY_146
*4991 PHY_147
*4992 PHY_148
*4993 PHY_149
*4994 PHY_15
*4995 PHY_150
*4996 PHY_151
*4997 PHY_152
*4998 PHY_153
*4999 PHY_154
*5000 PHY_155
*5001 PHY_156
*5002 PHY_157
*5003 PHY_158
*5004 PHY_159
*5005 PHY_16
*5006 PHY_160
*5007 PHY_161
*5008 PHY_162
*5009 PHY_163
*5010 PHY_164
*5011 PHY_165
*5012 PHY_17
*5013 PHY_18
*5014 PHY_19
*5015 PHY_2
*5016 PHY_20
*5017 PHY_21
*5018 PHY_22
*5019 PHY_23
*5020 PHY_24
*5021 PHY_25
*5022 PHY_26
*5023 PHY_27
*5024 PHY_28
*5025 PHY_29
*5026 PHY_3
*5027 PHY_30
*5028 PHY_31
*5029 PHY_32
*5030 PHY_33
*5031 PHY_34
*5032 PHY_35
*5033 PHY_36
*5034 PHY_37
*5035 PHY_38
*5036 PHY_39
*5037 PHY_4
*5038 PHY_40
*5039 PHY_41
*5040 PHY_42
*5041 PHY_43
*5042 PHY_44
*5043 PHY_45
*5044 PHY_46
*5045 PHY_47
*5046 PHY_48
*5047 PHY_49
*5048 PHY_5
*5049 PHY_50
*5050 PHY_51
*5051 PHY_52
*5052 PHY_53
*5053 PHY_54
*5054 PHY_55
*5055 PHY_56
*5056 PHY_57
*5057 PHY_58
*5058 PHY_59
*5059 PHY_6
*5060 PHY_60
*5061 PHY_61
*5062 PHY_62
*5063 PHY_63
*5064 PHY_64
*5065 PHY_65
*5066 PHY_66
*5067 PHY_67
*5068 PHY_68
*5069 PHY_69
*5070 PHY_7
*5071 PHY_70
*5072 PHY_71
*5073 PHY_72
*5074 PHY_73
*5075 PHY_74
*5076 PHY_75
*5077 PHY_76
*5078 PHY_77
*5079 PHY_78
*5080 PHY_79
*5081 PHY_8
*5082 PHY_80
*5083 PHY_81
*5084 PHY_82
*5085 PHY_83
*5086 PHY_84
*5087 PHY_85
*5088 PHY_86
*5089 PHY_87
*5090 PHY_88
*5091 PHY_89
*5092 PHY_9
*5093 PHY_90
*5094 PHY_91
*5095 PHY_92
*5096 PHY_93
*5097 PHY_94
*5098 PHY_95
*5099 PHY_96
*5100 PHY_97
*5101 PHY_98
*5102 PHY_99
*5103 TAP_166
*5104 TAP_167
*5105 TAP_168
*5106 TAP_169
*5107 TAP_170
*5108 TAP_171
*5109 TAP_172
*5110 TAP_173
*5111 TAP_174
*5112 TAP_175
*5113 TAP_176
*5114 TAP_177
*5115 TAP_178
*5116 TAP_179
*5117 TAP_180
*5118 TAP_181
*5119 TAP_182
*5120 TAP_183
*5121 TAP_184
*5122 TAP_185
*5123 TAP_186
*5124 TAP_187
*5125 TAP_188
*5126 TAP_189
*5127 TAP_190
*5128 TAP_191
*5129 TAP_192
*5130 TAP_193
*5131 TAP_194
*5132 TAP_195
*5133 TAP_196
*5134 TAP_197
*5135 TAP_198
*5136 TAP_199
*5137 TAP_200
*5138 TAP_201
*5139 TAP_202
*5140 TAP_203
*5141 TAP_204
*5142 TAP_205
*5143 TAP_206
*5144 TAP_207
*5145 TAP_208
*5146 TAP_209
*5147 TAP_210
*5148 TAP_211
*5149 TAP_212
*5150 TAP_213
*5151 TAP_214
*5152 TAP_215
*5153 TAP_216
*5154 TAP_217
*5155 TAP_218
*5156 TAP_219
*5157 TAP_220
*5158 TAP_221
*5159 TAP_222
*5160 TAP_223
*5161 TAP_224
*5162 TAP_225
*5163 TAP_226
*5164 TAP_227
*5165 TAP_228
*5166 TAP_229
*5167 TAP_230
*5168 TAP_231
*5169 TAP_232
*5170 TAP_233
*5171 TAP_234
*5172 TAP_235
*5173 TAP_236
*5174 TAP_237
*5175 TAP_238
*5176 TAP_239
*5177 TAP_240
*5178 TAP_241
*5179 TAP_242
*5180 TAP_243
*5181 TAP_244
*5182 TAP_245
*5183 TAP_246
*5184 TAP_247
*5185 TAP_248
*5186 TAP_249
*5187 TAP_250
*5188 TAP_251
*5189 TAP_252
*5190 TAP_253
*5191 TAP_254
*5192 TAP_255
*5193 TAP_256
*5194 TAP_257
*5195 TAP_258
*5196 TAP_259
*5197 TAP_260
*5198 TAP_261
*5199 TAP_262
*5200 TAP_263
*5201 TAP_264
*5202 TAP_265
*5203 TAP_266
*5204 TAP_267
*5205 TAP_268
*5206 TAP_269
*5207 TAP_270
*5208 TAP_271
*5209 TAP_272
*5210 TAP_273
*5211 TAP_274
*5212 TAP_275
*5213 TAP_276
*5214 TAP_277
*5215 TAP_278
*5216 TAP_279
*5217 TAP_280
*5218 TAP_281
*5219 TAP_282
*5220 TAP_283
*5221 TAP_284
*5222 TAP_285
*5223 TAP_286
*5224 TAP_287
*5225 TAP_288
*5226 TAP_289
*5227 TAP_290
*5228 TAP_291
*5229 TAP_292
*5230 TAP_293
*5231 TAP_294
*5232 TAP_295
*5233 TAP_296
*5234 TAP_297
*5235 TAP_298
*5236 TAP_299
*5237 TAP_300
*5238 TAP_301
*5239 TAP_302
*5240 TAP_303
*5241 TAP_304
*5242 TAP_305
*5243 TAP_306
*5244 TAP_307
*5245 TAP_308
*5246 TAP_309
*5247 TAP_310
*5248 TAP_311
*5249 TAP_312
*5250 TAP_313
*5251 TAP_314
*5252 TAP_315
*5253 TAP_316
*5254 TAP_317
*5255 TAP_318
*5256 TAP_319
*5257 TAP_320
*5258 TAP_321
*5259 TAP_322
*5260 TAP_323
*5261 TAP_324
*5262 TAP_325
*5263 TAP_326
*5264 TAP_327
*5265 TAP_328
*5266 TAP_329
*5267 TAP_330
*5268 TAP_331
*5269 TAP_332
*5270 TAP_333
*5271 TAP_334
*5272 TAP_335
*5273 TAP_336
*5274 TAP_337
*5275 TAP_338
*5276 TAP_339
*5277 TAP_340
*5278 TAP_341
*5279 TAP_342
*5280 TAP_343
*5281 TAP_344
*5282 TAP_345
*5283 TAP_346
*5284 TAP_347
*5285 TAP_348
*5286 TAP_349
*5287 TAP_350
*5288 TAP_351
*5289 TAP_352
*5290 TAP_353
*5291 TAP_354
*5292 TAP_355
*5293 TAP_356
*5294 TAP_357
*5295 TAP_358
*5296 TAP_359
*5297 TAP_360
*5298 TAP_361
*5299 TAP_362
*5300 TAP_363
*5301 TAP_364
*5302 TAP_365
*5303 TAP_366
*5304 TAP_367
*5305 TAP_368
*5306 TAP_369
*5307 TAP_370
*5308 TAP_371
*5309 TAP_372
*5310 TAP_373
*5311 TAP_374
*5312 TAP_375
*5313 TAP_376
*5314 TAP_377
*5315 TAP_378
*5316 TAP_379
*5317 TAP_380
*5318 TAP_381
*5319 TAP_382
*5320 TAP_383
*5321 TAP_384
*5322 TAP_385
*5323 TAP_386
*5324 TAP_387
*5325 TAP_388
*5326 TAP_389
*5327 TAP_390
*5328 TAP_391
*5329 TAP_392
*5330 TAP_393
*5331 TAP_394
*5332 TAP_395
*5333 TAP_396
*5334 TAP_397
*5335 TAP_398
*5336 TAP_399
*5337 TAP_400
*5338 TAP_401
*5339 TAP_402
*5340 TAP_403
*5341 TAP_404
*5342 TAP_405
*5343 TAP_406
*5344 TAP_407
*5345 TAP_408
*5346 TAP_409
*5347 TAP_410
*5348 TAP_411
*5349 TAP_412
*5350 TAP_413
*5351 TAP_414
*5352 TAP_415
*5353 TAP_416
*5354 TAP_417
*5355 TAP_418
*5356 TAP_419
*5357 TAP_420
*5358 TAP_421
*5359 TAP_422
*5360 TAP_423
*5361 TAP_424
*5362 TAP_425
*5363 TAP_426
*5364 TAP_427
*5365 TAP_428
*5366 TAP_429
*5367 TAP_430
*5368 TAP_431
*5369 TAP_432
*5370 TAP_433
*5371 TAP_434
*5372 TAP_435
*5373 TAP_436
*5374 TAP_437
*5375 TAP_438
*5376 TAP_439
*5377 TAP_440
*5378 TAP_441
*5379 TAP_442
*5380 TAP_443
*5381 TAP_444
*5382 TAP_445
*5383 TAP_446
*5384 TAP_447
*5385 TAP_448
*5386 TAP_449
*5387 TAP_450
*5388 TAP_451
*5389 TAP_452
*5390 TAP_453
*5391 TAP_454
*5392 TAP_455
*5393 TAP_456
*5394 TAP_457
*5395 TAP_458
*5396 TAP_459
*5397 TAP_460
*5398 TAP_461
*5399 TAP_462
*5400 TAP_463
*5401 TAP_464
*5402 TAP_465
*5403 TAP_466
*5404 TAP_467
*5405 TAP_468
*5406 TAP_469
*5407 TAP_470
*5408 TAP_471
*5409 TAP_472
*5410 TAP_473
*5411 TAP_474
*5412 TAP_475
*5413 TAP_476
*5414 TAP_477
*5415 TAP_478
*5416 TAP_479
*5417 TAP_480
*5418 TAP_481
*5419 TAP_482
*5420 TAP_483
*5421 TAP_484
*5422 TAP_485
*5423 TAP_486
*5424 TAP_487
*5425 TAP_488
*5426 TAP_489
*5427 TAP_490
*5428 TAP_491
*5429 TAP_492
*5430 TAP_493
*5431 TAP_494
*5432 TAP_495
*5433 TAP_496
*5434 TAP_497
*5435 TAP_498
*5436 TAP_499
*5437 TAP_500
*5438 TAP_501
*5439 TAP_502
*5440 TAP_503
*5441 TAP_504
*5442 TAP_505
*5443 TAP_506
*5444 TAP_507
*5445 TAP_508
*5446 TAP_509
*5447 TAP_510
*5448 TAP_511
*5449 TAP_512
*5450 TAP_513
*5451 TAP_514
*5452 TAP_515
*5453 TAP_516
*5454 TAP_517
*5455 TAP_518
*5456 TAP_519
*5457 TAP_520
*5458 TAP_521
*5459 TAP_522
*5460 TAP_523
*5461 TAP_524
*5462 TAP_525
*5463 TAP_526
*5464 TAP_527
*5465 TAP_528
*5466 TAP_529
*5467 TAP_530
*5468 TAP_531
*5469 TAP_532
*5470 TAP_533
*5471 TAP_534
*5472 TAP_535
*5473 TAP_536
*5474 TAP_537
*5475 TAP_538
*5476 TAP_539
*5477 TAP_540
*5478 TAP_541
*5479 TAP_542
*5480 TAP_543
*5481 TAP_544
*5482 TAP_545
*5483 TAP_546
*5484 TAP_547
*5485 TAP_548
*5486 TAP_549
*5487 TAP_550
*5488 TAP_551
*5489 TAP_552
*5490 TAP_553
*5491 TAP_554
*5492 TAP_555
*5493 TAP_556
*5494 TAP_557
*5495 TAP_558
*5496 TAP_559
*5497 TAP_560
*5498 TAP_561
*5499 TAP_562
*5500 TAP_563
*5501 TAP_564
*5502 TAP_565
*5503 TAP_566
*5504 TAP_567
*5505 TAP_568
*5506 TAP_569
*5507 TAP_570
*5508 TAP_571
*5509 TAP_572
*5510 TAP_573
*5511 TAP_574
*5512 TAP_575
*5513 TAP_576
*5514 TAP_577
*5515 TAP_578
*5516 TAP_579
*5517 TAP_580
*5518 TAP_581
*5519 TAP_582
*5520 TAP_583
*5521 TAP_584
*5522 TAP_585
*5523 TAP_586
*5524 TAP_587
*5525 TAP_588
*5526 TAP_589
*5527 TAP_590
*5528 TAP_591
*5529 TAP_592
*5530 TAP_593
*5531 TAP_594
*5532 TAP_595
*5533 TAP_596
*5534 TAP_597
*5535 TAP_598
*5536 TAP_599
*5537 TAP_600
*5538 TAP_601
*5539 TAP_602
*5540 TAP_603
*5541 TAP_604
*5542 TAP_605
*5543 TAP_606
*5544 TAP_607
*5545 TAP_608
*5546 TAP_609
*5547 TAP_610
*5548 TAP_611
*5549 TAP_612
*5550 TAP_613
*5551 TAP_614
*5552 TAP_615
*5553 TAP_616
*5554 TAP_617
*5555 TAP_618
*5556 TAP_619
*5557 TAP_620
*5558 TAP_621
*5559 TAP_622
*5560 TAP_623
*5561 TAP_624
*5562 TAP_625
*5563 TAP_626
*5564 TAP_627
*5565 TAP_628
*5566 TAP_629
*5567 TAP_630
*5568 TAP_631
*5569 TAP_632
*5570 TAP_633
*5571 TAP_634
*5572 TAP_635
*5573 TAP_636
*5574 TAP_637
*5575 TAP_638
*5576 TAP_639
*5577 TAP_640
*5578 TAP_641
*5579 TAP_642
*5580 TAP_643
*5581 TAP_644
*5582 TAP_645
*5583 TAP_646
*5584 TAP_647
*5585 TAP_648
*5586 TAP_649
*5587 TAP_650
*5588 TAP_651
*5589 TAP_652
*5590 TAP_653
*5591 TAP_654
*5592 TAP_655
*5593 TAP_656
*5594 TAP_657
*5595 TAP_658
*5596 TAP_659
*5597 TAP_660
*5598 TAP_661
*5599 TAP_662
*5600 TAP_663
*5601 TAP_664
*5602 TAP_665
*5603 TAP_666
*5604 TAP_667
*5605 TAP_668
*5606 TAP_669
*5607 TAP_670
*5608 TAP_671
*5609 TAP_672
*5610 TAP_673
*5611 TAP_674
*5612 TAP_675
*5613 TAP_676
*5614 TAP_677
*5615 TAP_678
*5616 TAP_679
*5617 TAP_680
*5618 TAP_681
*5619 TAP_682
*5620 TAP_683
*5621 TAP_684
*5622 TAP_685
*5623 TAP_686
*5624 TAP_687
*5625 TAP_688
*5626 TAP_689
*5627 TAP_690
*5628 TAP_691
*5629 TAP_692
*5630 TAP_693
*5631 TAP_694
*5632 TAP_695
*5633 TAP_696
*5634 TAP_697
*5635 TAP_698
*5636 TAP_699
*5637 TAP_700
*5638 TAP_701
*5639 TAP_702
*5640 TAP_703
*5641 TAP_704
*5642 TAP_705
*5643 TAP_706
*5644 TAP_707
*5645 TAP_708
*5646 TAP_709
*5647 TAP_710
*5648 TAP_711
*5649 TAP_712
*5650 TAP_713
*5651 TAP_714
*5652 TAP_715
*5653 TAP_716
*5654 TAP_717
*5655 TAP_718
*5656 TAP_719
*5657 TAP_720
*5658 TAP_721
*5659 TAP_722
*5660 TAP_723
*5661 TAP_724
*5662 TAP_725
*5663 TAP_726
*5664 TAP_727
*5665 TAP_728
*5666 TAP_729
*5667 TAP_730
*5668 TAP_731
*5669 TAP_732
*5670 TAP_733
*5671 TAP_734
*5672 TAP_735
*5673 TAP_736
*5674 TAP_737
*5675 TAP_738
*5676 TAP_739
*5677 TAP_740
*5678 TAP_741
*5679 TAP_742
*5680 TAP_743
*5681 TAP_744
*5682 TAP_745
*5683 TAP_746
*5684 TAP_747
*5685 TAP_748
*5686 TAP_749
*5687 TAP_750
*5688 TAP_751
*5689 TAP_752
*5690 TAP_753
*5691 TAP_754
*5692 TAP_755
*5693 TAP_756
*5694 TAP_757
*5695 TAP_758
*5696 TAP_759
*5697 TAP_760
*5698 TAP_761
*5699 TAP_762
*5700 TAP_763
*5701 TAP_764
*5702 TAP_765
*5703 TAP_766
*5704 TAP_767
*5705 TAP_768
*5706 TAP_769
*5707 TAP_770
*5708 TAP_771
*5709 TAP_772
*5710 TAP_773
*5711 TAP_774
*5712 TAP_775
*5713 TAP_776
*5714 TAP_777
*5715 TAP_778
*5716 TAP_779
*5717 TAP_780
*5718 TAP_781
*5719 TAP_782
*5720 TAP_783
*5721 TAP_784
*5722 TAP_785
*5723 TAP_786
*5724 TAP_787
*5725 TAP_788
*5726 TAP_789
*5727 TAP_790
*5728 TAP_791
*5729 TAP_792
*5730 TAP_793
*5731 TAP_794
*5732 TAP_795
*5733 TAP_796
*5734 TAP_797
*5735 TAP_798
*5736 TAP_799
*5737 TAP_800
*5738 TAP_801
*5739 TAP_802
*5740 TAP_803
*5741 TAP_804
*5742 TAP_805
*5743 TAP_806
*5744 TAP_807
*5745 TAP_808
*5746 TAP_809
*5747 TAP_810
*5748 TAP_811
*5749 TAP_812
*5750 TAP_813
*5751 TAP_814
*5752 TAP_815
*5753 TAP_816
*5754 TAP_817
*5755 TAP_818
*5756 TAP_819
*5757 TAP_820
*5758 TAP_821
*5759 TAP_822
*5760 TAP_823
*5761 TAP_824
*5762 TAP_825
*5763 TAP_826
*5764 TAP_827
*5765 TAP_828
*5766 TAP_829
*5767 TAP_830
*5768 TAP_831
*5769 TAP_832
*5770 TAP_833
*5771 TAP_834
*5772 TAP_835
*5773 TAP_836
*5774 TAP_837
*5775 TAP_838
*5776 TAP_839
*5777 TAP_840
*5778 TAP_841
*5779 TAP_842
*5780 TAP_843
*5781 TAP_844
*5782 TAP_845
*5783 TAP_846
*5784 TAP_847
*5785 TAP_848
*5786 TAP_849
*5787 TAP_850
*5788 TAP_851
*5789 TAP_852
*5790 TAP_853
*5791 TAP_854
*5792 TAP_855
*5793 TAP_856
*5794 TAP_857
*5795 TAP_858
*5796 TAP_859
*5797 TAP_860
*5798 TAP_861
*5799 TAP_862
*5800 TAP_863
*5801 TAP_864
*5802 TAP_865
*5803 TAP_866
*5804 TAP_867
*5805 TAP_868
*5806 TAP_869
*5807 TAP_870
*5808 TAP_871
*5809 TAP_872
*5810 TAP_873
*5811 TAP_874
*5812 TAP_875
*5813 TAP_876
*5814 TAP_877
*5815 TAP_878
*5816 TAP_879
*5817 TAP_880
*5818 TAP_881
*5819 TAP_882
*5820 TAP_883
*5821 TAP_884
*5822 TAP_885
*5823 TAP_886
*5824 TAP_887
*5825 TAP_888
*5826 TAP_889
*5827 TAP_890
*5828 TAP_891
*5829 TAP_892
*5830 TAP_893
*5831 TAP_894
*5832 TAP_895
*5833 TAP_896
*5834 TAP_897
*5835 TAP_898
*5836 TAP_899
*5837 TAP_900
*5838 TAP_901
*5839 TAP_902
*5840 TAP_903
*5841 TAP_904
*5842 TAP_905
*5843 TAP_906
*5844 TAP_907
*5845 TAP_908
*5846 TAP_909
*5847 TAP_910
*5848 TAP_911
*5849 TAP_912
*5850 TAP_913
*5851 TAP_914
*5852 TAP_915
*5853 TAP_916
*5854 TAP_917
*5855 TAP_918
*5856 TAP_919
*5857 TAP_920
*5858 TAP_921
*5859 TAP_922
*5860 TAP_923
*5861 TAP_924
*5862 TAP_925
*5863 TAP_926
*5864 TAP_927
*5865 TAP_928
*5866 TAP_929
*5867 TAP_930
*5868 _0452_
*5869 _0453_
*5870 _0454_
*5871 _0455_
*5872 _0456_
*5873 _0457_
*5874 _0458_
*5875 _0459_
*5876 _0460_
*5877 _0461_
*5878 _0462_
*5879 _0463_
*5880 _0464_
*5881 _0465_
*5882 _0466_
*5883 _0467_
*5884 _0468_
*5885 _0469_
*5886 _0470_
*5887 _0471_
*5888 _0472_
*5889 _0473_
*5890 _0474_
*5891 _0475_
*5892 _0476_
*5893 _0477_
*5894 _0478_
*5895 _0479_
*5896 _0480_
*5897 _0481_
*5898 _0482_
*5899 _0483_
*5900 _0484_
*5901 _0485_
*5902 _0486_
*5903 _0487_
*5904 _0488_
*5905 _0489_
*5906 _0490_
*5907 _0491_
*5908 _0492_
*5909 _0493_
*5910 _0494_
*5911 _0495_
*5912 _0496_
*5913 _0497_
*5914 _0498_
*5915 _0499_
*5916 _0500_
*5917 _0501_
*5918 _0502_
*5919 _0503_
*5920 _0504_
*5921 _0505_
*5922 _0506_
*5923 _0507_
*5924 _0508_
*5925 _0509_
*5926 _0510_
*5927 _0511_
*5928 _0512_
*5929 _0513_
*5930 _0514_
*5931 _0515_
*5932 _0516_
*5933 _0517_
*5934 _0518_
*5935 _0519_
*5936 _0520_
*5937 _0521_
*5938 _0522_
*5939 _0523_
*5940 _0524_
*5941 _0525_
*5942 _0526_
*5943 _0527_
*5944 _0528_
*5945 _0529_
*5946 _0530_
*5947 _0531_
*5948 _0532_
*5949 _0533_
*5950 _0534_
*5951 _0535_
*5952 _0536_
*5953 _0537_
*5954 _0538_
*5955 _0539_
*5956 _0540_
*5957 _0541_
*5958 _0542_
*5959 _0543_
*5960 _0544_
*5961 _0545_
*5962 _0546_
*5963 _0547_
*5964 _0548_
*5965 _0549_
*5966 _0550_
*5967 _0551_
*5968 _0552_
*5969 _0553_
*5970 _0554_
*5971 _0555_
*5972 _0556_
*5973 _0557_
*5974 _0558_
*5975 _0559_
*5976 _0560_
*5977 _0561_
*5978 _0562_
*5979 _0563_
*5980 _0564_
*5981 _0565_
*5982 _0566_
*5983 _0567_
*5984 _0568_
*5985 _0569_
*5986 _0570_
*5987 _0571_
*5988 _0572_
*5989 _0573_
*5990 _0574_
*5991 _0575_
*5992 _0576_
*5993 _0577_
*5994 _0578_
*5995 _0579_
*5996 _0580_
*5997 _0581_
*5998 _0582_
*5999 _0583_
*6000 _0584_
*6001 _0585_
*6002 _0586_
*6003 _0587_
*6004 _0588_
*6005 _0589_
*6006 _0590_
*6007 _0591_
*6008 _0592_
*6009 _0593_
*6010 _0594_
*6011 _0595_
*6012 _0596_
*6013 _0597_
*6014 _0598_
*6015 _0599_
*6016 _0600_
*6017 _0601_
*6018 _0602_
*6019 _0603_
*6020 _0604_
*6021 _0605_
*6022 _0606_
*6023 _0607_
*6024 _0608_
*6025 _0609_
*6026 _0610_
*6027 _0611_
*6028 _0612_
*6029 _0613_
*6030 _0614_
*6031 _0615_
*6032 _0616_
*6033 _0617_
*6034 _0618_
*6035 _0619_
*6036 _0620_
*6037 _0621_
*6038 _0622_
*6039 _0623_
*6040 _0624_
*6041 _0625_
*6042 _0626_
*6043 _0627_
*6044 _0628_
*6045 _0629_
*6046 _0630_
*6047 _0631_
*6048 _0632_
*6049 _0633_
*6050 _0634_
*6051 _0635_
*6052 _0636_
*6053 _0637_
*6054 _0638_
*6055 _0639_
*6056 _0640_
*6057 _0641_
*6058 _0642_
*6059 _0643_
*6060 _0644_
*6061 _0645_
*6062 _0646_
*6063 _0647_
*6064 _0648_
*6065 _0649_
*6066 _0650_
*6067 _0651_
*6068 _0652_
*6069 _0653_
*6070 _0654_
*6071 _0655_
*6072 _0656_
*6073 _0657_
*6074 _0658_
*6075 _0659_
*6076 _0660_
*6077 _0661_
*6078 _0662_
*6079 _0663_
*6080 _0664_
*6081 _0665_
*6082 _0666_
*6083 _0667_
*6084 _0668_
*6085 _0669_
*6086 _0670_
*6087 _0671_
*6088 _0672_
*6089 _0673_
*6090 _0674_
*6091 _0675_
*6092 _0676_
*6093 _0677_
*6094 _0678_
*6095 _0679_
*6096 _0680_
*6097 _0681_
*6098 _0682_
*6099 _0683_
*6100 _0684_
*6101 _0685_
*6102 _0686_
*6103 _0687_
*6104 _0688_
*6105 _0689_
*6106 _0690_
*6107 _0691_
*6108 _0692_
*6109 _0693_
*6110 _0694_
*6111 _0695_
*6112 _0696_
*6113 _0697_
*6114 _0698_
*6115 _0699_
*6116 _0700_
*6117 _0701_
*6118 _0702_
*6119 _0703_
*6120 _0704_
*6121 _0705_
*6122 _0706_
*6123 _0707_
*6124 _0708_
*6125 _0709_
*6126 _0710_
*6127 _0711_
*6128 _0712_
*6129 _0713_
*6130 _0714_
*6131 _0715_
*6132 _0716_
*6133 _0717_
*6134 _0718_
*6135 _0719_
*6136 _0720_
*6137 _0721_
*6138 _0722_
*6139 _0723_
*6140 _0724_
*6141 _0725_
*6142 _0726_
*6143 _0727_
*6144 _0728_
*6145 _0729_
*6146 _0730_
*6147 _0731_
*6148 _0732_
*6149 _0733_
*6150 _0734_
*6151 _0735_
*6152 _0736_
*6153 _0737_
*6154 _0738_
*6155 _0739_
*6156 _0740_
*6157 _0741_
*6158 _0742_
*6159 _0743_
*6160 _0744_
*6161 _0745_
*6162 _0746_
*6163 _0747_
*6164 _0748_
*6165 _0749_
*6166 _0750_
*6167 _0751_
*6168 _0752_
*6169 _0753_
*6170 _0754_
*6171 _0755_
*6172 _0756_
*6173 _0757_
*6174 _0758_
*6175 _0759_
*6176 _0760_
*6177 _0761_
*6178 _0762_
*6179 _0763_
*6180 _0764_
*6181 _0765_
*6182 _0766_
*6183 _0767_
*6184 _0768_
*6185 _0769_
*6186 _0770_
*6187 _0771_
*6188 _0772_
*6189 _0773_
*6190 _0774_
*6191 _0775_
*6192 _0776_
*6193 _0777_
*6194 _0778_
*6195 _0779_
*6196 _0780_
*6197 _0781_
*6198 _0782_
*6199 _0783_
*6200 _0784_
*6201 _0785_
*6202 _0786_
*6203 _0787_
*6204 _0788_
*6205 _0789_
*6206 _0790_
*6207 _0791_
*6208 _0792_
*6209 _0793_
*6210 _0794_
*6211 _0795_
*6212 _0796_
*6213 _0797_
*6214 _0798_
*6215 _0799_
*6216 _0800_
*6217 _0801_
*6218 _0802_
*6219 _0803_
*6220 _0804_
*6221 _0805_
*6222 _0806_
*6223 _0807_
*6224 _0808_
*6225 _0809_
*6226 _0810_
*6227 _0811_
*6228 _0812_
*6229 _0813_
*6230 _0814_
*6231 _0815_
*6232 _0816_
*6233 _0817_
*6234 _0818_
*6235 _0819_
*6236 _0820_
*6237 _0821_
*6238 _0822_
*6239 _0823_
*6240 _0824_
*6241 _0825_
*6242 _0826_
*6243 _0827_
*6244 _0828_
*6245 _0829_
*6246 _0830_
*6247 _0831_
*6248 _0832_
*6249 _0833_
*6250 _0834_
*6251 _0835_
*6252 _0836_
*6253 _0837_
*6254 _0838_
*6255 _0839_
*6256 _0840_
*6257 _0841_
*6258 _0842_
*6259 _0843_
*6260 _0844_
*6261 _0845_
*6262 _0846_
*6263 _0847_
*6264 _0848_
*6265 _0849_
*6266 _0850_
*6267 _0851_
*6268 _0852_
*6269 _0853_
*6270 _0854_
*6271 _0855_
*6272 _0856_
*6273 _0857_
*6274 _0858_
*6275 _0859_
*6276 _0860_
*6277 _0861_
*6278 _0862_
*6279 _0863_
*6280 _0864_
*6281 _0865_
*6282 _0866_
*6283 _0867_
*6284 _0868_
*6285 _0869_
*6286 _0870_
*6287 _0871_
*6288 _0872_
*6289 _0873_
*6290 _0874_
*6291 _0875_
*6292 _0876_
*6293 _0877_
*6294 _0878_
*6295 _0879_
*6296 _0880_
*6297 _0881_
*6298 _0882_
*6299 _0883_
*6300 _0884_
*6301 _0885_
*6302 _0886_
*6303 _0887_
*6304 _0888_
*6305 _0889_
*6306 _0890_
*6307 _0891_
*6308 _0892_
*6309 _0893_
*6310 _0894_
*6311 _0895_
*6312 _0896_
*6313 _0897_
*6314 _0898_
*6315 _0899_
*6316 _0900_
*6317 _0901_
*6318 _0902_
*6319 _0903_
*6320 _0904_
*6321 _0905_
*6322 _0906_
*6323 _0907_
*6324 _0908_
*6325 _0909_
*6326 _0910_
*6327 _0911_
*6328 _0912_
*6329 _0913_
*6330 _0914_
*6331 _0915_
*6332 _0916_
*6333 _0917_
*6334 _0918_
*6335 _0919_
*6336 _0920_
*6337 _0921_
*6338 _0922_
*6339 _0923_
*6340 _0924_
*6341 _0925_
*6342 _0926_
*6343 _0927_
*6344 _0928_
*6345 _0929_
*6346 _0930_
*6347 _0931_
*6348 _0932_
*6349 _0933_
*6350 _0934_
*6351 _0935_
*6352 _0936_
*6353 _0937_
*6354 _0938_
*6355 _0939_
*6356 _0940_
*6357 _0941_
*6358 _0942_
*6359 _0943_
*6360 _0944_
*6361 _0945_
*6362 _0946_
*6363 _0947_
*6364 _0948_
*6365 _0949_
*6366 _0950_
*6367 _0951_
*6368 _0952_
*6369 _0953_
*6370 _0954_
*6371 _0955_
*6372 _0956_
*6373 _0957_
*6374 _0958_
*6375 _0959_
*6376 _0960_
*6377 _0961_
*6378 _0962_
*6379 _0963_
*6380 _0964_
*6381 _0965_
*6382 _0966_
*6383 _0967_
*6384 _0968_
*6385 _0969_
*6386 _0970_
*6387 _0971_
*6388 _0972_
*6389 _0973_
*6390 _0974_
*6391 _0975_
*6392 _0976_
*6393 _0977_
*6394 _0978_
*6395 _0979_
*6396 _0980_
*6397 _0981_
*6398 _0982_
*6399 _0983_
*6400 _0984_
*6401 _0985_
*6402 _0986_
*6403 _0987_
*6404 _0988_
*6405 _0989_
*6406 _0990_
*6407 _0991_
*6408 _0992_
*6409 _0993_
*6410 _0994_
*6411 _0995_
*6412 _0996_
*6413 _0997_
*6414 _0998_
*6415 _0999_
*6416 _1000_
*6417 _1001_
*6418 _1002_
*6419 _1003_
*6420 _1004_
*6421 _1005_
*6422 _1006_
*6423 _1007_
*6424 _1008_
*6425 _1009_
*6426 _1010_
*6427 _1011_
*6428 _1012_
*6429 _1013_
*6430 _1014_
*6431 _1015_
*6432 _1016_
*6433 _1017_
*6434 _1018_
*6435 _1019_
*6436 _1020_
*6437 _1021_
*6438 _1022_
*6439 _1023_
*6440 _1024_
*6441 _1025_
*6442 _1026_
*6443 _1027_
*6444 _1028_
*6445 _1029_
*6446 _1030_
*6447 _1031_
*6448 _1032_
*6449 _1033_
*6450 _1034_
*6451 _1035_
*6452 _1036_
*6453 _1037_
*6454 _1038_
*6455 _1039_
*6456 _1040_
*6457 _1041_
*6458 _1042_
*6459 _1043_
*6460 _1044_
*6461 _1045_
*6462 _1046_
*6463 _1047_
*6464 _1048_
*6465 _1049_
*6466 _1050_
*6467 _1051_
*6468 _1052_
*6469 _1053_
*6470 _1054_
*6471 _1055_
*6472 _1056_
*6473 _1057_
*6474 _1058_
*6475 _1059_
*6476 _1060_
*6477 _1061_
*6478 _1062_
*6479 _1063_
*6480 _1064_
*6481 _1065_
*6482 _1066_
*6483 _1067_
*6484 _1068_
*6485 _1069_
*6486 _1070_
*6487 _1071_
*6488 _1072_
*6489 _1073_
*6490 _1074_
*6491 _1075_
*6492 _1076_
*6493 _1077_
*6494 _1078_
*6495 _1079_
*6496 clkbuf_0_w_clk
*6497 clkbuf_4_0_0_w_clk
*6498 clkbuf_4_10_0_w_clk
*6499 clkbuf_4_11_0_w_clk
*6500 clkbuf_4_12_0_w_clk
*6501 clkbuf_4_13_0_w_clk
*6502 clkbuf_4_14_0_w_clk
*6503 clkbuf_4_15_0_w_clk
*6504 clkbuf_4_1_0_w_clk
*6505 clkbuf_4_2_0_w_clk
*6506 clkbuf_4_3_0_w_clk
*6507 clkbuf_4_4_0_w_clk
*6508 clkbuf_4_5_0_w_clk
*6509 clkbuf_4_6_0_w_clk
*6510 clkbuf_4_7_0_w_clk
*6511 clkbuf_4_8_0_w_clk
*6512 clkbuf_4_9_0_w_clk
*6513 fanout26
*6514 fanout27
*6515 fanout28
*6516 fanout29
*6517 hold1
*6518 hold10
*6519 hold100
*6520 hold101
*6521 hold102
*6522 hold103
*6523 hold104
*6524 hold105
*6525 hold106
*6526 hold107
*6527 hold108
*6528 hold109
*6529 hold11
*6530 hold110
*6531 hold111
*6532 hold112
*6533 hold113
*6534 hold114
*6535 hold115
*6536 hold116
*6537 hold117
*6538 hold118
*6539 hold119
*6540 hold12
*6541 hold120
*6542 hold121
*6543 hold122
*6544 hold123
*6545 hold124
*6546 hold125
*6547 hold126
*6548 hold127
*6549 hold128
*6550 hold129
*6551 hold13
*6552 hold130
*6553 hold131
*6554 hold132
*6555 hold133
*6556 hold134
*6557 hold135
*6558 hold136
*6559 hold137
*6560 hold14
*6561 hold15
*6562 hold16
*6563 hold17
*6564 hold18
*6565 hold19
*6566 hold2
*6567 hold20
*6568 hold21
*6569 hold22
*6570 hold23
*6571 hold24
*6572 hold25
*6573 hold26
*6574 hold27
*6575 hold28
*6576 hold29
*6577 hold3
*6578 hold30
*6579 hold31
*6580 hold32
*6581 hold33
*6582 hold34
*6583 hold35
*6584 hold36
*6585 hold37
*6586 hold38
*6587 hold39
*6588 hold4
*6589 hold40
*6590 hold41
*6591 hold42
*6592 hold43
*6593 hold44
*6594 hold45
*6595 hold46
*6596 hold47
*6597 hold48
*6598 hold49
*6599 hold5
*6600 hold50
*6601 hold51
*6602 hold52
*6603 hold53
*6604 hold54
*6605 hold55
*6606 hold56
*6607 hold57
*6608 hold58
*6609 hold59
*6610 hold6
*6611 hold60
*6612 hold61
*6613 hold62
*6614 hold63
*6615 hold64
*6616 hold65
*6617 hold66
*6618 hold67
*6619 hold68
*6620 hold69
*6621 hold7
*6622 hold70
*6623 hold71
*6624 hold72
*6625 hold73
*6626 hold74
*6627 hold75
*6628 hold76
*6629 hold77
*6630 hold78
*6631 hold79
*6632 hold8
*6633 hold80
*6634 hold81
*6635 hold82
*6636 hold83
*6637 hold84
*6638 hold85
*6639 hold86
*6640 hold87
*6641 hold88
*6642 hold89
*6643 hold9
*6644 hold90
*6645 hold91
*6646 hold92
*6647 hold93
*6648 hold94
*6649 hold95
*6650 hold96
*6651 hold97
*6652 hold98
*6653 hold99
*6654 input1
*6655 input10
*6656 input11
*6657 input12
*6658 input13
*6659 input2
*6660 input3
*6661 input4
*6662 input5
*6663 input6
*6664 input7
*6665 input8
*6666 input9
*6667 max_cap24
*6668 max_cap25
*6669 output14
*6670 output15
*6671 output16
*6672 output17
*6673 output18
*6674 output19
*6675 output20
*6676 output21
*6677 output22
*6678 output23

*PORTS
empty O
full O
r_clk I
r_data[0] O
r_data[1] O
r_data[2] O
r_data[3] O
r_data[4] O
r_data[5] O
r_data[6] O
r_data[7] O
r_rst_n I
rd I
w_clk I
w_data[0] I
w_data[1] I
w_data[2] I
w_data[3] I
w_data[4] I
w_data[5] I
w_data[6] I
w_data[7] I
w_rst_n I
wr I

*D_NET *1 0.00181262
*CONN
*P empty O
*I *6669:X O *D sky130_fd_sc_hd__clkbuf_4
*CAP
1 empty 0.000578068
2 *6669:X 0.000300738
3 *1:8 0.000878805
4 empty *669:16 0
5 *1:8 *828:DIODE 5.50106e-05
*RES
1 *6669:X *1:8 41.9564 
2 *1:8 empty 12.5736 
*END

*D_NET *2 0.000804762
*CONN
*P full O
*I *6670:X O *D sky130_fd_sc_hd__clkbuf_4
*CAP
1 full 9.75781e-05
2 *6670:X 0.000297831
3 *2:10 0.000395409
4 *2:10 *6670:A 1.39431e-05
5 *2:10 *705:12 0
*RES
1 *6670:X *2:10 42.1532 
2 *2:10 full 8.32853 
*END

*D_NET *3 0.00152507
*CONN
*P r_clk I
*I *6654:A I *D sky130_fd_sc_hd__dlymetal6s2s_1
*CAP
1 r_clk 0.000663205
2 *6654:A 0
3 *3:11 0.000663205
4 *3:11 *624:8 9.84794e-05
5 *3:11 *746:6 0.00010018
*RES
1 r_clk *3:11 30.0179 
2 *3:11 *6654:A 23 
*END

*D_NET *4 0.000785885
*CONN
*P r_data[0] O
*I *6671:X O *D sky130_fd_sc_hd__buf_2
*CAP
1 r_data[0] 0.000131978
2 *6671:X 0.000260964
3 *4:12 0.000392943
4 *4:12 *691:29 0
5 *4:12 *701:23 0
*RES
1 *6671:X *4:12 42.0496 
2 *4:12 r_data[0] 8.50027 
*END

*D_NET *5 0.000570332
*CONN
*P r_data[1] O
*I *6672:X O *D sky130_fd_sc_hd__buf_2
*CAP
1 r_data[1] 0.000278795
2 *6672:X 0.000278795
3 r_data[1] *699:25 1.27424e-05
*RES
1 *6672:X r_data[1] 47.2507 
*END

*D_NET *6 0.000826846
*CONN
*P r_data[2] O
*I *6673:X O *D sky130_fd_sc_hd__clkbuf_4
*CAP
1 r_data[2] 0.000374933
2 *6673:X 0.000374933
3 r_data[2] *724:12 2.45255e-05
4 r_data[2] *724:14 5.24542e-05
*RES
1 *6673:X r_data[2] 48.831 
*END

*D_NET *7 0.00170147
*CONN
*P r_data[3] O
*I *6674:X O *D sky130_fd_sc_hd__clkbuf_4
*CAP
1 r_data[3] 0.000480752
2 *6674:X 0.000369982
3 *7:8 0.000850734
*RES
1 *6674:X *7:8 44.3386 
2 *7:8 r_data[3] 10.8129 
*END

*D_NET *8 0.00100658
*CONN
*P r_data[4] O
*I *6675:X O *D sky130_fd_sc_hd__clkbuf_4
*CAP
1 r_data[4] 0.000503292
2 *6675:X 0.000503292
*RES
1 *6675:X r_data[4] 47.57 
*END

*D_NET *9 0.000815983
*CONN
*P r_data[5] O
*I *6676:X O *D sky130_fd_sc_hd__clkbuf_4
*CAP
1 r_data[5] 9.75781e-05
2 *6676:X 0.000294269
3 *9:10 0.000391848
4 *9:10 *704:16 3.22879e-05
5 *9:10 *711:38 0
*RES
1 *6676:X *9:10 42.1532 
2 *9:10 r_data[5] 8.32853 
*END

*D_NET *10 0.000668841
*CONN
*P r_data[6] O
*I *6677:X O *D sky130_fd_sc_hd__clkbuf_4
*CAP
1 r_data[6] 0.000334421
2 *6677:X 0.000334421
*RES
1 *6677:X r_data[6] 47.6887 
*END

*D_NET *11 0.00100658
*CONN
*P r_data[7] O
*I *6678:X O *D sky130_fd_sc_hd__clkbuf_4
*CAP
1 r_data[7] 0.000503292
2 *6678:X 0.000503292
*RES
1 *6678:X r_data[7] 47.57 
*END

*D_NET *12 0.00154715
*CONN
*P r_rst_n I
*I *6659:A I *D sky130_fd_sc_hd__clkbuf_2
*CAP
1 r_rst_n 0.000773574
2 *6659:A 0
3 *12:9 0.000773574
*RES
1 r_rst_n *12:9 31.1157 
2 *12:9 *6659:A 23 
*END

*D_NET *13 0.00085858
*CONN
*P rd I
*I *6660:A I *D sky130_fd_sc_hd__buf_2
*CAP
1 rd 0.00042929
2 *6660:A 0.00042929
*RES
1 rd *6660:A 47.4664 
*END

*D_NET *16 0.020491
*CONN
*P w_clk I
*I *6496:A I *D sky130_fd_sc_hd__clkbuf_16
*CAP
1 w_clk 0.00572836
2 *6496:A 0
3 *16:15 0.00261921
4 *16:5 0.00834757
5 *16:5 *6389:CLK 0.000423559
6 *16:5 *43:10 8.16253e-05
7 *16:5 *230:109 0.000370474
8 *16:5 *233:139 0
9 *16:5 *252:10 0.000212304
10 *16:5 *253:10 8.62876e-05
11 *16:5 *254:10 0.000422277
12 *16:5 *257:12 0.000639464
13 *16:5 *319:78 0
14 *16:5 *322:8 2.56634e-05
15 *16:5 *329:70 0
16 *16:5 *382:53 0.000137788
17 *16:5 *382:68 4.16933e-05
18 *16:5 *470:126 0.000161121
19 *16:5 *485:28 0.000187335
20 *16:5 *485:30 0.000424786
21 *16:5 *486:57 0
22 *16:5 *486:72 0
23 *16:5 *522:20 6.78463e-05
24 *16:5 *522:31 0.000140671
25 *16:5 *546:25 0
26 *16:15 *6615:A 0.000249573
27 *16:15 *428:32 1.34354e-05
28 *16:15 *434:10 4.60263e-05
29 *16:15 *495:107 6.38845e-05
30 *16:15 *768:42 0
*RES
1 w_clk *16:5 126.844 
2 *16:5 *16:15 40.0418 
3 *16:15 *6496:A 23 
*END

*D_NET *17 0.00167596
*CONN
*P w_data[0] I
*I *6661:A I *D sky130_fd_sc_hd__clkbuf_8
*CAP
1 w_data[0] 0.00080946
2 *6661:A 0
3 *17:21 0.00080946
4 *17:21 *724:8 5.70419e-05
*RES
1 w_data[0] *17:21 33.27 
2 *17:21 *6661:A 23 
*END

*D_NET *18 0.00116516
*CONN
*P w_data[1] I
*I *6662:A I *D sky130_fd_sc_hd__buf_4
*CAP
1 w_data[1] 0.00058258
2 *6662:A 0
3 *18:17 0.00058258
*RES
1 w_data[1] *18:17 28.6921 
2 *18:17 *6662:A 23 
*END

*D_NET *19 0.00121999
*CONN
*P w_data[2] I
*I *6663:A I *D sky130_fd_sc_hd__buf_4
*CAP
1 w_data[2] 0.000582491
2 *6663:A 0
3 *19:9 0.000582491
4 *19:9 *624:8 5.50106e-05
*RES
1 w_data[2] *19:9 27.4907 
2 *19:9 *6663:A 23 
*END

*D_NET *20 0.000956044
*CONN
*P w_data[3] I
*I *6664:A I *D sky130_fd_sc_hd__buf_4
*CAP
1 w_data[3] 0.000478022
2 *6664:A 0
3 *20:13 0.000478022
4 *20:13 *691:29 0
5 *20:13 *757:8 0
*RES
1 w_data[3] *20:13 28.1774 
2 *20:13 *6664:A 23 
*END

*D_NET *21 0.00068665
*CONN
*P w_data[4] I
*I *6665:A I *D sky130_fd_sc_hd__buf_4
*CAP
1 w_data[4] 0.000343325
2 *6665:A 0
3 *21:13 0.000343325
4 *21:13 *647:8 0
*RES
1 w_data[4] *21:13 27.9375 
2 *21:13 *6665:A 23 
*END

*D_NET *22 0.0011706
*CONN
*P w_data[5] I
*I *6666:A I *D sky130_fd_sc_hd__buf_4
*CAP
1 w_data[5] 0.000585301
2 *6666:A 0
3 *22:9 0.000585301
*RES
1 w_data[5] *22:9 27.4907 
2 *22:9 *6666:A 23 
*END

*D_NET *23 0.00088236
*CONN
*P w_data[6] I
*I *6655:A I *D sky130_fd_sc_hd__buf_4
*CAP
1 w_data[6] 0.00044118
2 *6655:A 0.00044118
*RES
1 w_data[6] *6655:A 47.3214 
*END

*D_NET *24 0.000727296
*CONN
*P w_data[7] I
*I *6656:A I *D sky130_fd_sc_hd__buf_4
*CAP
1 w_data[7] 0.000355992
2 *6656:A 0.000355992
3 *6656:A *647:8 1.53128e-05
*RES
1 w_data[7] *6656:A 47.9239 
*END

*D_NET *25 0.00152155
*CONN
*P w_rst_n I
*I *6657:A I *D sky130_fd_sc_hd__clkbuf_2
*CAP
1 w_rst_n 0.000760773
2 *6657:A 0
3 *25:9 0.000760773
*RES
1 w_rst_n *25:9 31.3021 
2 *25:9 *6657:A 23 
*END

*D_NET *26 0.000823028
*CONN
*P wr I
*I *6658:A I *D sky130_fd_sc_hd__clkbuf_2
*CAP
1 wr 0.00039537
2 *6658:A 0
3 *26:13 0.00039537
4 *26:13 *658:8 3.22879e-05
5 *26:13 *700:27 0
*RES
1 wr *26:13 28.5856 
2 *26:13 *6658:A 23 
*END

*D_NET *27 0.00116662
*CONN
*I *6322:D I *D sky130_fd_sc_hd__dfxtp_1
*I *5907:X O *D sky130_fd_sc_hd__clkbuf_1
*CAP
1 *6322:D 0.000165419
2 *5907:X 0.0003298
3 *27:8 0.000495219
4 *6322:D *481:52 0.000126403
5 *6322:D *658:22 4.97789e-05
6 *27:8 *225:121 0
7 *27:8 *225:136 0
8 *27:8 *592:12 0
*RES
1 *5907:X *27:8 42.3707 
2 *27:8 *6322:D 41.3195 
*END

*D_NET *28 0.000538507
*CONN
*I *6323:D I *D sky130_fd_sc_hd__dfxtp_1
*I *5909:X O *D sky130_fd_sc_hd__clkbuf_1
*CAP
1 *6323:D 3.51255e-05
2 *5909:X 0.000132771
3 *28:8 0.000167896
4 *6323:D *481:68 0.000146207
5 *6323:D *593:31 5.6508e-05
6 *28:8 *218:8 0
7 *28:8 *593:16 0
8 *28:8 *593:31 0
*RES
1 *5909:X *28:8 40.2579 
2 *28:8 *6323:D 39.6209 
*END

*D_NET *29 0.00108505
*CONN
*I *6324:D I *D sky130_fd_sc_hd__dfxtp_1
*I *5911:X O *D sky130_fd_sc_hd__clkbuf_1
*CAP
1 *6324:D 4.85811e-05
2 *5911:X 0.00030195
3 *29:8 0.000350531
4 *6324:D *602:29 3.32987e-05
5 *29:8 *225:12 0
6 *29:8 *411:20 0
7 *29:8 *480:89 0.000350687
8 *29:8 *602:29 0
9 *29:8 *680:10 0
*RES
1 *5911:X *29:8 43.075 
2 *29:8 *6324:D 38.9943 
*END

*D_NET *30 0.000917459
*CONN
*I *6325:D I *D sky130_fd_sc_hd__dfxtp_1
*I *5913:X O *D sky130_fd_sc_hd__clkbuf_1
*CAP
1 *6325:D 7.22382e-06
2 *5913:X 0.000245414
3 *30:8 0.000252637
4 *6325:D *226:227 9.95543e-06
5 *6325:D *595:31 4.9054e-06
6 *30:8 *309:82 0.000371908
7 *30:8 *391:151 0
8 *30:8 *401:87 0
9 *30:8 *595:16 0
10 *30:8 *750:10 2.5415e-05
11 *30:8 *778:10 0
*RES
1 *5913:X *30:8 43.075 
2 *30:8 *6325:D 38.1916 
*END

*D_NET *31 0.000668943
*CONN
*I *6326:D I *D sky130_fd_sc_hd__dfxtp_1
*I *5915:X O *D sky130_fd_sc_hd__clkbuf_1
*CAP
1 *6326:D 8.80966e-05
2 *5915:X 0.000129797
3 *31:8 0.000217894
4 *6326:D *488:78 0.000233156
5 *31:8 *221:10 0
6 *31:8 *596:12 0
*RES
1 *5915:X *31:8 40.2579 
2 *31:8 *6326:D 40.5737 
*END

*D_NET *32 0.000813867
*CONN
*I *6327:D I *D sky130_fd_sc_hd__dfxtp_1
*I *5917:X O *D sky130_fd_sc_hd__clkbuf_1
*CAP
1 *6327:D 0.000175652
2 *5917:X 7.51645e-05
3 *32:8 0.000250816
4 *6327:D *225:164 9.31115e-05
5 *32:8 *232:58 0.000166513
6 *32:8 *233:35 5.26101e-05
*RES
1 *5917:X *32:8 40.2579 
2 *32:8 *6327:D 41.0502 
*END

*D_NET *33 0.000753015
*CONN
*I *6328:D I *D sky130_fd_sc_hd__dfxtp_1
*I *5919:X O *D sky130_fd_sc_hd__clkbuf_1
*CAP
1 *6328:D 6.18768e-05
2 *5919:X 7.34118e-05
3 *33:8 0.000135289
4 *6328:D *6328:CLK 0.000100124
5 *33:8 *625:32 0.000191157
6 *33:8 *674:8 0.000191157
*RES
1 *5919:X *33:8 40.61 
2 *33:8 *6328:D 39.1445 
*END

*D_NET *34 0.000882186
*CONN
*I *6329:D I *D sky130_fd_sc_hd__dfxtp_1
*I *5921:X O *D sky130_fd_sc_hd__clkbuf_1
*CAP
1 *6329:D 9.11343e-05
2 *5921:X 9.0624e-05
3 *34:8 0.000181758
4 *6329:D *6329:CLK 0.000145957
5 *6329:D *411:42 0.000318154
6 *6329:D *591:14 2.45549e-06
7 *34:8 *224:10 5.21024e-05
*RES
1 *5921:X *34:8 39.5536 
2 *34:8 *6329:D 41.5266 
*END

*D_NET *35 0.000446679
*CONN
*I *6330:D I *D sky130_fd_sc_hd__dfxtp_1
*I *5938:X O *D sky130_fd_sc_hd__clkbuf_1
*CAP
1 *6330:D 0.00022334
2 *5938:X 0.00022334
*RES
1 *5938:X *6330:D 49.3402 
*END

*D_NET *36 0.00065269
*CONN
*I *6331:D I *D sky130_fd_sc_hd__dfxtp_1
*I *5947:X O *D sky130_fd_sc_hd__clkbuf_1
*CAP
1 *6331:D 0.000201357
2 *5947:X 4.88775e-05
3 *36:8 0.000250234
4 *36:8 *233:274 3.81391e-05
5 *36:8 *382:80 0.000114083
*RES
1 *5947:X *36:8 39.5536 
2 *36:8 *6331:D 40.843 
*END

*D_NET *37 0.0012647
*CONN
*I *6332:D I *D sky130_fd_sc_hd__dfxtp_1
*I *5956:X O *D sky130_fd_sc_hd__clkbuf_1
*CAP
1 *6332:D 0.000328052
2 *5956:X 8.25729e-05
3 *37:8 0.000410625
4 *6332:D *700:12 0.000215955
5 *6332:D *712:72 9.84851e-05
6 *6332:D *712:81 0.000129006
7 *37:8 *700:12 0
*RES
1 *5956:X *37:8 39.2014 
2 *37:8 *6332:D 44.8202 
*END

*D_NET *38 0.000442786
*CONN
*I *6333:D I *D sky130_fd_sc_hd__dfxtp_1
*I *5965:X O *D sky130_fd_sc_hd__clkbuf_1
*CAP
1 *6333:D 0.000206706
2 *5965:X 0.000206706
3 *6333:D *5965:A 2.93747e-05
*RES
1 *5965:X *6333:D 49.3402 
*END

*D_NET *39 0.000412078
*CONN
*I *6334:D I *D sky130_fd_sc_hd__dfxtp_1
*I *5974:X O *D sky130_fd_sc_hd__clkbuf_1
*CAP
1 *6334:D 0.00014744
2 *5974:X 0.00014744
3 *6334:D *712:53 8.1796e-05
4 *6334:D *712:64 3.54023e-05
*RES
1 *5974:X *6334:D 49.3402 
*END

*D_NET *40 0.00054337
*CONN
*I *6335:D I *D sky130_fd_sc_hd__dfxtp_1
*I *5983:X O *D sky130_fd_sc_hd__clkbuf_1
*CAP
1 *6335:D 0.0001219
2 *5983:X 0.000105525
3 *40:8 0.000227425
4 *40:8 *704:16 8.85189e-05
5 *40:8 *709:90 0
6 *40:8 *711:34 0
7 *40:8 *711:38 0
*RES
1 *5983:X *40:8 40.2579 
2 *40:8 *6335:D 40.0973 
*END

*D_NET *41 0.0006331
*CONN
*I *6336:D I *D sky130_fd_sc_hd__dfxtp_1
*I *5992:X O *D sky130_fd_sc_hd__clkbuf_1
*CAP
1 *6336:D 3.8526e-05
2 *5992:X 7.8969e-05
3 *41:8 0.000117495
4 *6336:D *680:26 0.000143599
5 *6336:D *705:10 0.000143599
6 *41:8 *288:8 0.000110913
*RES
1 *5992:X *41:8 39.5536 
2 *41:8 *6336:D 39.6209 
*END

*D_NET *42 0.000421755
*CONN
*I *6337:D I *D sky130_fd_sc_hd__dfxtp_1
*I *6001:X O *D sky130_fd_sc_hd__clkbuf_1
*CAP
1 *6337:D 1.20317e-05
2 *6001:X 0.000111732
3 *42:12 0.000123764
4 *6337:D *703:25 1.29152e-05
5 *42:12 *296:10 9.19669e-05
6 *42:12 *712:72 6.93449e-05
*RES
1 *6001:X *42:12 41.0243 
2 *42:12 *6337:D 38.2486 
*END

*D_NET *43 0.000726125
*CONN
*I *6338:D I *D sky130_fd_sc_hd__dfxtp_1
*I *6005:X O *D sky130_fd_sc_hd__clkbuf_1
*CAP
1 *6338:D 7.19391e-05
2 *6005:X 0.000166144
3 *43:10 0.000238083
4 *43:10 *6005:A 8.91468e-07
5 *43:10 *230:109 0.000167443
6 *16:5 *43:10 8.16253e-05
*RES
1 *6005:X *43:10 41.3557 
2 *43:10 *6338:D 38.9943 
*END

*D_NET *44 0.000496258
*CONN
*I *6339:D I *D sky130_fd_sc_hd__dfxtp_1
*I *6007:X O *D sky130_fd_sc_hd__clkbuf_1
*CAP
1 *6339:D 0.0001219
2 *6007:X 0.000126229
3 *44:8 0.000248129
4 *44:8 *724:122 0
*RES
1 *6007:X *44:8 40.2579 
2 *44:8 *6339:D 40.0973 
*END

*D_NET *45 0.000472586
*CONN
*I *6340:D I *D sky130_fd_sc_hd__dfxtp_1
*I *6009:X O *D sky130_fd_sc_hd__clkbuf_1
*CAP
1 *6340:D 7.1177e-06
2 *6009:X 0.000115741
3 *45:10 0.000122859
4 *6340:D *298:50 9.21169e-06
5 *6340:D *484:96 2.13216e-05
6 *45:10 *233:139 5.26733e-06
7 *45:10 *301:10 0.000136486
8 *45:10 *484:34 1.14452e-05
9 *45:10 *484:118 4.31366e-05
*RES
1 *6009:X *45:10 40.5271 
2 *45:10 *6340:D 38.2486 
*END

*D_NET *46 0.000230174
*CONN
*I *6341:D I *D sky130_fd_sc_hd__dfxtp_1
*I *6011:X O *D sky130_fd_sc_hd__clkbuf_1
*CAP
1 *6341:D 1.26271e-05
2 *6011:X 7.51726e-05
3 *46:8 8.77997e-05
4 *6341:D *470:145 1.64354e-05
5 *46:8 *298:67 3.81391e-05
*RES
1 *6011:X *46:8 39.5536 
2 *46:8 *6341:D 38.1916 
*END

*D_NET *47 0.000597996
*CONN
*I *6342:D I *D sky130_fd_sc_hd__dfxtp_1
*I *6013:X O *D sky130_fd_sc_hd__clkbuf_1
*CAP
1 *6342:D 0.00010484
2 *6013:X 0.000107431
3 *47:8 0.000212271
4 *6342:D *233:98 9.18194e-05
5 *47:8 *6616:A 0
6 *47:8 *303:10 8.16356e-05
7 *47:8 *525:10 0
*RES
1 *6013:X *47:8 40.2579 
2 *47:8 *6342:D 40.5737 
*END

*D_NET *48 0.00053373
*CONN
*I *6343:D I *D sky130_fd_sc_hd__dfxtp_1
*I *6015:X O *D sky130_fd_sc_hd__clkbuf_1
*CAP
1 *6343:D 4.92943e-05
2 *6015:X 8.64657e-05
3 *48:8 0.00013576
4 *6343:D *493:14 0.000102732
5 *48:8 *329:29 9.41331e-05
6 *48:8 *751:8 6.53445e-05
*RES
1 *6015:X *48:8 40.61 
2 *48:8 *6343:D 39.1445 
*END

*D_NET *49 0.000245401
*CONN
*I *6344:D I *D sky130_fd_sc_hd__dfxtp_1
*I *6017:X O *D sky130_fd_sc_hd__clkbuf_1
*CAP
1 *6344:D 1.36537e-05
2 *6017:X 5.21835e-05
3 *49:8 6.58372e-05
4 *49:8 *305:10 5.56306e-05
5 *49:8 *485:28 5.80963e-05
*RES
1 *6017:X *49:8 39.5536 
2 *49:8 *6344:D 38.1916 
*END

*D_NET *50 0.000564031
*CONN
*I *6345:D I *D sky130_fd_sc_hd__dfxtp_1
*I *6019:X O *D sky130_fd_sc_hd__clkbuf_1
*CAP
1 *6345:D 0
2 *6019:X 0.000187172
3 *50:12 0.000187172
4 *50:12 *6019:A 5.67058e-05
5 *50:12 *6303:A 5.67058e-05
6 *50:12 *493:35 7.62747e-05
*RES
1 *6019:X *50:12 27.5157 
2 *50:12 *6345:D 23 
*END

*D_NET *51 0.0011751
*CONN
*I *6346:D I *D sky130_fd_sc_hd__dfxtp_1
*I *6024:X O *D sky130_fd_sc_hd__clkbuf_1
*CAP
1 *6346:D 0.000201921
2 *6024:X 5.68754e-05
3 *51:8 0.000258797
4 *6346:D *6346:CLK 0.000128184
5 *6346:D *552:8 0.000387335
6 *51:8 *552:10 2.79004e-05
7 *51:8 *652:12 0.000114083
*RES
1 *6024:X *51:8 39.5536 
2 *51:8 *6346:D 43.7016 
*END

*D_NET *52 0.00125945
*CONN
*I *6347:D I *D sky130_fd_sc_hd__dfxtp_1
*I *6026:X O *D sky130_fd_sc_hd__clkbuf_1
*CAP
1 *6347:D 0.000190551
2 *6026:X 0.000135885
3 *52:8 0.000326437
4 *6347:D *481:35 0.000124708
5 *6347:D *553:14 0.000339478
6 *6347:D *561:25 9.93192e-05
7 *52:8 *553:14 4.30672e-05
8 *52:8 *724:64 0
*RES
1 *6026:X *52:8 40.2579 
2 *52:8 *6347:D 43.7223 
*END

*D_NET *53 0.00258139
*CONN
*I *6348:D I *D sky130_fd_sc_hd__dfxtp_1
*I *6028:X O *D sky130_fd_sc_hd__clkbuf_1
*CAP
1 *6348:D 0.00015151
2 *6028:X 0.000569359
3 *53:12 0.000720869
4 *6348:D *309:65 0.000360727
5 *53:12 *309:69 9.35596e-05
6 *53:12 *309:82 0.000201568
7 *53:12 *411:109 0
8 *53:12 *498:24 0.000267173
9 *53:12 *562:25 0.000134984
10 *53:12 *570:16 8.16356e-05
*RES
1 *6028:X *53:12 49.745 
2 *53:12 *6348:D 42.003 
*END

*D_NET *54 0.000847042
*CONN
*I *6349:D I *D sky130_fd_sc_hd__dfxtp_1
*I *6030:X O *D sky130_fd_sc_hd__clkbuf_1
*CAP
1 *6349:D 4.62744e-06
2 *6030:X 0.000265027
3 *54:8 0.000269654
4 *6349:D *483:63 1.64354e-05
5 *6349:D *563:10 1.74843e-05
6 *54:8 *5958:A3 0.000136486
7 *54:8 *6632:A 1.01436e-05
8 *54:8 *309:82 0.000127184
9 *54:8 *757:79 0
*RES
1 *6030:X *54:8 43.4271 
2 *54:8 *6349:D 38.1916 
*END

*D_NET *55 0.000696248
*CONN
*I *6350:D I *D sky130_fd_sc_hd__dfxtp_1
*I *6032:X O *D sky130_fd_sc_hd__clkbuf_1
*CAP
1 *6350:D 0.000208839
2 *6032:X 0.000208839
3 *6350:D *239:168 0.00027857
*RES
1 *6032:X *6350:D 49.6923 
*END

*D_NET *56 0.000494283
*CONN
*I *6351:D I *D sky130_fd_sc_hd__dfxtp_1
*I *6034:X O *D sky130_fd_sc_hd__clkbuf_1
*CAP
1 *6351:D 8.82531e-05
2 *6034:X 8.61926e-05
3 *56:8 0.000174446
4 *6351:D *557:18 9.67842e-05
5 *56:8 *232:69 0
6 *56:8 *557:18 4.08537e-05
7 *56:8 *740:10 7.75329e-06
*RES
1 *6034:X *56:8 39.5536 
2 *56:8 *6351:D 39.6209 
*END

*D_NET *57 0.0011414
*CONN
*I *6352:D I *D sky130_fd_sc_hd__dfxtp_1
*I *6036:X O *D sky130_fd_sc_hd__clkbuf_1
*CAP
1 *6352:D 0.000305751
2 *6036:X 9.83758e-05
3 *57:8 0.000404127
4 *6352:D *6630:A 1.09903e-05
5 *6352:D *232:39 4.9346e-05
6 *6352:D *558:12 9.47227e-05
7 *57:8 *230:66 0.000137222
8 *57:8 *316:10 4.08641e-05
9 *57:8 *625:82 0
*RES
1 *6036:X *57:8 39.9057 
2 *57:8 *6352:D 43.9295 
*END

*D_NET *58 0.00154143
*CONN
*I *6353:D I *D sky130_fd_sc_hd__dfxtp_1
*I *6038:X O *D sky130_fd_sc_hd__clkbuf_1
*CAP
1 *6353:D 3.10291e-05
2 *6038:X 0.000418945
3 *58:8 0.000449974
4 *6353:D *489:14 0.000189681
5 *6353:D *559:10 0.000189681
6 *58:8 *309:14 7.21237e-05
7 *58:8 *317:10 0.000135403
8 *58:8 *372:72 0
9 *58:8 *488:8 5.45887e-05
10 *58:8 *658:26 0
*RES
1 *6038:X *58:8 45.1879 
2 *58:8 *6353:D 40.0973 
*END

*D_NET *59 0.000951571
*CONN
*I *6354:D I *D sky130_fd_sc_hd__dfxtp_1
*I *6042:X O *D sky130_fd_sc_hd__clkbuf_1
*CAP
1 *6354:D 5.08274e-05
2 *6042:X 0.000245915
3 *59:10 0.000296742
4 *6354:D *351:99 5.10613e-05
5 *6354:D *486:38 0.000143604
6 *59:10 *319:105 0
7 *59:10 *460:78 8.16253e-05
8 *59:10 *528:26 8.1796e-05
*RES
1 *6042:X *59:10 42.3086 
2 *59:10 *6354:D 39.6209 
*END

*D_NET *60 0.000910484
*CONN
*I *6355:D I *D sky130_fd_sc_hd__dfxtp_1
*I *6044:X O *D sky130_fd_sc_hd__clkbuf_1
*CAP
1 *6355:D 0.000110297
2 *6044:X 0.000190261
3 *60:10 0.000300558
4 *6355:D *6355:CLK 5.50106e-05
5 *60:10 *6355:CLK 2.60152e-05
6 *60:10 *237:163 5.01247e-05
7 *60:10 *321:10 8.4047e-05
8 *60:10 *521:22 9.41704e-05
*RES
1 *6044:X *60:10 41.3557 
2 *60:10 *6355:D 39.9471 
*END

*D_NET *61 0.00063254
*CONN
*I *6356:D I *D sky130_fd_sc_hd__dfxtp_1
*I *6046:X O *D sky130_fd_sc_hd__clkbuf_1
*CAP
1 *6356:D 6.02991e-05
2 *6046:X 0.000122912
3 *61:8 0.000183211
4 *6356:D *530:16 4.82016e-05
5 *6356:D *746:227 0.00019422
6 *61:8 *319:78 0
7 *61:8 *530:16 2.3696e-05
*RES
1 *6046:X *61:8 40.2579 
2 *61:8 *6356:D 40.0973 
*END

*D_NET *62 0.000580239
*CONN
*I *6357:D I *D sky130_fd_sc_hd__dfxtp_1
*I *6048:X O *D sky130_fd_sc_hd__clkbuf_1
*CAP
1 *6357:D 0.000164924
2 *6048:X 0.000164924
3 *6357:D *6048:A 9.5877e-05
4 *6357:D *486:83 7.06771e-05
5 *6357:D *523:26 8.38361e-05
*RES
1 *6048:X *6357:D 49.3402 
*END

*D_NET *63 0.00172571
*CONN
*I *6358:D I *D sky130_fd_sc_hd__dfxtp_1
*I *6050:X O *D sky130_fd_sc_hd__clkbuf_1
*CAP
1 *6358:D 0.000219806
2 *6050:X 5.12055e-05
3 *63:8 0.000271011
4 *6358:D *460:60 6.19985e-05
5 *6358:D *532:6 0.000219611
6 *6358:D *532:14 0.000320276
7 *6358:D *548:8 0.000146676
8 *6358:D *548:29 0.000269096
9 *63:8 *324:10 5.27824e-05
10 *63:8 *630:8 0.000113244
*RES
1 *6050:X *63:8 39.5536 
2 *63:8 *6358:D 45.338 
*END

*D_NET *64 0.0013792
*CONN
*I *6359:D I *D sky130_fd_sc_hd__dfxtp_1
*I *6052:X O *D sky130_fd_sc_hd__clkbuf_1
*CAP
1 *6359:D 0.000149649
2 *6052:X 0.00024492
3 *64:8 0.00039457
4 *6359:D *493:69 0.00027142
5 *64:8 *6051:S 0
6 *64:8 *319:51 0
7 *64:8 *325:10 3.88725e-05
8 *64:8 *549:29 0.000194011
9 *64:8 *665:8 8.57577e-05
*RES
1 *6052:X *64:8 43.4271 
2 *64:8 *6359:D 41.0502 
*END

*D_NET *65 0.00129232
*CONN
*I *6360:D I *D sky130_fd_sc_hd__dfxtp_1
*I *6054:X O *D sky130_fd_sc_hd__clkbuf_1
*CAP
1 *6360:D 0
2 *6054:X 0.000441291
3 *65:10 0.000441291
4 *65:10 *485:16 0.000249842
5 *65:10 *485:86 0.000159897
*RES
1 *6054:X *65:10 30.0273 
2 *65:10 *6360:D 23 
*END

*D_NET *66 0.000562398
*CONN
*I *6361:D I *D sky130_fd_sc_hd__dfxtp_1
*I *6056:X O *D sky130_fd_sc_hd__clkbuf_1
*CAP
1 *6361:D 9.098e-05
2 *6056:X 9.53785e-05
3 *66:8 0.000186359
4 *6361:D *6361:CLK 0.000189681
5 *66:8 *319:39 0
*RES
1 *6056:X *66:8 39.5536 
2 *66:8 *6361:D 40.0973 
*END

*D_NET *67 0.000954667
*CONN
*I *6362:D I *D sky130_fd_sc_hd__dfxtp_1
*I *6060:X O *D sky130_fd_sc_hd__clkbuf_1
*CAP
1 *6362:D 0.000110052
2 *6060:X 0.000213885
3 *67:10 0.000323937
4 *67:10 *6370:CLK 2.7237e-05
5 *67:10 *233:181 0.000169674
6 *67:10 *259:18 8.26569e-05
7 *67:10 *486:10 2.72257e-05
*RES
1 *6060:X *67:10 42.3086 
2 *67:10 *6362:D 39.6209 
*END

*D_NET *68 0.00047631
*CONN
*I *6363:D I *D sky130_fd_sc_hd__dfxtp_1
*I *6062:X O *D sky130_fd_sc_hd__clkbuf_1
*CAP
1 *6363:D 0.000184392
2 *6062:X 0.000184392
3 *6363:D *6363:CLK 7.73389e-05
4 *6363:D *521:22 3.01878e-05
*RES
1 *6062:X *6363:D 49.3402 
*END

*D_NET *69 0.000573139
*CONN
*I *6364:D I *D sky130_fd_sc_hd__dfxtp_1
*I *6064:X O *D sky130_fd_sc_hd__clkbuf_1
*CAP
1 *6364:D 0.00021348
2 *6064:X 0.00021348
3 *6364:D *6064:A 5.50106e-05
4 *6364:D *6364:CLK 6.97953e-05
5 *6364:D *233:139 2.13733e-05
*RES
1 *6064:X *6364:D 49.8166 
*END

*D_NET *70 0.000997942
*CONN
*I *6365:D I *D sky130_fd_sc_hd__dfxtp_1
*I *6066:X O *D sky130_fd_sc_hd__clkbuf_1
*CAP
1 *6365:D 3.47594e-05
2 *6066:X 0.000285364
3 *70:10 0.000320123
4 *6365:D *486:106 8.90341e-05
5 *70:10 *333:10 4.2361e-05
6 *70:10 *523:26 0.0002263
7 *70:10 *671:8 0
*RES
1 *6066:X *70:10 42.4329 
2 *70:10 *6365:D 38.9943 
*END

*D_NET *71 0.00102412
*CONN
*I *6366:D I *D sky130_fd_sc_hd__dfxtp_1
*I *6068:X O *D sky130_fd_sc_hd__clkbuf_1
*CAP
1 *6366:D 5.48656e-06
2 *6068:X 0.000236335
3 *71:10 0.000241822
4 *6366:D *298:50 7.10068e-06
5 *6366:D *484:44 1.64354e-05
6 *71:10 *232:258 0
7 *71:10 *334:10 0.000343064
8 *71:10 *548:29 0.000163352
9 *71:10 *779:20 1.05235e-05
*RES
1 *6068:X *71:10 43.3443 
2 *71:10 *6366:D 38.1916 
*END

*D_NET *72 0.000591364
*CONN
*I *6367:D I *D sky130_fd_sc_hd__dfxtp_1
*I *6070:X O *D sky130_fd_sc_hd__clkbuf_1
*CAP
1 *6367:D 0
2 *6070:X 0.000133404
3 *72:12 0.000133404
4 *72:12 *6070:A 3.53115e-05
5 *72:12 *6367:CLK 0.000125765
6 *72:12 *298:37 0.000155947
7 *72:12 *460:31 7.53384e-06
*RES
1 *6070:X *72:12 27.5157 
2 *72:12 *6367:D 23 
*END

*D_NET *73 0.00144675
*CONN
*I *6368:D I *D sky130_fd_sc_hd__dfxtp_1
*I *6072:X O *D sky130_fd_sc_hd__clkbuf_1
*CAP
1 *6368:D 9.26771e-06
2 *6072:X 0.000355009
3 *73:10 0.000364276
4 *6368:D *319:124 1.64354e-05
5 *6368:D *526:22 4.9054e-06
6 *73:10 *230:126 0.000178775
7 *73:10 *233:181 0.000518082
8 *73:10 *233:191 0
*RES
1 *6072:X *73:10 46.5136 
2 *73:10 *6368:D 38.1916 
*END

*D_NET *74 0.00110102
*CONN
*I *6369:D I *D sky130_fd_sc_hd__dfxtp_1
*I *6074:X O *D sky130_fd_sc_hd__clkbuf_1
*CAP
1 *6369:D 9.69592e-06
2 *6074:X 0.000278105
3 *74:10 0.000287801
4 *6369:D *298:33 1.64354e-05
5 *6369:D *527:14 3.24476e-06
6 *74:10 *232:305 0.000141052
7 *74:10 *292:10 4.08641e-05
8 *74:10 *337:8 0.000323822
9 *74:10 *636:53 0
*RES
1 *6074:X *74:10 43.945 
2 *74:10 *6369:D 38.1916 
*END

*D_NET *75 0.000624997
*CONN
*I *6370:D I *D sky130_fd_sc_hd__dfxtp_1
*I *6078:X O *D sky130_fd_sc_hd__clkbuf_1
*CAP
1 *6370:D 4.87161e-05
2 *6078:X 6.38083e-05
3 *75:8 0.000112524
4 *6370:D *238:12 1.13128e-05
5 *75:8 *339:71 0.000194318
6 *75:8 *688:8 0.000194318
*RES
1 *6078:X *75:8 40.61 
2 *75:8 *6370:D 38.668 
*END

*D_NET *76 0.000338212
*CONN
*I *6371:D I *D sky130_fd_sc_hd__dfxtp_1
*I *6080:X O *D sky130_fd_sc_hd__clkbuf_1
*CAP
1 *6371:D 2.86595e-05
2 *6080:X 0.000110817
3 *76:8 0.000139477
4 *6371:D *735:162 5.92579e-05
5 *76:8 *6371:CLK 0
6 *76:8 *513:10 0
*RES
1 *6080:X *76:8 39.5536 
2 *76:8 *6371:D 38.668 
*END

*D_NET *77 0.00045923
*CONN
*I *6372:D I *D sky130_fd_sc_hd__dfxtp_1
*I *6082:X O *D sky130_fd_sc_hd__clkbuf_1
*CAP
1 *6372:D 0.000229615
2 *6082:X 0.000229615
*RES
1 *6082:X *6372:D 49.3402 
*END

*D_NET *78 0.000443109
*CONN
*I *6373:D I *D sky130_fd_sc_hd__dfxtp_1
*I *6084:X O *D sky130_fd_sc_hd__clkbuf_1
*CAP
1 *6373:D 1.26271e-05
2 *6084:X 0.000114605
3 *78:8 0.000127232
4 *6373:D *233:247 1.64354e-05
5 *78:8 *230:224 8.43562e-05
6 *78:8 *351:111 8.78535e-05
*RES
1 *6084:X *78:8 40.61 
2 *78:8 *6373:D 38.1916 
*END

*D_NET *79 0.000618894
*CONN
*I *6374:D I *D sky130_fd_sc_hd__dfxtp_1
*I *6086:X O *D sky130_fd_sc_hd__clkbuf_1
*CAP
1 *6374:D 0
2 *6086:X 0.000244944
3 *79:8 0.000244944
4 *79:8 *6374:CLK 0.000129006
*RES
1 *6086:X *79:8 27.293 
2 *79:8 *6374:D 23 
*END

*D_NET *80 0.000701439
*CONN
*I *6375:D I *D sky130_fd_sc_hd__dfxtp_1
*I *6088:X O *D sky130_fd_sc_hd__clkbuf_1
*CAP
1 *6375:D 0
2 *6088:X 0.000176336
3 *80:12 0.000176336
4 *80:12 *6088:A 0.000224064
5 *80:12 *492:16 0.000124702
*RES
1 *6088:X *80:12 27.8109 
2 *80:12 *6375:D 23 
*END

*D_NET *81 0.000252761
*CONN
*I *6376:D I *D sky130_fd_sc_hd__dfxtp_1
*I *6090:X O *D sky130_fd_sc_hd__clkbuf_1
*CAP
1 *6376:D 1.26271e-05
2 *6090:X 8.38655e-05
3 *81:8 9.64926e-05
4 *6376:D *6376:CLK 1.64354e-05
5 *81:8 *346:10 4.334e-05
6 *81:8 *482:42 0
*RES
1 *6090:X *81:8 39.5536 
2 *81:8 *6376:D 38.1916 
*END

*D_NET *82 0.000647888
*CONN
*I *6377:D I *D sky130_fd_sc_hd__dfxtp_1
*I *6092:X O *D sky130_fd_sc_hd__clkbuf_1
*CAP
1 *6377:D 0.00021447
2 *6092:X 0.00021447
3 *6377:D *6112:A 5.50049e-05
4 *6377:D *411:77 0.000163943
*RES
1 *6092:X *6377:D 49.8166 
*END

*D_NET *83 0.000668467
*CONN
*I *6378:D I *D sky130_fd_sc_hd__dfxtp_1
*I *6098:X O *D sky130_fd_sc_hd__clkbuf_1
*CAP
1 *6378:D 6.75287e-05
2 *6098:X 5.61785e-05
3 *83:8 0.000123707
4 *6378:D *6488:CLK 0.000143599
5 *83:8 *678:8 0.000138727
6 *83:8 *724:179 0.000138727
*RES
1 *6098:X *83:8 39.9057 
2 *83:8 *6378:D 39.6209 
*END

*D_NET *84 0.000291161
*CONN
*I *6379:D I *D sky130_fd_sc_hd__dfxtp_1
*I *6100:X O *D sky130_fd_sc_hd__clkbuf_1
*CAP
1 *6379:D 1.00796e-05
2 *6100:X 6.73965e-05
3 *84:8 7.74761e-05
4 *6379:D *482:104 1.74843e-05
5 *84:8 *231:18 0.000114092
6 *84:8 *243:14 0
7 *84:8 *622:8 4.6318e-06
*RES
1 *6100:X *84:8 39.5536 
2 *84:8 *6379:D 38.1916 
*END

*D_NET *85 0.00076766
*CONN
*I *6380:D I *D sky130_fd_sc_hd__dfxtp_1
*I *6102:X O *D sky130_fd_sc_hd__clkbuf_1
*CAP
1 *6380:D 8.45249e-06
2 *6102:X 0.000232594
3 *85:8 0.000241047
4 *6380:D *6406:CLK 1.64354e-05
5 *85:8 *230:89 0
6 *85:8 *342:10 0.000187598
7 *85:8 *484:34 8.15327e-05
*RES
1 *6102:X *85:8 42.7229 
2 *85:8 *6380:D 38.1916 
*END

*D_NET *86 0.000449356
*CONN
*I *6381:D I *D sky130_fd_sc_hd__dfxtp_1
*I *6104:X O *D sky130_fd_sc_hd__clkbuf_1
*CAP
1 *6381:D 1.38132e-05
2 *6104:X 0.000125155
3 *86:10 0.000138968
4 *6381:D *351:99 4.9054e-06
5 *86:10 *232:240 3.22879e-05
6 *86:10 *233:171 8.41012e-05
7 *86:10 *355:8 5.01247e-05
*RES
1 *6104:X *86:10 40.8793 
2 *86:10 *6381:D 38.1916 
*END

*D_NET *87 0.000455257
*CONN
*I *6382:D I *D sky130_fd_sc_hd__dfxtp_1
*I *6106:X O *D sky130_fd_sc_hd__clkbuf_1
*CAP
1 *6382:D 9.19018e-05
2 *6106:X 9.31552e-05
3 *87:8 0.000185057
4 *87:8 *6382:CLK 0
5 *87:8 *276:12 0
6 *87:8 *356:10 8.51432e-05
*RES
1 *6106:X *87:8 40.2579 
2 *87:8 *6382:D 39.6209 
*END

*D_NET *88 0.000834022
*CONN
*I *6383:D I *D sky130_fd_sc_hd__dfxtp_1
*I *6108:X O *D sky130_fd_sc_hd__clkbuf_1
*CAP
1 *6383:D 6.72294e-05
2 *6108:X 0.000245821
3 *88:8 0.00031305
4 *6383:D *492:28 7.23742e-05
5 *88:8 *292:10 0
6 *88:8 *319:12 0
7 *88:8 *492:28 0.000135547
*RES
1 *6108:X *88:8 42.3707 
2 *88:8 *6383:D 39.6416 
*END

*D_NET *89 0.000316465
*CONN
*I *6384:D I *D sky130_fd_sc_hd__dfxtp_1
*I *6110:X O *D sky130_fd_sc_hd__clkbuf_1
*CAP
1 *6384:D 3.45771e-05
2 *6110:X 7.61995e-05
3 *89:8 0.000110777
4 *6384:D *6384:CLK 5.92579e-05
5 *89:8 *237:124 0
6 *89:8 *482:29 3.56537e-05
*RES
1 *6110:X *89:8 39.5536 
2 *89:8 *6384:D 38.668 
*END

*D_NET *90 0.000301257
*CONN
*I *6385:D I *D sky130_fd_sc_hd__dfxtp_1
*I *6112:X O *D sky130_fd_sc_hd__clkbuf_1
*CAP
1 *6385:D 6.23056e-05
2 *6112:X 6.66531e-05
3 *90:8 0.000128959
4 *90:8 *216:14 0
5 *90:8 *428:52 4.334e-05
*RES
1 *6112:X *90:8 39.2014 
2 *90:8 *6385:D 39.1652 
*END

*D_NET *91 0.000548427
*CONN
*I *6386:D I *D sky130_fd_sc_hd__dfxtp_1
*I *6117:X O *D sky130_fd_sc_hd__clkbuf_1
*CAP
1 *6386:D 0
2 *6117:X 0.000151337
3 *91:12 0.000151337
4 *91:12 *255:14 5.67058e-05
5 *91:12 *255:26 6.32216e-05
6 *91:12 *481:18 4.41403e-05
7 *91:12 *496:18 8.16848e-05
*RES
1 *6117:X *91:12 27.0393 
2 *91:12 *6386:D 23 
*END

*D_NET *92 0.000469582
*CONN
*I *6387:D I *D sky130_fd_sc_hd__dfxtp_1
*I *6119:X O *D sky130_fd_sc_hd__clkbuf_1
*CAP
1 *6387:D 0.000196122
2 *6119:X 0.000196122
3 *6387:D *481:35 7.73389e-05
*RES
1 *6119:X *6387:D 49.3402 
*END

*D_NET *93 0.000774708
*CONN
*I *6388:D I *D sky130_fd_sc_hd__dfxtp_1
*I *6121:X O *D sky130_fd_sc_hd__clkbuf_1
*CAP
1 *6388:D 8.38224e-05
2 *6121:X 8.15307e-05
3 *93:8 0.000165353
4 *6388:D *5954:A0 0.000181608
5 *6388:D *6027:A0 5.73018e-05
6 *6388:D *625:114 9.41704e-05
7 *93:8 *250:8 0.000110922
8 *93:8 *498:8 0
*RES
1 *6121:X *93:8 39.5536 
2 *93:8 *6388:D 40.0973 
*END

*D_NET *94 0.000558166
*CONN
*I *6389:D I *D sky130_fd_sc_hd__dfxtp_1
*I *6123:X O *D sky130_fd_sc_hd__clkbuf_1
*CAP
1 *6389:D 0.000192298
2 *6123:X 0.000192298
3 *6389:D *6389:CLK 0.000129006
4 *6389:D *555:27 4.45644e-05
5 *6389:D *563:10 0
*RES
1 *6123:X *6389:D 49.8166 
*END

*D_NET *95 0.000357945
*CONN
*I *6390:D I *D sky130_fd_sc_hd__dfxtp_1
*I *6125:X O *D sky130_fd_sc_hd__clkbuf_1
*CAP
1 *6390:D 1.11297e-05
2 *6125:X 0.000120082
3 *95:8 0.000131212
4 *6390:D *494:86 4.9054e-06
5 *95:8 *265:12 0
6 *95:8 *367:10 6.93984e-05
7 *95:8 *494:99 2.12178e-05
*RES
1 *6125:X *95:8 40.2579 
2 *95:8 *6390:D 38.1916 
*END

*D_NET *96 0.00126852
*CONN
*I *6391:D I *D sky130_fd_sc_hd__dfxtp_1
*I *6127:X O *D sky130_fd_sc_hd__clkbuf_1
*CAP
1 *6391:D 3.47594e-05
2 *6127:X 0.000334886
3 *96:10 0.000369646
4 *6391:D *6391:CLK 8.90341e-05
5 *96:10 *501:10 8.62783e-05
6 *96:10 *501:24 0.000308039
7 *96:10 *758:8 0
8 *96:10 *768:42 4.5882e-05
*RES
1 *6127:X *96:10 43.3857 
2 *96:10 *6391:D 38.9943 
*END

*D_NET *97 0.00180602
*CONN
*I *6392:D I *D sky130_fd_sc_hd__dfxtp_1
*I *6129:X O *D sky130_fd_sc_hd__clkbuf_1
*CAP
1 *6392:D 0.00016742
2 *6129:X 0.000175407
3 *97:8 0.000342827
4 *6392:D *5986:A1 5.50049e-05
5 *6392:D *230:55 4.79641e-05
6 *6392:D *233:321 8.44742e-05
7 *6392:D *372:64 0.000401843
8 *97:8 *6512:A 1.35518e-05
9 *97:8 *282:8 8.85189e-05
10 *97:8 *372:30 0.000143024
11 *97:8 *479:116 5.55884e-05
12 *97:8 *502:8 0.000141879
13 *97:8 *760:12 8.85189e-05
*RES
1 *6129:X *97:8 43.075 
2 *97:8 *6392:D 43.4323 
*END

*D_NET *98 0.00235725
*CONN
*I *6393:D I *D sky130_fd_sc_hd__dfxtp_1
*I *6131:X O *D sky130_fd_sc_hd__clkbuf_1
*CAP
1 *6393:D 0
2 *6131:X 0.000697123
3 *98:10 0.000697123
4 *98:10 *6131:A 3.34247e-05
5 *98:10 *6393:CLK 0.000747722
6 *98:10 *636:107 0.000181857
*RES
1 *6131:X *98:10 35.268 
2 *98:10 *6393:D 23 
*END

*D_NET *99 0.0010378
*CONN
*I *6394:D I *D sky130_fd_sc_hd__dfxtp_1
*I *6135:X O *D sky130_fd_sc_hd__clkbuf_1
*CAP
1 *6394:D 0.000422316
2 *6135:X 6.41771e-05
3 *99:8 0.000486493
4 *6394:D *6394:CLK 2.93845e-05
5 *6394:D *760:12 7.53384e-06
6 *99:8 *270:18 2.79004e-05
7 *99:8 *402:10 0
*RES
1 *6135:X *99:8 39.2014 
2 *99:8 *6394:D 43.8673 
*END

*D_NET *100 0.000651095
*CONN
*I *6395:D I *D sky130_fd_sc_hd__dfxtp_1
*I *6137:X O *D sky130_fd_sc_hd__clkbuf_1
*CAP
1 *6395:D 0.000122088
2 *6137:X 0.000129537
3 *100:8 0.000251625
4 *6395:D *494:84 4.4869e-05
5 *6395:D *494:86 3.3577e-05
6 *100:8 *281:12 0
7 *100:8 *374:10 6.93984e-05
*RES
1 *6137:X *100:8 40.2579 
2 *100:8 *6395:D 40.4236 
*END

*D_NET *101 0.000767219
*CONN
*I *6396:D I *D sky130_fd_sc_hd__dfxtp_1
*I *6139:X O *D sky130_fd_sc_hd__clkbuf_1
*CAP
1 *6396:D 1.36537e-05
2 *6139:X 0.000160006
3 *101:8 0.000173659
4 *101:8 *362:45 0.000110487
5 *101:8 *362:95 7.6144e-05
6 *101:8 *768:42 3.82326e-05
7 *101:8 *768:44 0.000195037
*RES
1 *6139:X *101:8 42.3707 
2 *101:8 *6396:D 38.1916 
*END

*D_NET *102 0.000400246
*CONN
*I *6397:D I *D sky130_fd_sc_hd__dfxtp_1
*I *6141:X O *D sky130_fd_sc_hd__clkbuf_1
*CAP
1 *6397:D 5.33781e-05
2 *6141:X 9.53785e-05
3 *102:8 0.000148757
4 *6397:D *483:65 0.000102732
5 *102:8 *401:87 0
6 *102:8 *483:69 0
*RES
1 *6141:X *102:8 39.5536 
2 *102:8 *6397:D 39.1445 
*END

*D_NET *103 0.000774742
*CONN
*I *6398:D I *D sky130_fd_sc_hd__dfxtp_1
*I *6143:X O *D sky130_fd_sc_hd__clkbuf_1
*CAP
1 *6398:D 0.000198161
2 *6143:X 8.17907e-05
3 *103:8 0.000279952
4 *6398:D *216:44 6.92576e-05
5 *6398:D *488:123 5.50106e-05
6 *6398:D *564:12 1.53528e-06
7 *6398:D *658:22 8.90341e-05
8 *103:8 *289:10 0
9 *103:8 *658:26 0
*RES
1 *6143:X *103:8 39.2014 
2 *103:8 *6398:D 42.8679 
*END

*D_NET *104 0.000276969
*CONN
*I *6399:D I *D sky130_fd_sc_hd__dfxtp_1
*I *6145:X O *D sky130_fd_sc_hd__clkbuf_1
*CAP
1 *6399:D 1.26271e-05
2 *6145:X 7.24403e-05
3 *104:8 8.50674e-05
4 *6399:D *372:10 1.64354e-05
5 *104:8 *279:8 3.47781e-05
6 *104:8 *309:14 0
7 *104:8 *470:96 5.56203e-05
*RES
1 *6145:X *104:8 39.5536 
2 *104:8 *6399:D 38.1916 
*END

*D_NET *105 0.000394521
*CONN
*I *6400:D I *D sky130_fd_sc_hd__dfxtp_1
*I *6147:X O *D sky130_fd_sc_hd__clkbuf_1
*CAP
1 *6400:D 8.8392e-05
2 *6147:X 5.15155e-05
3 *105:8 0.000139908
4 *6400:D *232:21 2.80263e-05
5 *105:8 *237:84 4.334e-05
6 *105:8 *379:10 4.334e-05
*RES
1 *6147:X *105:8 39.2014 
2 *105:8 *6400:D 39.6416 
*END

*D_NET *106 0.00163847
*CONN
*I *6401:D I *D sky130_fd_sc_hd__dfxtp_1
*I *6149:X O *D sky130_fd_sc_hd__clkbuf_1
*CAP
1 *6401:D 1.65545e-05
2 *6149:X 0.000454238
3 *106:8 0.000470793
4 *6401:D *237:66 0.000104433
5 *6401:D *239:168 0.000102732
6 *106:8 *216:27 0
7 *106:8 *225:12 0.000141888
8 *106:8 *409:10 7.99395e-05
9 *106:8 *480:8 0.000106715
10 *106:8 *480:14 7.73301e-05
11 *106:8 *790:12 1.69668e-05
12 *106:8 *791:35 6.68793e-05
*RES
1 *6149:X *106:8 48.005 
2 *106:8 *6401:D 39.1445 
*END

*D_NET *107 0.000802324
*CONN
*I *6402:D I *D sky130_fd_sc_hd__dfxtp_1
*I *6153:X O *D sky130_fd_sc_hd__clkbuf_1
*CAP
1 *6402:D 2.0135e-05
2 *6153:X 0.000306659
3 *107:10 0.000326794
4 *6402:D *724:206 2.62078e-05
5 *107:10 *339:75 0
6 *107:10 *383:10 8.93599e-05
7 *107:10 *724:206 3.31683e-05
*RES
1 *6153:X *107:10 42.5571 
2 *107:10 *6402:D 38.3055 
*END

*D_NET *108 0.000370248
*CONN
*I *6403:D I *D sky130_fd_sc_hd__dfxtp_1
*I *6155:X O *D sky130_fd_sc_hd__clkbuf_1
*CAP
1 *6403:D 9.2744e-06
2 *6155:X 8.49192e-05
3 *108:8 9.41936e-05
4 *6403:D *382:96 9.95543e-06
5 *108:8 *6403:CLK 0.000171906
*RES
1 *6155:X *108:8 40.2579 
2 *108:8 *6403:D 38.1916 
*END

*D_NET *109 0.00129073
*CONN
*I *6404:D I *D sky130_fd_sc_hd__dfxtp_1
*I *6157:X O *D sky130_fd_sc_hd__clkbuf_1
*CAP
1 *6404:D 0.000218621
2 *6157:X 8.51008e-05
3 *109:8 0.000303722
4 *6404:D *6404:CLK 0.000399241
5 *109:8 *6157:A 9.28842e-05
6 *109:8 *230:109 0.000191157
*RES
1 *6157:X *109:8 40.61 
2 *109:8 *6404:D 42.4795 
*END

*D_NET *110 0.0006731
*CONN
*I *6405:D I *D sky130_fd_sc_hd__dfxtp_1
*I *6159:X O *D sky130_fd_sc_hd__clkbuf_1
*CAP
1 *6405:D 0.000224561
2 *6159:X 0.000224561
3 *6405:D *486:141 0.000194241
4 *6405:D *611:12 2.97352e-05
*RES
1 *6159:X *6405:D 49.9616 
*END

*D_NET *111 0.000465966
*CONN
*I *6406:D I *D sky130_fd_sc_hd__dfxtp_1
*I *6161:X O *D sky130_fd_sc_hd__clkbuf_1
*CAP
1 *6406:D 0
2 *6161:X 0.000160918
3 *111:12 0.000160918
4 *111:12 *6161:A 1.76557e-05
5 *111:12 *6406:CLK 0.000126474
*RES
1 *6161:X *111:12 27.0393 
2 *111:12 *6406:D 23 
*END

*D_NET *112 0.000280949
*CONN
*I *6407:D I *D sky130_fd_sc_hd__dfxtp_1
*I *6163:X O *D sky130_fd_sc_hd__clkbuf_1
*CAP
1 *6407:D 1.66233e-05
2 *6163:X 6.56939e-05
3 *112:8 8.23173e-05
4 *112:8 *6087:S 0
5 *112:8 *492:64 0.000116314
*RES
1 *6163:X *112:8 39.5536 
2 *112:8 *6407:D 38.1916 
*END

*D_NET *113 0.000327869
*CONN
*I *6408:D I *D sky130_fd_sc_hd__dfxtp_1
*I *6165:X O *D sky130_fd_sc_hd__clkbuf_1
*CAP
1 *6408:D 7.54681e-05
2 *6165:X 8.27586e-05
3 *113:8 0.000158227
4 *6408:D *6408:CLK 1.14154e-05
5 *6408:D *482:8 0
6 *113:8 *482:76 0
*RES
1 *6165:X *113:8 39.2014 
2 *113:8 *6408:D 39.4345 
*END

*D_NET *114 0.00174751
*CONN
*I *6409:D I *D sky130_fd_sc_hd__dfxtp_1
*I *6167:X O *D sky130_fd_sc_hd__clkbuf_1
*CAP
1 *6409:D 5.08274e-05
2 *6167:X 0.000322912
3 *114:12 0.000373739
4 *6409:D *489:40 0.000143604
5 *6409:D *615:10 5.10613e-05
6 *114:12 *5997:A1 0.000181925
7 *114:12 *5997:A3 0
8 *114:12 *6167:A 4.67926e-05
9 *114:12 *180:10 0.00012136
10 *114:12 *390:12 0
11 *114:12 *636:84 0
12 *114:12 *658:26 0.000455285
*RES
1 *6167:X *114:12 46.6793 
2 *114:12 *6409:D 39.6209 
*END

*D_NET *115 0.000996464
*CONN
*I *6410:D I *D sky130_fd_sc_hd__dfxtp_1
*I *6170:X O *D sky130_fd_sc_hd__clkbuf_1
*CAP
1 *6410:D 1.13783e-05
2 *6170:X 0.000394133
3 *115:10 0.000405511
4 *6410:D *225:102 2.26823e-05
5 *115:10 *6426:CLK 1.59094e-05
6 *115:10 *6426:D 5.9561e-05
7 *115:10 *494:20 8.26569e-05
8 *115:10 *494:22 4.6318e-06
9 *115:10 *735:46 0
*RES
1 *6170:X *115:10 43.7379 
2 *115:10 *6410:D 38.2486 
*END

*D_NET *116 0.00137786
*CONN
*I *6411:D I *D sky130_fd_sc_hd__dfxtp_1
*I *6172:X O *D sky130_fd_sc_hd__clkbuf_1
*CAP
1 *6411:D 0.000155876
2 *6172:X 0.000254915
3 *116:8 0.000410791
4 *6411:D *413:14 7.10068e-06
5 *6411:D *735:27 0.000233156
6 *6411:D *735:81 0.000185434
7 *116:8 *391:79 5.15848e-05
8 *116:8 *393:10 4.08641e-05
9 *116:8 *585:20 0
10 *116:8 *601:8 3.81391e-05
11 *116:8 *735:35 0
*RES
1 *6172:X *116:8 43.075 
2 *116:8 *6411:D 42.4795 
*END

*D_NET *117 0.000633639
*CONN
*I *6412:D I *D sky130_fd_sc_hd__dfxtp_1
*I *6174:X O *D sky130_fd_sc_hd__clkbuf_1
*CAP
1 *6412:D 1.13183e-05
2 *6174:X 0.000164773
3 *117:10 0.000176091
4 *6412:D *6412:CLK 1.64354e-05
5 *117:10 *394:8 0.000167443
6 *117:10 *709:185 9.75779e-05
7 *117:10 *709:211 0
*RES
1 *6174:X *117:10 41.3557 
2 *117:10 *6412:D 38.1916 
*END

*D_NET *118 0.000921453
*CONN
*I *6413:D I *D sky130_fd_sc_hd__dfxtp_1
*I *6176:X O *D sky130_fd_sc_hd__clkbuf_1
*CAP
1 *6413:D 5.54572e-05
2 *6176:X 0.000264994
3 *118:10 0.000320451
4 *6413:D *6413:CLK 2.93845e-05
5 *6413:D *216:141 0.000170785
6 *118:10 *270:10 5.31444e-05
7 *118:10 *395:8 2.7237e-05
*RES
1 *6176:X *118:10 41.6043 
2 *118:10 *6413:D 39.8902 
*END

*D_NET *119 0.000674076
*CONN
*I *6414:D I *D sky130_fd_sc_hd__dfxtp_1
*I *6178:X O *D sky130_fd_sc_hd__clkbuf_1
*CAP
1 *6414:D 1.42921e-05
2 *6178:X 0.000163386
3 *119:10 0.000177679
4 *6414:D *488:52 8.38361e-05
5 *6414:D *768:107 8.55313e-05
6 *119:10 *225:37 5.50049e-05
7 *119:10 *488:39 8.51432e-05
8 *119:10 *641:10 9.20311e-06
9 *119:10 *768:107 0
*RES
1 *6178:X *119:10 41.2314 
2 *119:10 *6414:D 38.9373 
*END

*D_NET *120 0.000933128
*CONN
*I *6415:D I *D sky130_fd_sc_hd__dfxtp_1
*I *6180:X O *D sky130_fd_sc_hd__clkbuf_1
*CAP
1 *6415:D 0.000146407
2 *6180:X 0.000180942
3 *120:8 0.000327349
4 *120:8 *215:10 0.000194318
5 *120:8 *309:14 0
6 *120:8 *382:141 0
7 *120:8 *658:26 8.41115e-05
*RES
1 *6180:X *120:8 42.3707 
2 *120:8 *6415:D 40.3666 
*END

*D_NET *121 0.00101242
*CONN
*I *6416:D I *D sky130_fd_sc_hd__dfxtp_1
*I *6182:X O *D sky130_fd_sc_hd__clkbuf_1
*CAP
1 *6416:D 0.000109192
2 *6182:X 0.000351106
3 *121:8 0.000460298
4 *6416:D *391:59 9.18194e-05
5 *121:8 *265:12 0
6 *121:8 *598:27 0
7 *121:8 *768:136 0
*RES
1 *6182:X *121:8 43.075 
2 *121:8 *6416:D 40.5737 
*END

*D_NET *122 0.00117347
*CONN
*I *6417:D I *D sky130_fd_sc_hd__dfxtp_1
*I *6184:X O *D sky130_fd_sc_hd__clkbuf_1
*CAP
1 *6417:D 0.00041682
2 *6184:X 7.04162e-05
3 *122:8 0.000487236
4 *6417:D *607:6 5.3304e-05
5 *122:8 *391:45 0.000110913
6 *122:8 *480:16 0
7 *122:8 *607:12 3.47781e-05
*RES
1 *6184:X *122:8 39.5536 
2 *122:8 *6417:D 44.3852 
*END

*D_NET *123 0.000692267
*CONN
*I *6418:D I *D sky130_fd_sc_hd__dfxtp_1
*I *6188:X O *D sky130_fd_sc_hd__clkbuf_1
*CAP
1 *6418:D 0.000175053
2 *6188:X 0.000139775
3 *123:8 0.000314827
4 *6418:D *6418:CLK 5.67058e-05
5 *6418:D *230:55 5.90675e-06
6 *123:8 *6418:CLK 0
7 *123:8 *270:18 0
*RES
1 *6188:X *123:8 40.2579 
2 *123:8 *6418:D 41.3402 
*END

*D_NET *124 0.00084603
*CONN
*I *6419:D I *D sky130_fd_sc_hd__dfxtp_1
*I *6190:X O *D sky130_fd_sc_hd__clkbuf_1
*CAP
1 *6419:D 0
2 *6190:X 0.000261522
3 *124:12 0.000261522
4 *124:12 *6190:A 0.00010018
5 *124:12 *239:180 0.000222806
*RES
1 *6190:X *124:12 28.945 
2 *124:12 *6419:D 23 
*END

*D_NET *125 0.00131113
*CONN
*I *6420:D I *D sky130_fd_sc_hd__dfxtp_1
*I *6192:X O *D sky130_fd_sc_hd__clkbuf_1
*CAP
1 *6420:D 1.03711e-05
2 *6192:X 0.000344423
3 *125:10 0.000354794
4 *6420:D *495:58 1.64354e-05
5 *125:10 *270:10 0.000342734
6 *125:10 *270:18 2.15656e-05
7 *125:10 *372:24 8.93766e-05
8 *125:10 *372:30 8.20948e-05
9 *125:10 *411:92 4.93341e-05
*RES
1 *6192:X *125:10 45.0014 
2 *125:10 *6420:D 38.1916 
*END

*D_NET *126 0.000279066
*CONN
*I *6421:D I *D sky130_fd_sc_hd__dfxtp_1
*I *6194:X O *D sky130_fd_sc_hd__clkbuf_1
*CAP
1 *6421:D 4.77228e-05
2 *6194:X 9.18104e-05
3 *126:8 0.000139533
4 *126:8 *270:10 0
5 *126:8 *757:75 0
*RES
1 *6194:X *126:8 39.5536 
2 *126:8 *6421:D 38.668 
*END

*D_NET *127 0.00139614
*CONN
*I *6422:D I *D sky130_fd_sc_hd__dfxtp_1
*I *6196:X O *D sky130_fd_sc_hd__clkbuf_1
*CAP
1 *6422:D 0
2 *6196:X 0.000454786
3 *127:10 0.000454786
4 *127:10 *6143:A 5.37348e-06
5 *127:10 *6196:A 7.29586e-05
6 *127:10 *6422:CLK 0.000182832
7 *127:10 *768:79 0.000225399
*RES
1 *6196:X *127:10 31.5343 
2 *127:10 *6422:D 23 
*END

*D_NET *128 0.000712516
*CONN
*I *6423:D I *D sky130_fd_sc_hd__dfxtp_1
*I *6198:X O *D sky130_fd_sc_hd__clkbuf_1
*CAP
1 *6423:D 0.000103576
2 *6198:X 4.61778e-05
3 *128:8 0.000149754
4 *6423:D *6351:CLK 0.000187073
5 *128:8 *339:31 0.000111852
6 *128:8 *470:96 0.000114083
*RES
1 *6198:X *128:8 39.5536 
2 *128:8 *6423:D 40.0973 
*END

*D_NET *129 0.000315967
*CONN
*I *6424:D I *D sky130_fd_sc_hd__dfxtp_1
*I *6200:X O *D sky130_fd_sc_hd__clkbuf_1
*CAP
1 *6424:D 2.38439e-05
2 *6200:X 0.000104511
3 *129:8 0.000128355
4 *6424:D *746:99 5.92579e-05
5 *129:8 *233:35 0
6 *129:8 *237:84 0
*RES
1 *6200:X *129:8 39.5536 
2 *129:8 *6424:D 38.668 
*END

*D_NET *130 0.000481874
*CONN
*I *6425:D I *D sky130_fd_sc_hd__dfxtp_1
*I *6202:X O *D sky130_fd_sc_hd__clkbuf_1
*CAP
1 *6425:D 0.000141403
2 *6202:X 0.000141403
3 *6425:D *6202:A 0.00017248
4 *6425:D *791:10 2.65879e-05
*RES
1 *6202:X *6425:D 49.3402 
*END

*D_NET *131 0.00116533
*CONN
*I *6426:D I *D sky130_fd_sc_hd__dfxtp_1
*I *6206:X O *D sky130_fd_sc_hd__clkbuf_1
*CAP
1 *6426:D 0.00027432
2 *6206:X 0.000104397
3 *131:8 0.000378716
4 *6426:D *6426:CLK 5.3304e-05
5 *6426:D *766:6 9.84851e-05
6 *131:8 *281:12 0.000196549
7 *131:8 *392:10 0
8 *115:10 *6426:D 5.9561e-05
*RES
1 *6206:X *131:8 40.61 
2 *131:8 *6426:D 42.7487 
*END

*D_NET *132 0.00094148
*CONN
*I *6427:D I *D sky130_fd_sc_hd__dfxtp_1
*I *6208:X O *D sky130_fd_sc_hd__clkbuf_1
*CAP
1 *6427:D 8.20156e-06
2 *6208:X 0.000285788
3 *132:10 0.000293989
4 *6427:D *216:77 1.64354e-05
5 *132:10 *6427:CLK 8.93766e-05
6 *132:10 *391:73 9.67842e-05
7 *132:10 *413:14 8.4047e-05
8 *132:10 *494:22 6.68587e-05
9 *132:10 *735:35 0
*RES
1 *6208:X *132:10 43.4686 
2 *132:10 *6427:D 38.1916 
*END

*D_NET *133 0.000373493
*CONN
*I *6428:D I *D sky130_fd_sc_hd__dfxtp_1
*I *6210:X O *D sky130_fd_sc_hd__clkbuf_1
*CAP
1 *6428:D 1.55139e-05
2 *6210:X 6.86192e-05
3 *133:8 8.4133e-05
4 *6428:D *6428:CLK 5.92579e-05
5 *6428:D *746:127 5.92579e-05
6 *133:8 *487:25 3.21223e-05
7 *133:8 *602:8 5.45887e-05
*RES
1 *6210:X *133:8 39.5536 
2 *133:8 *6428:D 38.668 
*END

*D_NET *134 0.000425766
*CONN
*I *6429:D I *D sky130_fd_sc_hd__dfxtp_1
*I *6212:X O *D sky130_fd_sc_hd__clkbuf_1
*CAP
1 *6429:D 7.17495e-06
2 *6212:X 0.000118788
3 *134:10 0.000125963
4 *6429:D *226:227 1.64354e-05
5 *6429:D *495:90 1.64354e-05
6 *134:10 *6212:A 3.22879e-05
7 *134:10 *411:98 0.000108681
8 *134:10 *415:8 0
*RES
1 *6212:X *134:10 40.175 
2 *134:10 *6429:D 38.1916 
*END

*D_NET *135 0.000518243
*CONN
*I *6430:D I *D sky130_fd_sc_hd__dfxtp_1
*I *6214:X O *D sky130_fd_sc_hd__clkbuf_1
*CAP
1 *6430:D 0
2 *6214:X 0.000143581
3 *135:12 0.000143581
4 *135:12 *6214:A 0.00010018
5 *135:12 *6430:CLK 0.000130901
*RES
1 *6214:X *135:12 27.0393 
2 *135:12 *6430:D 23 
*END

*D_NET *136 0.00104466
*CONN
*I *6431:D I *D sky130_fd_sc_hd__dfxtp_1
*I *6216:X O *D sky130_fd_sc_hd__clkbuf_1
*CAP
1 *6431:D 5.74844e-05
2 *6216:X 0.000233172
3 *136:10 0.000290656
4 *6431:D *6215:A0 0.000167361
5 *6431:D *6431:CLK 5.50106e-05
6 *6431:D *411:92 2.85405e-05
7 *136:10 *6216:A 5.41288e-05
8 *136:10 *225:160 4.96264e-05
9 *136:10 *489:95 0.000108681
*RES
1 *6216:X *136:10 41.6043 
2 *136:10 *6431:D 39.8902 
*END

*D_NET *137 0.000656667
*CONN
*I *6432:D I *D sky130_fd_sc_hd__dfxtp_1
*I *6218:X O *D sky130_fd_sc_hd__clkbuf_1
*CAP
1 *6432:D 0.000143195
2 *6218:X 0.000164553
3 *137:12 0.000307748
4 *137:12 *418:10 4.117e-05
5 *137:12 *488:82 0
*RES
1 *6218:X *137:12 41.5007 
2 *137:12 *6432:D 40.5737 
*END

*D_NET *138 0.000508816
*CONN
*I *6433:D I *D sky130_fd_sc_hd__dfxtp_1
*I *6220:X O *D sky130_fd_sc_hd__clkbuf_1
*CAP
1 *6433:D 0.000184988
2 *6220:X 0.000184988
3 *6433:D *6433:CLK 5.50049e-05
4 *6433:D *480:37 8.38361e-05
*RES
1 *6220:X *6433:D 49.3402 
*END

*D_NET *139 0.000446032
*CONN
*I *6434:D I *D sky130_fd_sc_hd__dfrtp_1
*I *6223:X O *D sky130_fd_sc_hd__clkbuf_1
*CAP
1 *6434:D 0
2 *6223:X 0.000205189
3 *139:10 0.000205189
4 *139:10 *491:45 0
5 *139:10 *710:8 1.02387e-05
6 *139:10 *710:10 2.5415e-05
*RES
1 *6223:X *139:10 41.1279 
2 *139:10 *6434:D 38 
*END

*D_NET *140 0.000650141
*CONN
*I *6435:D I *D sky130_fd_sc_hd__dfrtp_1
*I *6226:X O *D sky130_fd_sc_hd__clkbuf_1
*CAP
1 *6435:D 0.000102117
2 *6226:X 0.000119191
3 *140:10 0.000221308
4 *6435:D *6435:CLK 7.43114e-05
5 *140:10 *6260:A 2.30292e-05
6 *140:10 *208:14 0.000110184
7 *140:10 *710:10 0
8 *140:10 *710:12 0
*RES
1 *6226:X *140:10 40.175 
2 *140:10 *6435:D 39.5743 
*END

*D_NET *141 0.000287602
*CONN
*I *6436:D I *D sky130_fd_sc_hd__dfrtp_1
*I *6228:X O *D sky130_fd_sc_hd__o21ba_1
*CAP
1 *6436:D 0
2 *6228:X 7.17459e-05
3 *141:8 7.17459e-05
4 *141:8 *391:20 0.00014411
5 *141:8 *479:61 0
*RES
1 *6228:X *141:8 39.9057 
2 *141:8 *6436:D 38 
*END

*D_NET *142 0.000745515
*CONN
*I *6437:D I *D sky130_fd_sc_hd__dfrtp_1
*I *6230:X O *D sky130_fd_sc_hd__clkbuf_1
*CAP
1 *6437:D 0.000195789
2 *6230:X 8.69648e-05
3 *142:8 0.000282754
4 *6437:D *6437:CLK 0.000109621
5 *142:8 *226:45 7.03869e-05
*RES
1 *6230:X *142:8 39.9057 
2 *142:8 *6437:D 41.9564 
*END

*D_NET *143 0.000842207
*CONN
*I *6438:D I *D sky130_fd_sc_hd__dfrtp_1
*I *6232:X O *D sky130_fd_sc_hd__clkbuf_1
*CAP
1 *6438:D 0
2 *6232:X 0.000258249
3 *143:10 0.000258249
4 *143:10 *6451:D 9.53106e-05
5 *143:10 *207:14 0.000116314
6 *143:10 *445:16 0.000114083
*RES
1 *6232:X *143:10 42.5571 
2 *143:10 *6438:D 38 
*END

*D_NET *144 0.000923618
*CONN
*I *6439:D I *D sky130_fd_sc_hd__dfxtp_1
*I *6236:X O *D sky130_fd_sc_hd__clkbuf_1
*CAP
1 *6439:D 0.00017726
2 *6236:X 4.97313e-05
3 *144:8 0.000226991
4 *6439:D *5906:A0 0.000119786
5 *6439:D *5906:A1 0.000165213
6 *6439:D *6578:A 0
7 *6439:D *724:24 5.50106e-05
8 *144:8 *724:107 4.334e-05
9 *144:8 *734:8 8.62876e-05
*RES
1 *6236:X *144:8 39.2014 
2 *144:8 *6439:D 43.2045 
*END

*D_NET *145 0.000925603
*CONN
*I *6440:D I *D sky130_fd_sc_hd__dfxtp_1
*I *6238:X O *D sky130_fd_sc_hd__clkbuf_1
*CAP
1 *6440:D 3.78872e-05
2 *6238:X 0.000186127
3 *145:8 0.000224014
4 *6440:D *735:92 5.16606e-05
5 *145:8 *430:10 4.334e-05
6 *145:8 *481:56 0.000382574
7 *145:8 *735:92 0
*RES
1 *6238:X *145:8 43.075 
2 *145:8 *6440:D 38.9943 
*END

*D_NET *146 0.00123071
*CONN
*I *6441:D I *D sky130_fd_sc_hd__dfxtp_1
*I *6240:X O *D sky130_fd_sc_hd__clkbuf_1
*CAP
1 *6441:D 0.000288906
2 *6240:X 7.58908e-05
3 *146:8 0.000364797
4 *6441:D *411:20 1.52322e-05
5 *6441:D *578:10 3.71369e-05
6 *6441:D *746:109 0.000249519
7 *6441:D *746:117 0.000143599
8 *146:8 *428:65 0
9 *146:8 *578:10 5.56306e-05
*RES
1 *6240:X *146:8 39.5536 
2 *146:8 *6441:D 43.9087 
*END

*D_NET *147 0.00111786
*CONN
*I *6442:D I *D sky130_fd_sc_hd__dfxtp_1
*I *6242:X O *D sky130_fd_sc_hd__clkbuf_1
*CAP
1 *6442:D 0.000297691
2 *6242:X 3.66812e-05
3 *147:8 0.000334372
4 *6442:D *6442:CLK 0.000272078
5 *147:8 *579:10 8.85189e-05
6 *147:8 *650:8 8.85189e-05
*RES
1 *6242:X *147:8 39.2014 
2 *147:8 *6442:D 43.5566 
*END

*D_NET *148 0.00145232
*CONN
*I *6443:D I *D sky130_fd_sc_hd__dfxtp_1
*I *6244:X O *D sky130_fd_sc_hd__clkbuf_1
*CAP
1 *6443:D 6.15895e-05
2 *6244:X 0.000289077
3 *148:10 0.000350667
4 *6443:D *488:78 0.000173381
5 *6443:D *588:10 4.93341e-05
6 *148:10 *5966:S1 6.68587e-05
7 *148:10 *6541:A 6.02277e-06
8 *148:10 *221:10 0.000163884
9 *148:10 *391:59 0.000139352
10 *148:10 *588:10 1.34354e-05
11 *148:10 *596:27 0.000138718
*RES
1 *6244:X *148:10 44.2971 
2 *148:10 *6443:D 39.9471 
*END

*D_NET *149 0.000707084
*CONN
*I *6444:D I *D sky130_fd_sc_hd__dfxtp_1
*I *6246:X O *D sky130_fd_sc_hd__clkbuf_1
*CAP
1 *6444:D 1.03734e-05
2 *6246:X 0.000141692
3 *149:10 0.000152065
4 *6444:D *225:164 4.9054e-06
5 *6444:D *428:32 1.24376e-05
6 *149:10 *411:92 5.25848e-05
7 *149:10 *434:10 0.000168744
8 *149:10 *768:42 0.000164282
*RES
1 *6246:X *149:10 41.3557 
2 *149:10 *6444:D 38.1916 
*END

*D_NET *150 0.0006703
*CONN
*I *6445:D I *D sky130_fd_sc_hd__dfxtp_1
*I *6248:X O *D sky130_fd_sc_hd__clkbuf_1
*CAP
1 *6445:D 0
2 *6248:X 0.000167012
3 *150:8 0.000167012
4 *150:8 *6248:A 3.6485e-05
5 *150:8 *6445:CLK 0.000129006
6 *150:8 *582:12 0.000170785
*RES
1 *6248:X *150:8 27.293 
2 *150:8 *6445:D 23 
*END

*D_NET *151 0.00101656
*CONN
*I *6446:D I *D sky130_fd_sc_hd__dfxtp_1
*I *6250:X O *D sky130_fd_sc_hd__clkbuf_1
*CAP
1 *6446:D 9.26771e-06
2 *6250:X 0.000350505
3 *151:10 0.000359773
4 *6446:D *5993:A0 4.9054e-06
5 *6446:D *488:24 1.64354e-05
6 *151:10 *6250:A 7.05498e-05
7 *151:10 *226:93 3.2439e-05
8 *151:10 *428:75 0.000172687
*RES
1 *6250:X *151:10 43.7379 
2 *151:10 *6446:D 38.1916 
*END

*D_NET *152 0.00093083
*CONN
*I *6467:D I *D sky130_fd_sc_hd__dfrtp_4
*I *6251:Y O *D sky130_fd_sc_hd__xnor2_1
*CAP
1 *6467:D 0
2 *6251:Y 0.00028131
3 *152:10 0.00028131
4 *152:10 *5934:A 5.70419e-05
5 *152:10 *237:12 2.28331e-05
6 *152:10 *391:30 0.000170899
7 *152:10 *712:39 1.14452e-05
8 *152:10 *712:49 0.000105991
*RES
1 *6251:Y *152:10 44.2971 
2 *152:10 *6467:D 38 
*END

*D_NET *153 0.000677531
*CONN
*I *6468:D I *D sky130_fd_sc_hd__dfrtp_1
*I *6256:X O *D sky130_fd_sc_hd__clkbuf_1
*CAP
1 *6468:D 1.68115e-05
2 *6256:X 0.000209574
3 *153:10 0.000226386
4 *6468:D *226:14 5.67058e-05
5 *6468:D *680:18 1.39431e-05
6 *153:10 *230:263 5.41288e-05
7 *153:10 *711:123 6.07611e-06
8 *153:10 *712:49 9.39056e-05
9 *153:10 *713:25 0
*RES
1 *6256:X *153:10 41.7079 
2 *153:10 *6468:D 38.6214 
*END

*D_NET *154 0.000341745
*CONN
*I *6469:D I *D sky130_fd_sc_hd__dfrtp_2
*I *6257:Y O *D sky130_fd_sc_hd__xnor2_1
*CAP
1 *6469:D 0.000115676
2 *6257:Y 0.000115676
3 *6469:D *6469:RESET_B 0.000110392
*RES
1 *6257:Y *6469:D 48.6929 
*END

*D_NET *155 0.00117226
*CONN
*I *6470:D I *D sky130_fd_sc_hd__dfrtp_1
*I *6259:Y O *D sky130_fd_sc_hd__xnor2_1
*CAP
1 *6470:D 0.000504341
2 *6259:Y 8.17907e-05
3 *155:8 0.000586132
4 *6470:D *230:301 0
5 *155:8 *441:8 0
6 *155:8 *713:8 0
*RES
1 *6259:Y *155:8 39.2014 
2 *155:8 *6470:D 47.0936 
*END

*D_NET *156 0.000577145
*CONN
*I *6471:D I *D sky130_fd_sc_hd__dfrtp_1
*I *6262:X O *D sky130_fd_sc_hd__clkbuf_1
*CAP
1 *6471:D 0
2 *6262:X 0.000172216
3 *156:10 0.000172216
4 *156:10 *6471:RESET_B 4.58924e-05
5 *156:10 *712:14 4.48671e-05
6 *156:10 *814:16 0.000141954
*RES
1 *6262:X *156:10 41.48 
2 *156:10 *6471:D 38 
*END

*D_NET *157 0.000534402
*CONN
*I *6472:D I *D sky130_fd_sc_hd__dfrtp_1
*I *6266:X O *D sky130_fd_sc_hd__clkbuf_1
*CAP
1 *6472:D 0
2 *6266:X 0.000267201
3 *157:10 0.000267201
4 *157:10 *709:90 0
*RES
1 *6266:X *157:10 41.9564 
2 *157:10 *6472:D 38 
*END

*D_NET *158 0.000494448
*CONN
*I *6473:D I *D sky130_fd_sc_hd__dfrtp_1
*I *6270:X O *D sky130_fd_sc_hd__clkbuf_1
*CAP
1 *6473:D 8.08822e-05
2 *6270:X 0.000115231
3 *158:8 0.000196113
4 *6473:D *711:109 0.000102222
5 *158:8 *702:22 0
*RES
1 *6270:X *158:8 39.9057 
2 *158:8 *6473:D 40.0507 
*END

*D_NET *159 0.000544042
*CONN
*I *6474:D I *D sky130_fd_sc_hd__dfrtp_1
*I *6274:X O *D sky130_fd_sc_hd__clkbuf_1
*CAP
1 *6474:D 0
2 *6274:X 0.000253512
3 *159:10 0.000253512
4 *159:10 *711:54 3.70187e-05
*RES
1 *6274:X *159:10 41.6043 
2 *159:10 *6474:D 38 
*END

*D_NET *160 0.00142331
*CONN
*I *6475:D I *D sky130_fd_sc_hd__dfrtp_2
*I *6277:Y O *D sky130_fd_sc_hd__xnor2_1
*CAP
1 *6475:D 0.000502573
2 *6277:Y 8.05071e-05
3 *160:8 0.00058308
4 *6475:D *5991:S 8.46881e-05
5 *6475:D *6475:CLK 1.37232e-05
6 *6475:D *709:25 1.56149e-05
7 *6475:D *709:38 9.05654e-05
8 *6475:D *794:16 5.25626e-05
9 *160:8 *794:16 0
*RES
1 *6277:Y *160:8 39.2014 
2 *160:8 *6475:D 45.3121 
*END

*D_NET *161 0.000764974
*CONN
*I *6476:D I *D sky130_fd_sc_hd__dfrtp_1
*I *6278:X O *D sky130_fd_sc_hd__xor2_1
*CAP
1 *6476:D 0
2 *6278:X 0.000252241
3 *161:10 0.000252241
4 *161:10 *6476:RESET_B 3.83778e-05
5 *161:10 *6478:RESET_B 4.18957e-05
6 *161:10 *182:14 0.000180218
7 *161:10 *460:8 0
*RES
1 *6278:X *161:10 42.6607 
2 *161:10 *6476:D 38 
*END

*D_NET *162 0.000876981
*CONN
*I *6477:D I *D sky130_fd_sc_hd__dfrtp_4
*I *6280:X O *D sky130_fd_sc_hd__clkbuf_1
*CAP
1 *6477:D 0
2 *6280:X 0.000264375
3 *162:10 0.000264375
4 *162:10 *198:16 3.83778e-05
5 *162:10 *710:183 0
6 *162:10 *810:12 3.83778e-05
7 *162:10 *810:55 0.000271476
*RES
1 *6280:X *162:10 42.5571 
2 *162:10 *6477:D 38 
*END

*D_NET *163 0.000711572
*CONN
*I *6478:D I *D sky130_fd_sc_hd__dfrtp_4
*I *6283:X O *D sky130_fd_sc_hd__clkbuf_1
*CAP
1 *6478:D 0
2 *6283:X 0.00025525
3 *163:10 0.00025525
4 *163:10 *6283:A 5.41288e-05
5 *163:10 *6478:RESET_B 0
6 *163:10 *420:85 0.000114083
7 *163:10 *812:36 3.28609e-05
*RES
1 *6283:X *163:10 42.0807 
2 *163:10 *6478:D 38 
*END

*D_NET *164 0.000541675
*CONN
*I *6479:D I *D sky130_fd_sc_hd__dfrtp_4
*I *6286:X O *D sky130_fd_sc_hd__clkbuf_1
*CAP
1 *6479:D 0
2 *6286:X 0.000242226
3 *164:10 0.000242226
4 *164:10 *490:6 5.72217e-05
*RES
1 *6286:X *164:10 41.9564 
2 *164:10 *6479:D 38 
*END

*D_NET *165 0.00109931
*CONN
*I *6480:D I *D sky130_fd_sc_hd__dfxtp_1
*I *6289:X O *D sky130_fd_sc_hd__clkbuf_1
*CAP
1 *6480:D 0.000153657
2 *6289:X 7.0415e-05
3 *165:8 0.000224072
4 *6480:D *6480:CLK 0.000401843
5 *6480:D *724:134 5.50106e-05
6 *165:8 *461:10 4.334e-05
7 *165:8 *724:134 0.000136486
8 *165:8 *786:10 1.44813e-05
*RES
1 *6289:X *165:8 39.9057 
2 *165:8 *6480:D 42.4795 
*END

*D_NET *166 0.00103864
*CONN
*I *6481:D I *D sky130_fd_sc_hd__dfxtp_1
*I *6291:X O *D sky130_fd_sc_hd__clkbuf_1
*CAP
1 *6481:D 0.000259854
2 *6291:X 7.23824e-05
3 *166:8 0.000332237
4 *6481:D *482:59 0.000227945
5 *166:8 *284:16 5.86165e-05
6 *166:8 *649:10 8.76088e-05
*RES
1 *6291:X *166:8 40.2579 
2 *166:8 *6481:D 42.5002 
*END

*D_NET *167 0.000230174
*CONN
*I *6482:D I *D sky130_fd_sc_hd__dfxtp_1
*I *6293:X O *D sky130_fd_sc_hd__clkbuf_1
*CAP
1 *6482:D 1.26271e-05
2 *6293:X 7.51726e-05
3 *167:8 8.77997e-05
4 *6482:D *319:78 1.64354e-05
5 *167:8 *484:118 3.81391e-05
6 *167:8 *746:12 0
*RES
1 *6293:X *167:8 39.5536 
2 *167:8 *6482:D 38.1916 
*END

*D_NET *168 0.00023542
*CONN
*I *6483:D I *D sky130_fd_sc_hd__dfxtp_1
*I *6295:X O *D sky130_fd_sc_hd__clkbuf_1
*CAP
1 *6483:D 1.26271e-05
2 *6295:X 9.68653e-05
3 *168:8 0.000109492
4 *6483:D *486:83 1.64354e-05
5 *168:8 *460:76 0
6 *168:8 *486:72 0
*RES
1 *6295:X *168:8 39.5536 
2 *168:8 *6483:D 38.1916 
*END

*D_NET *169 0.000868254
*CONN
*I *6484:D I *D sky130_fd_sc_hd__dfxtp_1
*I *6297:X O *D sky130_fd_sc_hd__clkbuf_1
*CAP
1 *6484:D 9.51997e-05
2 *6297:X 0.000245363
3 *169:10 0.000340563
4 *169:10 *6484:CLK 0
5 *169:10 *319:59 0.000187129
*RES
1 *6297:X *169:10 42.3086 
2 *169:10 *6484:D 39.6209 
*END

*D_NET *170 0.000412494
*CONN
*I *6485:D I *D sky130_fd_sc_hd__dfxtp_1
*I *6299:X O *D sky130_fd_sc_hd__clkbuf_1
*CAP
1 *6485:D 1.38132e-05
2 *6299:X 0.000189981
3 *170:10 0.000203794
4 *6485:D *6485:CLK 4.9054e-06
5 *170:10 *6485:CLK 0
*RES
1 *6299:X *170:10 40.8793 
2 *170:10 *6485:D 38.1916 
*END

*D_NET *171 0.000808579
*CONN
*I *6486:D I *D sky130_fd_sc_hd__dfxtp_1
*I *6301:X O *D sky130_fd_sc_hd__clkbuf_1
*CAP
1 *6486:D 0.000141151
2 *6301:X 6.90834e-05
3 *171:8 0.000210234
4 *6486:D *485:20 0.000274028
5 *171:8 *298:77 0
6 *171:8 *724:122 0.000114083
*RES
1 *6301:X *171:8 39.5536 
2 *171:8 *6486:D 41.0502 
*END

*D_NET *172 0.000216867
*CONN
*I *6487:D I *D sky130_fd_sc_hd__dfxtp_1
*I *6303:X O *D sky130_fd_sc_hd__clkbuf_1
*CAP
1 *6487:D 1.66233e-05
2 *6303:X 9.18104e-05
3 *172:8 0.000108434
4 *172:8 *468:10 0
5 *172:8 *491:89 0
*RES
1 *6303:X *172:8 39.5536 
2 *172:8 *6487:D 38.1916 
*END

*D_NET *173 0.00111489
*CONN
*I *6488:D I *D sky130_fd_sc_hd__dfxtp_1
*I *6307:X O *D sky130_fd_sc_hd__clkbuf_1
*CAP
1 *6488:D 0
2 *6307:X 0.000215433
3 *173:8 0.000215433
4 *173:8 *6306:A0 0.000187731
5 *173:8 *471:12 0.00018565
6 *173:8 *616:10 0.000310647
*RES
1 *6307:X *173:8 29.8823 
2 *173:8 *6488:D 23 
*END

*D_NET *174 0.000820146
*CONN
*I *6489:D I *D sky130_fd_sc_hd__dfxtp_1
*I *6309:X O *D sky130_fd_sc_hd__clkbuf_1
*CAP
1 *6489:D 0
2 *6309:X 0.000262046
3 *174:14 0.000262046
4 *174:14 *6489:CLK 5.96725e-05
5 *174:14 *505:23 0.000139357
6 *174:14 *617:12 9.70243e-05
*RES
1 *6309:X *174:14 28.308 
2 *174:14 *6489:D 23 
*END

*D_NET *175 0.000392029
*CONN
*I *6490:D I *D sky130_fd_sc_hd__dfxtp_1
*I *6311:X O *D sky130_fd_sc_hd__clkbuf_1
*CAP
1 *6490:D 1.06403e-05
2 *6311:X 8.83583e-05
3 *175:8 9.89986e-05
4 *6490:D *470:126 8.15899e-06
5 *6490:D *757:50 4.9054e-06
6 *175:8 *6490:CLK 1.44546e-05
7 *175:8 *232:118 0.000166513
8 *175:8 *757:50 0
*RES
1 *6311:X *175:8 40.2579 
2 *175:8 *6490:D 38.1916 
*END

*D_NET *176 0.000756822
*CONN
*I *6491:D I *D sky130_fd_sc_hd__dfxtp_1
*I *6313:X O *D sky130_fd_sc_hd__clkbuf_1
*CAP
1 *6491:D 0.000100652
2 *6313:X 0.000134657
3 *176:8 0.000235309
4 *6491:D *486:131 9.67842e-05
5 *6491:D *757:213 0.000170773
6 *176:8 *5962:A1 2.76611e-06
7 *176:8 *6531:A 0
8 *176:8 *486:106 0
9 *176:8 *486:141 1.58805e-05
*RES
1 *6313:X *176:8 40.2579 
2 *176:8 *6491:D 40.4236 
*END

*D_NET *177 0.00104902
*CONN
*I *6492:D I *D sky130_fd_sc_hd__dfxtp_1
*I *6315:X O *D sky130_fd_sc_hd__clkbuf_1
*CAP
1 *6492:D 5.39567e-05
2 *6315:X 0.000209768
3 *177:8 0.000263725
4 *6492:D *484:56 1.21842e-05
5 *6492:D *508:12 0
6 *6492:D *620:14 5.50049e-05
7 *177:8 *475:10 4.334e-05
8 *177:8 *484:56 0
9 *177:8 *508:12 0.000216721
10 *177:8 *777:8 0.000194318
*RES
1 *6315:X *177:8 43.4271 
2 *177:8 *6492:D 39.3102 
*END

*D_NET *178 0.000262372
*CONN
*I *6493:D I *D sky130_fd_sc_hd__dfxtp_1
*I *6317:X O *D sky130_fd_sc_hd__clkbuf_1
*CAP
1 *6493:D 9.69592e-06
2 *6317:X 6.82897e-05
3 *178:8 7.79857e-05
4 *6493:D *232:305 3.24476e-06
5 *6493:D *621:16 1.64354e-05
6 *178:8 *6493:CLK 3.46181e-05
7 *178:8 *232:289 5.21024e-05
*RES
1 *6317:X *178:8 39.5536 
2 *178:8 *6493:D 38.1916 
*END

*D_NET *179 0.000923376
*CONN
*I *6494:D I *D sky130_fd_sc_hd__dfxtp_1
*I *6319:X O *D sky130_fd_sc_hd__clkbuf_1
*CAP
1 *6494:D 0.000146849
2 *6319:X 5.91304e-05
3 *179:8 0.000205979
4 *6494:D *5989:A1 2.4754e-05
5 *6494:D *482:93 0.000275729
6 *179:8 *285:10 8.62876e-05
7 *179:8 *482:93 0.000110922
8 *179:8 *614:35 1.37246e-05
*RES
1 *6319:X *179:8 39.5536 
2 *179:8 *6494:D 42.0238 
*END

*D_NET *180 0.000940571
*CONN
*I *6495:D I *D sky130_fd_sc_hd__dfxtp_1
*I *6321:X O *D sky130_fd_sc_hd__clkbuf_1
*CAP
1 *6495:D 8.77079e-06
2 *6321:X 0.000338965
3 *180:10 0.000347736
4 *6495:D *6320:A1 1.74843e-05
5 *180:10 *5997:A3 0
6 *180:10 *401:62 1.76557e-05
7 *180:10 *489:66 0
8 *180:10 *631:6 5.50106e-05
9 *180:10 *658:26 3.35885e-05
10 *114:12 *180:10 0.00012136
*RES
1 *6321:X *180:10 44.1729 
2 *180:10 *6495:D 38.1916 
*END

*D_NET *181 0.00160059
*CONN
*I *5875:A0 I *D sky130_fd_sc_hd__mux2_1
*I *5871:A I *D sky130_fd_sc_hd__xnor2_1
*I *5868:Y O *D sky130_fd_sc_hd__inv_2
*CAP
1 *5875:A0 0
2 *5871:A 0
3 *5868:Y 0.000163128
4 *181:25 0.000291235
5 *181:12 0.000215021
6 *181:6 0.000669384
7 *181:12 *5871:B 3.92407e-05
8 *181:12 *6229:S 7.66188e-05
9 *181:12 *188:8 7.03869e-05
10 *181:12 *420:51 7.55729e-05
11 *181:12 *708:8 0
12 *181:25 *188:8 0
13 *181:25 *808:10 0
*RES
1 *5868:Y *181:6 25.5271 
2 *181:6 *181:12 35.7793 
3 *181:12 *5871:A 23 
4 *181:6 *181:25 34.9093 
5 *181:25 *5875:A0 23 
*END

*D_NET *182 0.0132852
*CONN
*I *6039:A I *D sky130_fd_sc_hd__and4_1
*I *6057:A_N I *D sky130_fd_sc_hd__and4b_1
*I *6075:D I *D sky130_fd_sc_hd__and4b_1
*I *5872:A I *D sky130_fd_sc_hd__and3_1
*I *6002:A_N I *D sky130_fd_sc_hd__and4b_1
*I *5870:A I *D sky130_fd_sc_hd__and4_1
*I *5878:A1 I *D sky130_fd_sc_hd__a21oi_2
*I *6185:C I *D sky130_fd_sc_hd__and4b_1
*I *6113:A I *D sky130_fd_sc_hd__or2_1
*I *5901:A I *D sky130_fd_sc_hd__nand2_1
*I *6093:A I *D sky130_fd_sc_hd__or2_1
*I *6278:A I *D sky130_fd_sc_hd__xor2_1
*I *5879:A I *D sky130_fd_sc_hd__xor2_1
*I *5869:X O *D sky130_fd_sc_hd__clkbuf_4
*CAP
1 *6039:A 3.6231e-05
2 *6057:A_N 0
3 *6075:D 3.00239e-05
4 *5872:A 2.14194e-05
5 *6002:A_N 0
6 *5870:A 0
7 *5878:A1 9.95182e-05
8 *6185:C 7.79591e-05
9 *6113:A 0
10 *5901:A 0
11 *6093:A 0
12 *6278:A 0
13 *5879:A 0
14 *5869:X 8.89102e-05
15 *182:142 5.50309e-05
16 *182:114 0.000171963
17 *182:104 0.000164602
18 *182:102 0.000320886
19 *182:91 0.000394525
20 *182:75 0.000225189
21 *182:56 0.00041977
22 *182:46 0.000266682
23 *182:44 0.000397979
24 *182:42 0.000320871
25 *182:40 0.000275588
26 *182:26 0.000343865
27 *182:14 0.00094016
28 *182:12 0.000874272
29 *182:8 0.000206773
30 *5872:A *6185:D 0
31 *5872:A *810:119 5.90675e-06
32 *5878:A1 *5870:B 0.000139077
33 *5878:A1 *5878:B1 5.50106e-05
34 *5878:A1 *186:41 5.50049e-05
35 *5878:A1 *456:12 5.46873e-05
36 *6039:A *6039:D 5.3304e-05
37 *6075:D *6057:D 7.1349e-05
38 *6075:D *811:16 1.41765e-06
39 *6075:D *812:107 0.000116507
40 *6185:C *6185:D 6.68243e-05
41 *182:8 *298:18 0
42 *182:8 *319:12 7.03869e-05
43 *182:14 *710:183 0.000148678
44 *182:26 *211:10 0.00039759
45 *182:26 *420:85 8.88385e-05
46 *182:26 *420:87 9.84851e-05
47 *182:26 *491:20 0.000185434
48 *182:26 *710:183 7.88926e-05
49 *182:26 *810:75 0
50 *182:40 *211:23 0.000237525
51 *182:40 *211:25 1.01436e-05
52 *182:40 *298:18 0.000394824
53 *182:40 *319:12 0
54 *182:42 *211:25 0.000275482
55 *182:42 *298:18 0.000265339
56 *182:44 *211:25 5.01986e-05
57 *182:44 *211:31 0.000425521
58 *182:44 *297:10 4.06408e-05
59 *182:44 *298:18 0.000188926
60 *182:44 *401:12 2.68751e-05
61 *182:44 *401:73 0.000117235
62 *182:44 *810:81 0
63 *182:46 *190:192 0
64 *182:46 *211:31 8.62783e-05
65 *182:46 *401:12 0.000124102
66 *182:56 *6020:A 0.000271799
67 *182:56 *6132:A 0
68 *182:56 *6132:B 0
69 *182:56 *190:192 0
70 *182:56 *211:31 6.29539e-05
71 *182:56 *211:50 4.6595e-05
72 *182:56 *307:6 0.000140259
73 *182:56 *360:25 0.000193292
74 *182:56 *401:12 6.38845e-05
75 *182:75 *6021:A 3.62905e-05
76 *182:75 *6132:A 1.01436e-05
77 *182:75 *6186:C1 0
78 *182:75 *203:184 0.000194318
79 *182:75 *203:197 1.14452e-05
80 *182:75 *211:50 0.000133941
81 *182:75 *212:14 2.45961e-05
82 *182:75 *215:174 0.000217372
83 *182:75 *215:176 1.32314e-05
84 *182:75 *307:6 4.2573e-05
85 *182:75 *307:32 0
86 *182:91 *400:18 2.19998e-05
87 *182:102 *5872:C 0.000121616
88 *182:102 *6185:B 5.50049e-05
89 *182:102 *6185:D 0.000218191
90 *182:102 *297:10 0.000113148
91 *182:102 *400:18 1.40996e-06
92 *182:102 *811:76 0.000264553
93 *182:104 *5870:C 0.000172996
94 *182:104 *810:119 2.32101e-05
95 *182:104 *811:76 0.000115809
96 *182:104 *811:78 0.000238313
97 *182:104 *812:68 5.50049e-05
98 *182:114 *5870:B 4.92506e-05
99 *182:114 *5870:C 0.000147988
100 *182:114 *5878:B1 0.000185905
101 *182:114 *811:78 0.000127821
102 *182:142 *6057:D 2.64616e-05
103 *182:142 *812:107 4.08664e-05
104 *161:10 *182:14 0.000180218
*RES
1 *5869:X *182:8 39.9057 
2 *182:8 *182:12 17.0507 
3 *182:12 *182:14 11.5793 
4 *182:14 *182:26 39.4664 
5 *182:26 *5879:A 23 
6 *182:14 *6278:A 23 
7 *182:12 *182:40 20.4271 
8 *182:40 *182:42 3.66643 
9 *182:42 *182:44 6.48357 
10 *182:44 *182:46 1.90571 
11 *182:46 *182:56 21.7529 
12 *182:56 *6093:A 23 
13 *182:56 *182:75 36.7529 
14 *182:75 *5901:A 23 
15 *182:46 *6113:A 38 
16 *182:44 *182:91 16.4448 
17 *182:91 *6185:C 24.2273 
18 *182:91 *182:102 6.84089 
19 *182:102 *182:104 3.95643 
20 *182:104 *182:114 4.08071 
21 *182:114 *5878:A1 25.5271 
22 *182:114 *5870:A 23 
23 *182:104 *6002:A_N 23 
24 *182:102 *5872:A 23.4971 
25 *182:42 *182:142 15.6214 
26 *182:142 *6075:D 24.4448 
27 *182:142 *6057:A_N 23 
28 *182:40 *6039:A 38.6214 
*END

*D_NET *183 0.00557352
*CONN
*I *5871:B I *D sky130_fd_sc_hd__xnor2_1
*I *6287:C1 I *D sky130_fd_sc_hd__o211a_4
*I *5870:X O *D sky130_fd_sc_hd__and4_1
*CAP
1 *5871:B 0.00012456
2 *6287:C1 0
3 *5870:X 0.000226714
4 *183:33 0.00142738
5 *183:18 0.000574596
6 *183:8 0.00210413
7 *5871:B *420:51 0
8 *183:8 *199:10 0
9 *183:8 *200:8 0
10 *183:8 *420:27 0.000410369
11 *183:8 *479:61 0
12 *183:18 *6168:A1 1.68586e-05
13 *183:18 *6168:A2 9.72057e-06
14 *183:18 *6287:A1 0
15 *183:18 *200:8 0
16 *183:18 *215:72 0
17 *183:18 *279:24 0.000300074
18 *183:18 *420:27 0.000194318
19 *183:33 *5887:B 6.68822e-05
20 *183:33 *194:38 3.79854e-05
21 *183:33 *805:18 4.06849e-05
22 *181:12 *5871:B 3.92407e-05
*RES
1 *5870:X *183:8 43.4271 
2 *183:8 *183:18 27.2007 
3 *183:18 *6287:C1 23 
4 *183:8 *183:33 47.9386 
5 *183:33 *5871:B 40.2579 
*END

*D_NET *184 0.00117463
*CONN
*I *6668:A I *D sky130_fd_sc_hd__buf_1
*I *6231:A1 I *D sky130_fd_sc_hd__mux2_1
*I *5871:Y O *D sky130_fd_sc_hd__xnor2_1
*CAP
1 *6668:A 8.69011e-05
2 *6231:A1 0
3 *5871:Y 0
4 *184:12 0.000368879
5 *184:4 0.00045578
6 *6668:A *279:24 0.00010018
7 *184:12 *6229:S 6.07611e-06
8 *184:12 *279:24 9.25256e-05
9 *184:12 *420:51 6.42902e-05
10 *184:12 *710:16 0
*RES
1 *5871:Y *184:4 23 
2 *184:4 *184:12 35.8621 
3 *184:12 *6231:A1 23 
4 *184:4 *6668:A 25.2993 
*END

*D_NET *185 0.00218766
*CONN
*I *5873:A I *D sky130_fd_sc_hd__clkbuf_2
*I *5872:X O *D sky130_fd_sc_hd__and3_1
*CAP
1 *5873:A 0.000699822
2 *5872:X 0.000137684
3 *185:8 0.000837506
4 *5873:A *186:10 1.05235e-05
5 *185:8 *460:8 0.000320642
6 *185:8 *811:20 0.000115279
7 *185:8 *811:26 2.91902e-05
8 *185:8 *811:32 3.70094e-05
*RES
1 *5872:X *185:8 42.3707 
2 *185:8 *5873:A 48.6264 
*END

*D_NET *186 0.00386123
*CONN
*I *6281:A I *D sky130_fd_sc_hd__nor2_1
*I *5874:B I *D sky130_fd_sc_hd__xnor2_1
*I *5880:A1 I *D sky130_fd_sc_hd__o21ai_1
*I *5881:A I *D sky130_fd_sc_hd__or3_1
*I *6168:D1 I *D sky130_fd_sc_hd__o2111a_4
*I *5873:X O *D sky130_fd_sc_hd__clkbuf_2
*CAP
1 *6281:A 1.89322e-05
2 *5874:B 0.000227616
3 *5880:A1 3.5518e-05
4 *5881:A 1.80505e-05
5 *6168:D1 0.000200656
6 *5873:X 0.000186854
7 *186:41 0.000297267
8 *186:23 5.35685e-05
9 *186:12 0.000342286
10 *186:10 0.000379203
11 *5874:B *6281:B 3.3577e-05
12 *5874:B *6667:A 0.000143655
13 *5874:B *187:16 3.17634e-05
14 *5874:B *456:12 9.67842e-05
15 *5874:B *707:8 0.000187129
16 *5880:A1 *5880:A2 4.34973e-05
17 *5880:A1 *5881:C 9.5877e-05
18 *5881:A *5880:A2 2.93747e-05
19 *5881:A *5881:C 5.50049e-05
20 *6168:D1 *194:38 0.000116413
21 *6168:D1 *195:8 8.62876e-05
22 *6168:D1 *196:8 0
23 *6168:D1 *479:61 0.00042871
24 *6281:A *5870:B 1.14154e-05
25 *6281:A *6281:B 5.90675e-06
26 *186:10 *479:61 0.000133316
27 *186:10 *810:18 3.60842e-05
28 *186:12 *191:19 2.01531e-05
29 *186:12 *193:18 0
30 *186:12 *194:38 2.24973e-05
31 *186:12 *479:61 0.000207219
32 *186:12 *810:18 1.19692e-05
33 *186:41 *5870:B 4.95081e-05
34 *186:41 *6281:B 8.48502e-06
35 *186:41 *456:12 0.000181125
36 *5873:A *186:10 1.05235e-05
37 *5878:A1 *186:41 5.50049e-05
*RES
1 *5873:X *186:10 41.0036 
2 *186:10 *186:12 2.96214 
3 *186:12 *6168:D1 43.7793 
4 *186:12 *186:23 15 
5 *186:23 *5881:A 23.6214 
6 *186:23 *5880:A1 24.0979 
7 *186:10 *186:41 17.0507 
8 *186:41 *5874:B 28.8621 
9 *186:41 *6281:A 23.4971 
*END

*D_NET *187 0.00214499
*CONN
*I *6667:A I *D sky130_fd_sc_hd__clkbuf_1
*I *5875:S I *D sky130_fd_sc_hd__mux2_1
*I *5874:Y O *D sky130_fd_sc_hd__xnor2_1
*CAP
1 *6667:A 8.93099e-05
2 *5875:S 0
3 *5874:Y 0
4 *187:16 0.000725217
5 *187:4 0.000814527
6 *6667:A *6281:B 0
7 *187:16 *5875:A1 5.90675e-06
8 *187:16 *5884:B 5.87834e-05
9 *187:16 *708:8 0
10 *187:16 *712:33 0.000238812
11 *187:16 *808:10 3.70187e-05
12 *5874:B *6667:A 0.000143655
13 *5874:B *187:16 3.17634e-05
*RES
1 *5874:Y *187:4 23 
2 *187:4 *187:16 44.5829 
3 *187:16 *5875:S 23 
4 *187:4 *6667:A 25.4236 
*END

*D_NET *188 0.00168148
*CONN
*I *5876:B I *D sky130_fd_sc_hd__xnor2_2
*I *6229:A1 I *D sky130_fd_sc_hd__mux2_1
*I *5875:X O *D sky130_fd_sc_hd__mux2_1
*CAP
1 *5876:B 0.000108779
2 *6229:A1 0.000354484
3 *5875:X 0.000233242
4 *188:8 0.000696505
5 *5876:B *808:10 0.000143655
6 *6229:A1 *5876:A 0
7 *6229:A1 *6229:A0 7.44257e-05
8 *6229:A1 *6229:S 0
9 *188:8 *6229:S 0
10 *181:12 *188:8 7.03869e-05
11 *181:25 *188:8 0
*RES
1 *5875:X *188:8 42.7229 
2 *188:8 *6229:A1 43.2614 
3 *188:8 *5876:B 40.5271 
*END

*D_NET *189 0.00249884
*CONN
*I *6168:A1 I *D sky130_fd_sc_hd__o2111a_4
*I *5877:A I *D sky130_fd_sc_hd__buf_8
*I *5876:Y O *D sky130_fd_sc_hd__xnor2_2
*CAP
1 *6168:A1 0.000228755
2 *5877:A 6.30365e-05
3 *5876:Y 0.000594652
4 *189:10 0.000886443
5 *5877:A *200:29 3.3577e-05
6 *6168:A1 *6168:A2 5.74427e-06
7 *6168:A1 *215:72 0.000202816
8 *6168:A1 *279:24 3.79173e-05
9 *6168:A1 *420:27 0.000136007
10 *189:10 *190:233 9.28842e-05
11 *189:10 *215:72 0.000192395
12 *189:10 *420:27 7.75329e-06
13 *189:10 *479:61 0
14 *183:18 *6168:A1 1.68586e-05
*RES
1 *5876:Y *189:10 49.6829 
2 *189:10 *5877:A 39.0979 
3 *189:10 *6168:A1 44.7529 
*END

*D_NET *190 0.0182507
*CONN
*I *6227:A1 I *D sky130_fd_sc_hd__o211a_1
*I *6040:A1 I *D sky130_fd_sc_hd__o211a_4
*I *6003:A1 I *D sky130_fd_sc_hd__o211a_4
*I *6186:A1 I *D sky130_fd_sc_hd__o211a_4
*I *6287:A1 I *D sky130_fd_sc_hd__o211a_4
*I *5905:A1 I *D sky130_fd_sc_hd__o211a_4
*I *6058:A1 I *D sky130_fd_sc_hd__o211a_4
*I *6076:A1 I *D sky130_fd_sc_hd__o211a_4
*I *6022:A1 I *D sky130_fd_sc_hd__o211a_4
*I *6115:A1 I *D sky130_fd_sc_hd__o211a_4
*I *6133:A1 I *D sky130_fd_sc_hd__o211a_4
*I *6096:A1 I *D sky130_fd_sc_hd__o211a_4
*I *6151:A1 I *D sky130_fd_sc_hd__o211a_4
*I *6305:A1 I *D sky130_fd_sc_hd__o211a_4
*I *6234:A1 I *D sky130_fd_sc_hd__o211a_4
*I *6204:A1 I *D sky130_fd_sc_hd__o211a_4
*I *6221:A1 I *D sky130_fd_sc_hd__o21a_4
*I *5891:A I *D sky130_fd_sc_hd__nor2_1
*I *5877:X O *D sky130_fd_sc_hd__buf_8
*CAP
1 *6227:A1 0
2 *6040:A1 0.000132737
3 *6003:A1 5.43531e-05
4 *6186:A1 4.1233e-05
5 *6287:A1 0.000225704
6 *5905:A1 0.000134717
7 *6058:A1 0.000218276
8 *6076:A1 8.00115e-05
9 *6022:A1 0.000130028
10 *6115:A1 4.24211e-05
11 *6133:A1 0
12 *6096:A1 7.91422e-05
13 *6151:A1 0
14 *6305:A1 0
15 *6234:A1 0
16 *6204:A1 1.75705e-05
17 *6221:A1 2.26148e-05
18 *5891:A 0
19 *5877:X 0
20 *190:233 0.000164444
21 *190:207 0.000351459
22 *190:192 0.000732918
23 *190:179 0.000891846
24 *190:166 0.000363531
25 *190:144 0.000460178
26 *190:131 0.000392021
27 *190:120 0.000362635
28 *190:109 0.000463582
29 *190:94 0.000393471
30 *190:82 0.000148515
31 *190:76 0.00030394
32 *190:70 0.000449239
33 *190:59 0.00049168
34 *190:42 0.000499697
35 *190:34 0.000553091
36 *190:21 0.000562074
37 *190:14 0.000128001
38 *190:8 0.000653558
39 *190:4 0.000400241
40 *5905:A1 *6095:B 2.93747e-05
41 *5905:A1 *6151:B1 0
42 *5905:A1 *212:22 5.61697e-05
43 *5905:A1 *216:116 0.000112087
44 *6003:A1 *6003:A2 0.000128391
45 *6003:A1 *338:14 0.000119313
46 *6022:A1 *309:10 0.000155279
47 *6040:A1 *6003:A2 4.5707e-05
48 *6040:A1 *6040:A2 7.86249e-05
49 *6040:A1 *215:206 5.50049e-05
50 *6040:A1 *338:14 0.000401899
51 *6058:A1 *6058:A2 0.000238907
52 *6058:A1 *6058:C1 0
53 *6058:A1 *203:144 2.46345e-05
54 *6058:A1 *492:68 0
55 *6076:A1 *6076:A2 9.84794e-05
56 *6076:A1 *339:31 1.21972e-05
57 *6096:A1 *6096:A2 5.50106e-05
58 *6096:A1 *215:133 2.18409e-05
59 *6096:A1 *469:8 5.3304e-05
60 *6186:A1 *215:176 4.17615e-05
61 *6204:A1 *215:24 1.14154e-05
62 *6221:A1 *215:36 3.41792e-05
63 *6287:A1 *213:29 5.62429e-05
64 *6287:A1 *360:12 8.1796e-05
65 *6287:A1 *427:12 5.50049e-05
66 *190:8 *200:29 0.000135037
67 *190:8 *203:36 6.53382e-05
68 *190:8 *420:10 0.000140259
69 *190:14 *215:53 0
70 *190:14 *420:10 3.04021e-05
71 *190:14 *680:10 4.43717e-05
72 *190:21 *6221:B1 9.84794e-05
73 *190:21 *203:36 0.00014099
74 *190:21 *215:36 0.00010066
75 *190:21 *420:10 9.84851e-05
76 *190:34 *6234:C1 2.02872e-05
77 *190:34 *215:36 0.000204232
78 *190:42 *6204:B1 5.50049e-05
79 *190:42 *215:24 0.000136298
80 *190:42 *215:28 0.000114083
81 *190:42 *410:8 0.000114083
82 *190:59 *203:54 0
83 *190:59 *203:75 9.67842e-05
84 *190:59 *203:175 0
85 *190:59 *215:24 7.42621e-05
86 *190:59 *351:12 0.000161121
87 *190:59 *427:12 4.21594e-06
88 *190:59 *428:16 0.000178517
89 *190:70 *6305:B1 0.00026599
90 *190:70 *203:75 0.000364843
91 *190:70 *203:101 0.000191157
92 *190:70 *382:141 1.12487e-05
93 *190:70 *428:16 0.000336468
94 *190:70 *470:10 2.18409e-05
95 *190:76 *6151:B1 5.3304e-05
96 *190:76 *203:94 9.48207e-06
97 *190:76 *216:116 0.000351513
98 *190:76 *382:14 6.84057e-05
99 *190:82 *203:94 6.4393e-05
100 *190:82 *309:14 0
101 *190:82 *492:76 2.61595e-05
102 *190:94 *6305:B1 0.000136486
103 *190:94 *203:101 0.000154147
104 *190:94 *215:133 1.12487e-05
105 *190:109 *6133:A2 9.84851e-05
106 *190:109 *203:101 2.55642e-05
107 *190:109 *203:112 0.000185755
108 *190:109 *203:129 3.70187e-05
109 *190:109 *215:133 1.58805e-05
110 *190:109 *372:10 4.95081e-05
111 *190:109 *492:76 0
112 *190:120 *203:129 0
113 *190:120 *215:155 0
114 *190:120 *372:10 1.56665e-05
115 *190:120 *492:68 0
116 *190:120 *492:76 5.50106e-05
117 *190:131 *203:133 0.00014411
118 *190:131 *215:155 0
119 *190:131 *492:68 0
120 *190:144 *203:133 5.01986e-05
121 *190:144 *203:144 0.000219882
122 *190:144 *492:68 0
123 *190:166 *5905:C1 0.000194318
124 *190:166 *215:28 5.24393e-05
125 *190:166 *410:8 0.000246757
126 *190:179 *203:184 7.75329e-06
127 *190:179 *216:116 0
128 *190:179 *401:12 0
129 *190:179 *410:8 0.000165593
130 *190:192 *203:184 0.000177034
131 *190:192 *211:31 0
132 *190:192 *279:16 4.08641e-05
133 *190:192 *360:12 0
134 *190:192 *401:12 0
135 *190:207 *6003:A2 0
136 *190:207 *6040:A2 4.00259e-06
137 *190:207 *203:184 2.76611e-06
138 *190:207 *203:197 4.63333e-05
139 *190:207 *211:31 0
140 *190:207 *215:193 0.000108681
141 *190:207 *215:206 0
142 *190:207 *318:10 6.07611e-06
143 *190:207 *319:12 1.14452e-05
144 *190:233 *203:14 3.83059e-05
145 *190:233 *215:72 2.93845e-05
146 *190:233 *420:27 0.000137788
147 *190:233 *479:61 0
148 *182:46 *190:192 0
149 *182:56 *190:192 0
150 *183:18 *6287:A1 0
151 *189:10 *190:233 9.28842e-05
*RES
1 *5877:X *190:4 23 
2 *190:4 *190:8 4.45357 
3 *190:8 *190:14 32.61 
4 *190:14 *5891:A 23 
5 *190:8 *190:21 6.46804 
6 *190:21 *6221:A1 23.7716 
7 *190:21 *190:34 19.7798 
8 *190:34 *190:42 19.5779 
9 *190:42 *6204:A1 23.4971 
10 *190:42 *190:59 35.8829 
11 *190:59 *6234:A1 23 
12 *190:59 *190:70 22.6229 
13 *190:70 *190:76 19.4536 
14 *190:76 *190:82 32.9621 
15 *190:82 *6305:A1 23 
16 *190:76 *6151:A1 23 
17 *190:70 *190:94 2.25786 
18 *190:94 *6096:A1 39.5743 
19 *190:94 *190:109 20.365 
20 *190:109 *6133:A1 23 
21 *190:109 *190:120 18.7079 
22 *190:120 *6115:A1 38.6214 
23 *190:120 *190:131 2.25786 
24 *190:131 *6022:A1 40.4236 
25 *190:131 *190:144 3.66643 
26 *190:144 *6076:A1 39.5743 
27 *190:144 *6058:A1 42.5364 
28 *190:34 *190:166 3.31429 
29 *190:166 *5905:A1 41.0243 
30 *190:166 *190:179 2.61 
31 *190:179 *6287:A1 42.4536 
32 *190:179 *190:192 8.94857 
33 *190:192 *6186:A1 38.8596 
34 *190:192 *190:207 18.4593 
35 *190:207 *6003:A1 25.5271 
36 *190:207 *6040:A1 28.4271 
37 *190:4 *190:233 33.5836 
38 *190:233 *6227:A1 23 
*END

*D_NET *191 0.00254629
*CONN
*I *5880:A2 I *D sky130_fd_sc_hd__o21ai_1
*I *5881:B I *D sky130_fd_sc_hd__or3_1
*I *5887:B I *D sky130_fd_sc_hd__xnor2_1
*I *6281:B I *D sky130_fd_sc_hd__nor2_1
*I *5878:Y O *D sky130_fd_sc_hd__a21oi_2
*CAP
1 *5880:A2 0.00014633
2 *5881:B 6.75869e-05
3 *5887:B 0.000228643
4 *6281:B 0.000161407
5 *5878:Y 6.0461e-05
6 *191:34 0.000213917
7 *191:19 0.000319836
8 *191:6 0.000313061
9 *5880:A2 *5880:B1 2.55136e-05
10 *5880:A2 *5881:C 3.76081e-05
11 *5880:A2 *199:10 5.50106e-05
12 *5887:B *5882:A1 0.000116314
13 *5887:B *194:38 0.000165918
14 *5887:B *805:18 0
15 *6281:B *5870:B 2.21582e-05
16 *191:6 *5870:B 9.84851e-05
17 *191:19 *5882:A1 8.02348e-05
18 *191:19 *193:18 0.000110913
19 *191:19 *194:38 0.000115022
20 *5874:B *6281:B 3.3577e-05
21 *5880:A1 *5880:A2 4.34973e-05
22 *5881:A *5880:A2 2.93747e-05
23 *6281:A *6281:B 5.90675e-06
24 *6667:A *6281:B 0
25 *183:33 *5887:B 6.68822e-05
26 *186:12 *191:19 2.01531e-05
27 *186:41 *6281:B 8.48502e-06
*RES
1 *5878:Y *191:6 24.0979 
2 *191:6 *6281:B 25.4236 
3 *191:6 *191:19 17.61 
4 *191:19 *5887:B 42.4536 
5 *191:19 *191:34 15 
6 *191:34 *5881:B 24.1186 
7 *191:34 *5880:A2 26.0036 
*END

*D_NET *192 0.00380956
*CONN
*I *6279:A1 I *D sky130_fd_sc_hd__mux2_1
*I *5880:B1 I *D sky130_fd_sc_hd__o21ai_1
*I *5881:C I *D sky130_fd_sc_hd__or3_1
*I *5879:X O *D sky130_fd_sc_hd__xor2_1
*CAP
1 *6279:A1 0.000186353
2 *5880:B1 6.74923e-05
3 *5881:C 0.000120544
4 *5879:X 0
5 *192:12 0.000800447
6 *192:6 0.000798764
7 *5880:B1 *193:10 4.85428e-05
8 *5880:B1 *199:10 4.95081e-05
9 *5881:C *5883:B 2.57604e-05
10 *5881:C *194:6 0.000125213
11 *5881:C *194:10 3.2341e-05
12 *6279:A1 *6222:S 3.53115e-05
13 *6279:A1 *420:87 9.84794e-05
14 *6279:A1 *491:20 0.000215782
15 *6279:A1 *710:183 5.41288e-05
16 *6279:A1 *810:14 0
17 *192:12 *6282:A0 0
18 *192:12 *193:10 0.000215791
19 *192:12 *420:31 0
20 *192:12 *457:8 0.000184644
21 *192:12 *479:61 0.000525007
22 *192:12 *491:10 0
23 *192:12 *491:20 1.14452e-05
24 *192:12 *810:14 0
25 *192:12 *810:18 0
26 *5880:A1 *5881:C 9.5877e-05
27 *5880:A2 *5880:B1 2.55136e-05
28 *5880:A2 *5881:C 3.76081e-05
29 *5881:A *5881:C 5.50049e-05
*RES
1 *5879:X *192:6 38 
2 *192:6 *192:12 29.0236 
3 *192:12 *5881:C 26.335 
4 *192:12 *5880:B1 25.5686 
5 *192:6 *6279:A1 43.0129 
*END

*D_NET *193 0.00341362
*CONN
*I *6224:A I *D sky130_fd_sc_hd__nand2_1
*I *5883:B I *D sky130_fd_sc_hd__nand3b_1
*I *5882:A1 I *D sky130_fd_sc_hd__a21bo_1
*I *5880:Y O *D sky130_fd_sc_hd__o21ai_1
*CAP
1 *6224:A 5.34585e-05
2 *5883:B 0.00011037
3 *5882:A1 9.97572e-05
4 *5880:Y 0.000215292
5 *193:18 0.00036186
6 *193:16 0.000462001
7 *193:10 0.000472102
8 *5882:A1 *194:25 4.6318e-06
9 *5882:A1 *194:38 2.95125e-05
10 *5882:A1 *196:8 7.28526e-05
11 *5882:A1 *198:16 3.21823e-05
12 *5883:B *5883:C 9.75779e-05
13 *5883:B *194:10 5.25017e-05
14 *6224:A *194:25 8.15327e-05
15 *6224:A *810:18 0.000169674
16 *193:10 *5870:D 0
17 *193:10 *420:27 0
18 *193:16 *456:12 0.000303724
19 *193:18 *194:25 0.00011075
20 *193:18 *810:18 8.62783e-05
21 *5880:B1 *193:10 4.85428e-05
22 *5881:C *5883:B 2.57604e-05
23 *5887:B *5882:A1 0.000116314
24 *186:12 *193:18 0
25 *191:19 *5882:A1 8.02348e-05
26 *191:19 *193:18 0.000110913
27 *192:12 *193:10 0.000215791
*RES
1 *5880:Y *193:10 42.06 
2 *193:10 *193:16 33.48 
3 *193:16 *193:18 3.31429 
4 *193:18 *5882:A1 41.3143 
5 *193:18 *5883:B 40.5479 
6 *193:16 *6224:A 40.2579 
*END

*D_NET *194 0.00296859
*CONN
*I *5882:A2 I *D sky130_fd_sc_hd__a21bo_1
*I *6224:B I *D sky130_fd_sc_hd__nand2_1
*I *5883:C I *D sky130_fd_sc_hd__nand3b_1
*I *5881:X O *D sky130_fd_sc_hd__or3_1
*CAP
1 *5882:A2 0
2 *6224:B 0
3 *5883:C 0.000103922
4 *5881:X 0.000112365
5 *194:38 0.000181421
6 *194:25 0.000203426
7 *194:10 0.00048937
8 *194:6 0.000475809
9 *194:25 *198:16 0.000410379
10 *194:38 *196:8 0
11 *5881:C *194:6 0.000125213
12 *5881:C *194:10 3.2341e-05
13 *5882:A1 *194:25 4.6318e-06
14 *5882:A1 *194:38 2.95125e-05
15 *5883:B *5883:C 9.75779e-05
16 *5883:B *194:10 5.25017e-05
17 *5887:B *194:38 0.000165918
18 *6168:D1 *194:38 0.000116413
19 *6224:A *194:25 8.15327e-05
20 *183:33 *194:38 3.79854e-05
21 *186:12 *194:38 2.24973e-05
22 *191:19 *194:38 0.000115022
23 *193:18 *194:25 0.00011075
*RES
1 *5881:X *194:6 24.5743 
2 *194:6 *194:10 2.54786 
3 *194:10 *5883:C 25.0714 
4 *194:10 *194:25 35.4271 
5 *194:25 *6224:B 23 
6 *194:6 *194:38 34.64 
7 *194:38 *5882:A2 23 
*END

*D_NET *195 0.000349187
*CONN
*I *5889:A1 I *D sky130_fd_sc_hd__a2111o_1
*I *5882:X O *D sky130_fd_sc_hd__a21bo_1
*CAP
1 *5889:A1 3.83793e-05
2 *5882:X 6.47174e-05
3 *195:8 0.000103097
4 *5889:A1 *279:24 5.67058e-05
5 *195:8 *196:8 0
6 *6168:D1 *195:8 8.62876e-05
*RES
1 *5882:X *195:8 39.2014 
2 *195:8 *5889:A1 38.6214 
*END

*D_NET *196 0.0012174
*CONN
*I *5889:A2 I *D sky130_fd_sc_hd__a2111o_1
*I *5883:Y O *D sky130_fd_sc_hd__nand3b_1
*CAP
1 *5889:A2 3.65589e-05
2 *5883:Y 0.000166473
3 *196:8 0.000203032
4 *5889:A2 *198:16 5.67058e-05
5 *5889:A2 *202:6 9.90162e-05
6 *5889:A2 *279:24 0.000228909
7 *196:8 *198:16 0.000353849
8 *5882:A1 *196:8 7.28526e-05
9 *6168:D1 *196:8 0
10 *194:38 *196:8 0
11 *195:8 *196:8 0
*RES
1 *5883:Y *196:8 42.7229 
2 *196:8 *5889:A2 40.5271 
*END

*D_NET *197 0.000723152
*CONN
*I *5889:B1 I *D sky130_fd_sc_hd__a2111o_1
*I *5884:Y O *D sky130_fd_sc_hd__xnor2_1
*CAP
1 *5889:B1 0
2 *5884:Y 0.000341144
3 *197:10 0.000341144
4 *197:10 *201:10 4.08641e-05
5 *197:10 *479:61 0
*RES
1 *5884:Y *197:10 42.6814 
2 *197:10 *5889:B1 38 
*END

*D_NET *198 0.00388771
*CONN
*I *5889:C1 I *D sky130_fd_sc_hd__a2111o_1
*I *5885:Y O *D sky130_fd_sc_hd__xnor2_1
*CAP
1 *5889:C1 0
2 *5885:Y 9.63283e-05
3 *198:16 0.00124027
4 *198:8 0.0013366
5 *198:8 *6477:RESET_B 0.000141954
6 *198:16 *5874:A 0
7 *198:16 *202:6 0.00010018
8 *198:16 *279:24 2.4754e-05
9 *198:16 *420:47 0
10 *198:16 *458:10 0
11 *198:16 *712:33 0
12 *198:16 *805:18 5.61311e-05
13 *198:16 *810:14 0
14 *198:16 *810:18 0
15 *198:16 *810:55 0
16 *198:16 *812:10 0
17 *5882:A1 *198:16 3.21823e-05
18 *5889:A2 *198:16 5.67058e-05
19 *162:10 *198:16 3.83778e-05
20 *194:25 *198:16 0.000410379
21 *196:8 *198:16 0.000353849
*RES
1 *5885:Y *198:8 39.5743 
2 *198:8 *198:16 41.0379 
3 *198:16 *5889:C1 23 
*END

*D_NET *199 0.00468224
*CONN
*I *6185:D I *D sky130_fd_sc_hd__and4b_1
*I *6094:A I *D sky130_fd_sc_hd__or2_1
*I *5902:A I *D sky130_fd_sc_hd__nand2_1
*I *5887:A I *D sky130_fd_sc_hd__xnor2_1
*I *6168:C1 I *D sky130_fd_sc_hd__o2111a_4
*I *5886:Y O *D sky130_fd_sc_hd__inv_2
*CAP
1 *6185:D 0.000275998
2 *6094:A 9.31457e-05
3 *5902:A 0
4 *5887:A 0
5 *6168:C1 8.36152e-05
6 *5886:Y 0
7 *199:40 0.000480868
8 *199:28 0.00066372
9 *199:10 0.000955839
10 *199:4 0.000872223
11 *6094:A *6094:B 5.50049e-05
12 *6168:C1 *200:8 6.18339e-05
13 *6168:C1 *479:61 0.000193398
14 *6185:D *6113:B 0
15 *6185:D *460:8 4.24417e-05
16 *6185:D *811:32 8.62876e-05
17 *6185:D *811:38 0
18 *199:10 *6020:A 1.40958e-05
19 *199:10 *200:8 3.4932e-05
20 *199:10 *479:61 0.000157309
21 *199:10 *812:46 0.000141173
22 *199:40 *6094:B 5.54148e-05
23 *199:40 *460:8 2.54046e-05
24 *5872:A *6185:D 0
25 *5880:A2 *199:10 5.50106e-05
26 *5880:B1 *199:10 4.95081e-05
27 *6185:C *6185:D 6.68243e-05
28 *182:102 *6185:D 0.000218191
29 *183:8 *199:10 0
*RES
1 *5886:Y *199:4 23 
2 *199:4 *199:10 28.3607 
3 *199:10 *6168:C1 40.61 
4 *199:10 *5887:A 38 
5 *199:4 *199:28 15 
6 *199:28 *199:40 21.6493 
7 *199:40 *5902:A 23 
8 *199:40 *6094:A 24.5743 
9 *199:28 *6185:D 44.2609 
*END

*D_NET *200 0.00350654
*CONN
*I *6227:B1 I *D sky130_fd_sc_hd__o211a_1
*I *5888:B I *D sky130_fd_sc_hd__xnor2_1
*I *5887:Y O *D sky130_fd_sc_hd__xnor2_1
*CAP
1 *6227:B1 0
2 *5888:B 0.00034448
3 *5887:Y 0.000407842
4 *200:29 0.000388269
5 *200:10 0.000732749
6 *200:8 0.000407842
7 *5888:B *201:10 5.83407e-05
8 *200:8 *202:14 5.56203e-05
9 *200:8 *215:72 0.000519329
10 *200:8 *479:61 0
11 *200:29 *203:14 0.000163343
12 *200:29 *391:8 0.000163343
13 *5877:A *200:29 3.3577e-05
14 *6168:C1 *200:8 6.18339e-05
15 *183:8 *200:8 0
16 *183:18 *200:8 0
17 *190:8 *200:29 0.000135037
18 *199:10 *200:8 3.4932e-05
*RES
1 *5887:Y *200:8 48.3571 
2 *200:8 *200:10 15 
3 *200:10 *5888:B 28.9036 
4 *200:10 *200:29 36.2143 
5 *200:29 *6227:B1 23 
*END

*D_NET *201 0.000799772
*CONN
*I *5889:D1 I *D sky130_fd_sc_hd__a2111o_1
*I *5888:Y O *D sky130_fd_sc_hd__xnor2_1
*CAP
1 *5889:D1 0
2 *5888:Y 0.000350284
3 *201:10 0.000350284
4 *201:10 *479:61 0
5 *201:10 *712:33 0
6 *5888:B *201:10 5.83407e-05
7 *197:10 *201:10 4.08641e-05
*RES
1 *5888:Y *201:10 44.0693 
2 *201:10 *5889:D1 38 
*END

*D_NET *202 0.00159855
*CONN
*I *6168:A2 I *D sky130_fd_sc_hd__o2111a_4
*I *5890:A I *D sky130_fd_sc_hd__buf_8
*I *5889:X O *D sky130_fd_sc_hd__a2111o_1
*CAP
1 *6168:A2 0.000138398
2 *5890:A 0
3 *5889:X 0.000287501
4 *202:14 0.000122191
5 *202:6 0.00054809
6 *6168:A2 *215:72 4.9662e-05
7 *6168:A2 *279:24 2.98767e-05
8 *202:6 *279:24 9.69279e-05
9 *202:14 *479:61 5.56203e-05
10 *5889:A2 *202:6 9.90162e-05
11 *6168:A1 *6168:A2 5.74427e-06
12 *183:18 *6168:A2 9.72057e-06
13 *198:16 *202:6 0.00010018
14 *200:8 *202:14 5.56203e-05
*RES
1 *5889:X *202:6 28.8621 
2 *202:6 *202:14 32.755 
3 *202:14 *5890:A 23 
4 *202:6 *6168:A2 25.5479 
*END

*D_NET *203 0.0188516
*CONN
*I *6221:A2 I *D sky130_fd_sc_hd__o21a_4
*I *6287:A2 I *D sky130_fd_sc_hd__o211a_4
*I *6204:A2 I *D sky130_fd_sc_hd__o211a_4
*I *6040:A2 I *D sky130_fd_sc_hd__o211a_4
*I *6003:A2 I *D sky130_fd_sc_hd__o211a_4
*I *6186:A2 I *D sky130_fd_sc_hd__o211a_4
*I *5905:A2 I *D sky130_fd_sc_hd__o211a_4
*I *6115:A2 I *D sky130_fd_sc_hd__o211a_4
*I *6058:A2 I *D sky130_fd_sc_hd__o211a_4
*I *6076:A2 I *D sky130_fd_sc_hd__o211a_4
*I *6022:A2 I *D sky130_fd_sc_hd__o211a_4
*I *6133:A2 I *D sky130_fd_sc_hd__o211a_4
*I *6096:A2 I *D sky130_fd_sc_hd__o211a_4
*I *6151:A2 I *D sky130_fd_sc_hd__o211a_4
*I *6305:A2 I *D sky130_fd_sc_hd__o211a_4
*I *6234:A2 I *D sky130_fd_sc_hd__o211a_4
*I *6227:A2 I *D sky130_fd_sc_hd__o211a_1
*I *5891:B I *D sky130_fd_sc_hd__nor2_1
*I *5890:X O *D sky130_fd_sc_hd__buf_8
*CAP
1 *6221:A2 0
2 *6287:A2 0.000285938
3 *6204:A2 0
4 *6040:A2 0.00012828
5 *6003:A2 0.000216249
6 *6186:A2 0
7 *5905:A2 0
8 *6115:A2 0
9 *6058:A2 0.000237099
10 *6076:A2 5.63442e-05
11 *6022:A2 4.28046e-05
12 *6133:A2 4.82949e-05
13 *6096:A2 3.62338e-05
14 *6151:A2 0
15 *6305:A2 3.15879e-05
16 *6234:A2 0
17 *6227:A2 0
18 *5891:B 0.000176495
19 *5890:X 0.000116213
20 *203:197 0.000471676
21 *203:184 0.000562229
22 *203:175 0.000559931
23 *203:144 0.0004455
24 *203:133 0.000320445
25 *203:129 0.000475508
26 *203:112 0.000486587
27 *203:101 0.000303873
28 *203:94 8.98481e-05
29 *203:79 0.000377297
30 *203:75 0.000646764
31 *203:64 0.000491731
32 *203:54 0.00053273
33 *203:50 0.000728264
34 *203:38 0.00088642
35 *203:36 0.000346397
36 *203:14 0.000293634
37 *203:10 0.000579749
38 *5891:B *6227:C1 1.31367e-05
39 *5891:B *215:53 4.38298e-05
40 *5891:B *215:72 4.56101e-05
41 *6003:A2 *215:193 0.000268074
42 *6003:A2 *298:14 4.00259e-06
43 *6003:A2 *338:14 1.79651e-05
44 *6022:A2 *309:10 9.5877e-05
45 *6022:A2 *401:73 3.16784e-05
46 *6040:A2 *215:206 5.50049e-05
47 *6040:A2 *339:8 0
48 *6058:A2 *6058:C1 0
49 *6076:A2 *339:31 0.000103637
50 *6096:A2 *215:133 9.5877e-05
51 *6096:A2 *469:8 2.02872e-05
52 *6133:A2 *372:10 0.000139352
53 *6287:A2 *5903:B 0
54 *6287:A2 *6287:B1 0.000403387
55 *6287:A2 *279:22 3.71311e-05
56 *6287:A2 *279:24 3.32734e-05
57 *6287:A2 *401:12 0
58 *6287:A2 *460:8 0
59 *6305:A2 *470:10 3.91386e-05
60 *203:10 *391:8 8.26672e-05
61 *203:10 *420:27 0.000158229
62 *203:14 *391:8 3.72639e-05
63 *203:14 *420:27 0.000163352
64 *203:36 *6221:B1 9.84794e-05
65 *203:36 *215:36 5.3304e-05
66 *203:36 *420:10 0.000228909
67 *203:50 *6287:B1 3.47781e-05
68 *203:50 *215:24 0.000187995
69 *203:50 *215:53 0.000218952
70 *203:50 *401:12 0
71 *203:50 *411:10 9.84851e-05
72 *203:54 *351:12 0
73 *203:54 *428:52 0.000163361
74 *203:64 *292:10 3.83778e-05
75 *203:64 *351:12 8.62876e-05
76 *203:64 *428:16 0.00030894
77 *203:75 *382:141 6.16531e-05
78 *203:75 *470:10 0.000181125
79 *203:79 *470:10 0.000278627
80 *203:94 *382:14 9.48207e-06
81 *203:94 *492:76 0.000138718
82 *203:101 *339:12 0
83 *203:101 *350:14 6.60662e-05
84 *203:101 *382:141 9.94675e-05
85 *203:112 *215:146 0.000163361
86 *203:112 *215:155 1.14452e-05
87 *203:112 *339:12 0
88 *203:129 *6115:C1 1.76557e-05
89 *203:129 *215:155 0.00016046
90 *203:129 *361:8 5.50106e-05
91 *203:133 *215:166 0
92 *203:144 *6058:C1 0
93 *203:144 *215:170 0
94 *203:144 *215:213 0
95 *203:175 *6095:B 1.14452e-05
96 *203:175 *410:8 0.00010404
97 *203:175 *427:12 0.00010404
98 *203:175 *428:52 5.24393e-05
99 *203:184 *6095:B 0.000245827
100 *203:184 *6132:A 3.26321e-05
101 *203:184 *279:16 8.4047e-05
102 *203:184 *348:10 9.27814e-05
103 *203:184 *349:10 0.000151898
104 *203:184 *410:8 7.45278e-05
105 *203:197 *215:206 0.000110922
106 *203:197 *292:10 0
107 *6003:A1 *6003:A2 0.000128391
108 *6040:A1 *6003:A2 4.5707e-05
109 *6040:A1 *6040:A2 7.86249e-05
110 *6058:A1 *6058:A2 0.000238907
111 *6058:A1 *203:144 2.46345e-05
112 *6076:A1 *6076:A2 9.84794e-05
113 *6096:A1 *6096:A2 5.50106e-05
114 *182:75 *203:184 0.000194318
115 *182:75 *203:197 1.14452e-05
116 *190:8 *203:36 6.53382e-05
117 *190:21 *203:36 0.00014099
118 *190:59 *203:54 0
119 *190:59 *203:75 9.67842e-05
120 *190:59 *203:175 0
121 *190:70 *203:75 0.000364843
122 *190:70 *203:101 0.000191157
123 *190:76 *203:94 9.48207e-06
124 *190:82 *203:94 6.4393e-05
125 *190:94 *203:101 0.000154147
126 *190:109 *6133:A2 9.84851e-05
127 *190:109 *203:101 2.55642e-05
128 *190:109 *203:112 0.000185755
129 *190:109 *203:129 3.70187e-05
130 *190:120 *203:129 0
131 *190:131 *203:133 0.00014411
132 *190:144 *203:133 5.01986e-05
133 *190:144 *203:144 0.000219882
134 *190:179 *203:184 7.75329e-06
135 *190:192 *203:184 0.000177034
136 *190:207 *6003:A2 0
137 *190:207 *6040:A2 4.00259e-06
138 *190:207 *203:184 2.76611e-06
139 *190:207 *203:197 4.63333e-05
140 *190:233 *203:14 3.83059e-05
141 *200:29 *203:14 0.000163343
*RES
1 *5890:X *203:10 40.8793 
2 *203:10 *203:14 18.3143 
3 *203:14 *5891:B 26.4489 
4 *203:14 *6227:A2 23 
5 *203:10 *203:36 23.2443 
6 *203:36 *203:38 15 
7 *203:38 *203:50 26.745 
8 *203:50 *203:54 17.2579 
9 *203:54 *203:64 49.6814 
10 *203:64 *6234:A2 23 
11 *203:64 *203:75 20.2821 
12 *203:75 *203:79 18.48 
13 *203:79 *6305:A2 23.8493 
14 *203:79 *203:94 32.1284 
15 *203:94 *6151:A2 23 
16 *203:75 *203:101 5.075 
17 *203:101 *6096:A2 39.0979 
18 *203:101 *203:112 2.61 
19 *203:112 *6133:A2 39.5743 
20 *203:112 *203:129 21.4629 
21 *203:129 *203:133 17.61 
22 *203:133 *6022:A2 39.0979 
23 *203:133 *203:144 3.31429 
24 *203:144 *6076:A2 40.0507 
25 *203:144 *6058:A2 42.9507 
26 *203:129 *6115:A2 23 
27 *203:54 *203:175 3.66643 
28 *203:175 *5905:A2 38 
29 *203:175 *203:184 11.4136 
30 *203:184 *6186:A2 38 
31 *203:184 *203:197 17.755 
32 *203:197 *6003:A2 28.7586 
33 *203:197 *6040:A2 26.045 
34 *203:50 *6204:A2 23 
35 *203:38 *6287:A2 44.8771 
36 *203:36 *6221:A2 23 
*END

*D_NET *204 0.00169386
*CONN
*I *5898:A I *D sky130_fd_sc_hd__or3_4
*I *5892:X O *D sky130_fd_sc_hd__xor2_1
*CAP
1 *5898:A 0.000599374
2 *5892:X 7.66397e-05
3 *204:10 0.000676013
4 *5898:A *5898:B 3.77997e-05
5 *5898:A *210:8 0
6 *204:10 *5892:A 6.68617e-05
7 *204:10 *5892:B 0
8 *204:10 *6460:CLK 6.68617e-05
9 *204:10 *6460:D 1.14154e-05
10 *204:10 *239:54 1.47563e-05
11 *204:10 *702:22 5.56203e-05
12 *204:10 *826:8 8.85189e-05
*RES
1 *5892:X *204:10 40.755 
2 *204:10 *5898:A 47.2179 
*END

*D_NET *205 0.000879741
*CONN
*I *5898:B I *D sky130_fd_sc_hd__or3_4
*I *5893:X O *D sky130_fd_sc_hd__xor2_1
*CAP
1 *5898:B 0.000278639
2 *5893:X 6.66531e-05
3 *205:8 0.000345292
4 *5898:B *6465:CLK 9.47227e-05
5 *5898:B *210:8 1.32939e-05
6 *205:8 *226:45 4.334e-05
7 *205:8 *710:36 0
8 *5898:A *5898:B 3.77997e-05
*RES
1 *5893:X *205:8 39.2014 
2 *205:8 *5898:B 42.93 
*END

*D_NET *206 0.00127306
*CONN
*I *5897:A I *D sky130_fd_sc_hd__or3_1
*I *5894:X O *D sky130_fd_sc_hd__xor2_1
*CAP
1 *5897:A 3.93866e-05
2 *5894:X 0.00036298
3 *206:10 0.000402366
4 *206:10 *6265:A1 0
5 *206:10 *239:88 0.0001366
6 *206:10 *239:96 0.000247678
7 *206:10 *490:35 8.4047e-05
*RES
1 *5894:X *206:10 45.6021 
2 *206:10 *5897:A 38.8493 
*END

*D_NET *207 0.00201597
*CONN
*I *5897:B I *D sky130_fd_sc_hd__or3_1
*I *5895:X O *D sky130_fd_sc_hd__xor2_1
*CAP
1 *5897:B 0
2 *5895:X 0.00012354
3 *207:14 0.000514054
4 *207:8 0.000637594
5 *207:14 *6265:A0 8.06804e-06
6 *207:14 *6265:A1 0
7 *207:14 *6472:RESET_B 0
8 *207:14 *208:14 3.7122e-06
9 *207:14 *445:16 0.000127477
10 *207:14 *490:35 0.000485212
11 *143:10 *207:14 0.000116314
*RES
1 *5895:X *207:8 39.5743 
2 *207:8 *207:14 27.035 
3 *207:14 *5897:B 23 
*END

*D_NET *208 0.00430817
*CONN
*I *5897:C I *D sky130_fd_sc_hd__or3_1
*I *5896:X O *D sky130_fd_sc_hd__xor2_1
*CAP
1 *5897:C 0
2 *5896:X 0.00024937
3 *208:14 0.00139521
4 *208:8 0.00164458
5 *208:8 *5896:B 0.00018701
6 *208:14 *6265:A0 5.3304e-05
7 *208:14 *239:88 2.02872e-05
8 *208:14 *239:96 0
9 *208:14 *491:45 0.000644512
10 *140:10 *208:14 0.000110184
11 *207:14 *208:14 3.7122e-06
*RES
1 *5896:X *208:8 42.4329 
2 *208:8 *208:14 41.0379 
3 *208:14 *5897:C 23 
*END

*D_NET *209 0.00297583
*CONN
*I *5898:C I *D sky130_fd_sc_hd__or3_4
*I *5897:X O *D sky130_fd_sc_hd__or3_1
*CAP
1 *5898:C 0
2 *5897:X 8.26807e-05
3 *209:16 0.00118946
4 *209:8 0.00127214
5 *209:16 *6437:CLK 2.25712e-05
6 *209:16 *445:16 3.36312e-06
7 *209:16 *487:71 6.69536e-05
8 *209:16 *490:50 0.000198955
9 *209:16 *803:10 0.000139704
*RES
1 *5897:X *209:8 39.0979 
2 *209:8 *209:16 38.2207 
3 *209:16 *5898:C 23 
*END

*D_NET *210 0.00533986
*CONN
*I *5899:A I *D sky130_fd_sc_hd__inv_2
*I *5936:B I *D sky130_fd_sc_hd__nand2_8
*I *6254:A3 I *D sky130_fd_sc_hd__a31o_1
*I *5898:X O *D sky130_fd_sc_hd__or3_4
*CAP
1 *5899:A 0.000432988
2 *5936:B 0
3 *6254:A3 0.000177073
4 *5898:X 0.000731017
5 *210:12 0.00109633
6 *210:8 0.00208326
7 *5899:A *709:229 3.71369e-05
8 *5899:A *807:8 5.2894e-05
9 *6254:A3 *225:247 5.67058e-05
10 *6254:A3 *439:10 9.8139e-05
11 *6254:A3 *711:115 5.50106e-05
12 *6254:A3 *713:25 0
13 *210:8 *6465:CLK 2.93845e-05
14 *210:8 *6465:D 3.98134e-05
15 *210:12 *438:8 7.75329e-06
16 *210:12 *439:10 8.92841e-05
17 *210:12 *440:8 2.79004e-05
18 *210:12 *709:173 5.21127e-05
19 *210:12 *709:177 0
20 *210:12 *709:211 0
21 *210:12 *711:135 0
22 *210:12 *711:150 0
23 *210:12 *713:25 0
24 *210:12 *801:10 9.32509e-05
25 *210:12 *825:16 0.000166513
26 *5898:A *210:8 0
27 *5898:B *210:8 1.32939e-05
*RES
1 *5898:X *210:8 32.6943 
2 *210:8 *210:12 33.8086 
3 *210:12 *6254:A3 41.5836 
4 *210:12 *5936:B 38 
5 *210:8 *5899:A 29.235 
*END

*D_NET *211 0.01012
*CONN
*I *6039:B I *D sky130_fd_sc_hd__and4_1
*I *6057:B I *D sky130_fd_sc_hd__and4b_1
*I *5901:B I *D sky130_fd_sc_hd__nand2_1
*I *6093:B I *D sky130_fd_sc_hd__or2_1
*I *6222:A1 I *D sky130_fd_sc_hd__mux2_1
*I *5900:Y O *D sky130_fd_sc_hd__inv_2
*CAP
1 *6039:B 0
2 *6057:B 4.24857e-05
3 *5901:B 0
4 *6093:B 2.34823e-05
5 *6222:A1 0
6 *5900:Y 0
7 *211:50 0.000292152
8 *211:31 0.000900852
9 *211:25 0.000776183
10 *211:23 0.000423489
11 *211:10 0.00222023
12 *211:4 0.00249524
13 *6057:B *812:107 5.50106e-05
14 *6093:B *6132:A 0
15 *211:10 *5900:A 5.41385e-05
16 *211:10 *491:20 2.18409e-05
17 *211:10 *647:27 7.03766e-05
18 *211:10 *710:10 0
19 *211:10 *810:75 0.00033935
20 *211:10 *814:16 0.000139346
21 *211:23 *319:12 0
22 *211:25 *319:12 0
23 *211:25 *812:113 0.000224345
24 *211:31 *6020:A 3.53115e-05
25 *211:31 *6020:B 0.00010018
26 *211:31 *319:12 0
27 *211:50 *6021:A 2.02517e-05
28 *211:50 *6132:A 5.67058e-05
29 *211:50 *212:14 9.2462e-05
30 *211:50 *307:6 1.03836e-05
31 *182:26 *211:10 0.00039759
32 *182:40 *211:23 0.000237525
33 *182:40 *211:25 1.01436e-05
34 *182:42 *211:25 0.000275482
35 *182:44 *211:25 5.01986e-05
36 *182:44 *211:31 0.000425521
37 *182:46 *211:31 8.62783e-05
38 *182:56 *211:31 6.29539e-05
39 *182:56 *211:50 4.6595e-05
40 *182:75 *211:50 0.000133941
41 *190:192 *211:31 0
42 *190:207 *211:31 0
*RES
1 *5900:Y *211:4 23 
2 *211:4 *211:10 46.5893 
3 *211:10 *6222:A1 38 
4 *211:4 *211:23 19.8886 
5 *211:23 *211:25 4.37071 
6 *211:25 *211:31 25.3157 
7 *211:31 *6093:B 23.4971 
8 *211:31 *211:50 35.1993 
9 *211:50 *5901:B 23 
10 *211:25 *6057:B 38.6214 
11 *211:23 *6039:B 38 
*END

*D_NET *212 0.00414059
*CONN
*I *6021:A I *D sky130_fd_sc_hd__nor2_1
*I *6304:A I *D sky130_fd_sc_hd__nor2_1
*I *5903:A I *D sky130_fd_sc_hd__nor2_1
*I *5901:Y O *D sky130_fd_sc_hd__nand2_1
*CAP
1 *6021:A 0.000142845
2 *6304:A 0
3 *5903:A 0
4 *5901:Y 0
5 *212:22 0.000730603
6 *212:14 0.0011068
7 *212:4 0.000519042
8 *6021:A *215:174 2.44913e-05
9 *6021:A *308:6 2.93747e-05
10 *212:14 *6114:B 3.16765e-05
11 *212:14 *6132:A 3.72639e-05
12 *212:14 *6150:A 0.00026025
13 *212:14 *292:10 0
14 *212:14 *307:32 2.54046e-05
15 *212:14 *348:10 0.000196469
16 *212:14 *349:10 1.88972e-05
17 *212:14 *371:8 8.85189e-05
18 *212:22 *5903:B 5.90675e-06
19 *212:22 *5905:B1 6.87362e-05
20 *212:22 *6095:B 0.000109606
21 *212:22 *6150:A 6.07611e-06
22 *212:22 *216:8 7.44257e-05
23 *212:22 *216:116 5.73835e-06
24 *212:22 *348:27 4.34669e-05
25 *212:22 *349:10 6.07611e-06
26 *212:22 *351:12 0
27 *212:22 *381:8 0.000113153
28 *212:22 *427:12 0.000265999
29 *5905:A1 *212:22 5.61697e-05
30 *182:75 *6021:A 3.62905e-05
31 *182:75 *212:14 2.45961e-05
32 *211:50 *6021:A 2.02517e-05
33 *211:50 *212:14 9.2462e-05
*RES
1 *5901:Y *212:4 23 
2 *212:4 *212:14 23.9279 
3 *212:14 *212:22 27.1593 
4 *212:22 *5903:A 23 
5 *212:14 *6304:A 38 
6 *212:4 *6021:A 26.045 
*END

*D_NET *213 0.0020095
*CONN
*I *6203:B I *D sky130_fd_sc_hd__nor2_1
*I *6233:A I *D sky130_fd_sc_hd__nor2_1
*I *5903:B I *D sky130_fd_sc_hd__nor2_1
*I *5902:Y O *D sky130_fd_sc_hd__nand2_1
*CAP
1 *6203:B 1.56221e-05
2 *6233:A 0
3 *5903:B 0.000258024
4 *5902:Y 7.89401e-05
5 *213:29 0.00012924
6 *213:8 0.000450581
7 *5903:B *5905:B1 0.00010018
8 *5903:B *401:12 0.000194318
9 *6203:B *279:22 2.32101e-05
10 *6203:B *427:12 5.50106e-05
11 *213:8 *401:12 0.000110922
12 *213:29 *6203:A 1.37232e-05
13 *213:29 *279:22 0.000352421
14 *213:29 *360:12 0.00014196
15 *213:29 *427:12 2.32004e-05
16 *6287:A1 *213:29 5.62429e-05
17 *6287:A2 *5903:B 0
18 *212:22 *5903:B 5.90675e-06
*RES
1 *5902:Y *213:8 39.5536 
2 *213:8 *5903:B 43.5307 
3 *213:8 *213:29 19.4536 
4 *213:29 *6233:A 23 
5 *213:29 *6203:B 23.6214 
*END

*D_NET *214 0.000632958
*CONN
*I *5905:B1 I *D sky130_fd_sc_hd__o211a_4
*I *5903:Y O *D sky130_fd_sc_hd__nor2_1
*CAP
1 *5905:B1 0.000122899
2 *5903:Y 0.000122899
3 *5905:B1 *216:8 0.000139352
4 *5905:B1 *216:116 7.88926e-05
5 *5903:B *5905:B1 0.00010018
6 *212:22 *5905:B1 6.87362e-05
*RES
1 *5903:Y *5905:B1 49.9564 
*END

*D_NET *215 0.0185786
*CONN
*I *6022:C1 I *D sky130_fd_sc_hd__o211a_4
*I *6058:C1 I *D sky130_fd_sc_hd__o211a_4
*I *6076:C1 I *D sky130_fd_sc_hd__o211a_4
*I *6040:C1 I *D sky130_fd_sc_hd__o211a_4
*I *6003:C1 I *D sky130_fd_sc_hd__o211a_4
*I *6186:C1 I *D sky130_fd_sc_hd__o211a_4
*I *6115:C1 I *D sky130_fd_sc_hd__o211a_4
*I *6133:C1 I *D sky130_fd_sc_hd__o211a_4
*I *6096:C1 I *D sky130_fd_sc_hd__o211a_4
*I *6151:C1 I *D sky130_fd_sc_hd__o211a_4
*I *6305:C1 I *D sky130_fd_sc_hd__o211a_4
*I *6204:C1 I *D sky130_fd_sc_hd__o211a_4
*I *5905:C1 I *D sky130_fd_sc_hd__o211a_4
*I *6234:C1 I *D sky130_fd_sc_hd__o211a_4
*I *6287:B1 I *D sky130_fd_sc_hd__o211a_4
*I *6168:B1 I *D sky130_fd_sc_hd__o2111a_4
*I *6227:C1 I *D sky130_fd_sc_hd__o211a_1
*I *6221:B1 I *D sky130_fd_sc_hd__o21a_4
*I *5904:X O *D sky130_fd_sc_hd__buf_8
*CAP
1 *6022:C1 3.78035e-05
2 *6058:C1 0.000125505
3 *6076:C1 0
4 *6040:C1 0
5 *6003:C1 0
6 *6186:C1 3.3043e-05
7 *6115:C1 6.8199e-05
8 *6133:C1 0
9 *6096:C1 5.48753e-05
10 *6151:C1 0
11 *6305:C1 0
12 *6204:C1 0
13 *5905:C1 0.000111339
14 *6234:C1 0.000196743
15 *6287:B1 0.000214036
16 *6168:B1 0
17 *6227:C1 1.93698e-05
18 *6221:B1 2.01797e-05
19 *5904:X 0.000286164
20 *215:213 0.000255713
21 *215:206 0.000178106
22 *215:193 0.000479518
23 *215:176 0.000609612
24 *215:174 0.000419207
25 *215:170 0.000348
26 *215:166 0.000226842
27 *215:155 0.000285455
28 *215:146 0.000185075
29 *215:133 0.000398178
30 *215:118 0.000354394
31 *215:109 0.000211455
32 *215:72 0.000513971
33 *215:53 0.00107221
34 *215:45 0.000752901
35 *215:36 0.000295745
36 *215:30 0.000472308
37 *215:28 0.000249433
38 *215:24 0.000785685
39 *215:10 0.001051
40 *5905:C1 *216:14 0
41 *6022:C1 *308:6 0.000185434
42 *6022:C1 *309:10 0.000228909
43 *6022:C1 *401:73 1.76557e-05
44 *6058:C1 *351:31 0.000185095
45 *6096:C1 *351:31 0
46 *6096:C1 *469:8 2.30292e-05
47 *6115:C1 *361:8 5.41385e-05
48 *6186:C1 *400:18 2.02517e-05
49 *6234:C1 *428:16 8.68028e-05
50 *6287:B1 *460:8 0
51 *215:10 *5904:A 5.50049e-05
52 *215:10 *309:14 0
53 *215:10 *382:141 0
54 *215:10 *391:114 4.20739e-05
55 *215:10 *492:76 4.21594e-06
56 *215:24 *6204:B1 5.67058e-05
57 *215:28 *216:14 0
58 *215:28 *410:8 2.95125e-05
59 *215:28 *428:52 7.76364e-06
60 *215:72 *279:24 9.58714e-05
61 *215:72 *420:25 0.000177604
62 *215:72 *479:61 0
63 *215:109 *6305:B1 3.92407e-05
64 *215:109 *382:141 0
65 *215:109 *492:76 7.55832e-05
66 *215:118 *6305:B1 0.000178773
67 *215:118 *492:76 5.82922e-05
68 *215:133 *6305:B1 0.000176541
69 *215:133 *469:8 1.03836e-05
70 *215:133 *492:76 7.87799e-05
71 *215:146 *351:31 7.8128e-05
72 *215:155 *351:31 0.000118807
73 *215:166 *351:31 8.67156e-05
74 *215:170 *351:31 6.16439e-05
75 *215:174 *308:6 0.000261951
76 *215:174 *401:73 0.000564577
77 *215:176 *401:73 0.000221992
78 *215:193 *298:14 6.00286e-05
79 *215:193 *338:14 2.80924e-06
80 *215:206 *292:10 0
81 *215:206 *318:10 2.08324e-05
82 *215:213 *351:31 0.000181013
83 *5891:B *6227:C1 1.31367e-05
84 *5891:B *215:53 4.38298e-05
85 *5891:B *215:72 4.56101e-05
86 *6003:A2 *215:193 0.000268074
87 *6021:A *215:174 2.44913e-05
88 *6040:A1 *215:206 5.50049e-05
89 *6040:A2 *215:206 5.50049e-05
90 *6058:A1 *6058:C1 0
91 *6058:A2 *6058:C1 0
92 *6096:A1 *215:133 2.18409e-05
93 *6096:A2 *215:133 9.5877e-05
94 *6168:A1 *215:72 0.000202816
95 *6168:A2 *215:72 4.9662e-05
96 *6186:A1 *215:176 4.17615e-05
97 *6204:A1 *215:24 1.14154e-05
98 *6221:A1 *215:36 3.41792e-05
99 *6287:A2 *6287:B1 0.000403387
100 *120:8 *215:10 0.000194318
101 *182:75 *6186:C1 0
102 *182:75 *215:174 0.000217372
103 *182:75 *215:176 1.32314e-05
104 *183:18 *215:72 0
105 *189:10 *215:72 0.000192395
106 *190:14 *215:53 0
107 *190:21 *6221:B1 9.84794e-05
108 *190:21 *215:36 0.00010066
109 *190:34 *6234:C1 2.02872e-05
110 *190:34 *215:36 0.000204232
111 *190:42 *215:24 0.000136298
112 *190:42 *215:28 0.000114083
113 *190:59 *215:24 7.42621e-05
114 *190:94 *215:133 1.12487e-05
115 *190:109 *215:133 1.58805e-05
116 *190:120 *215:155 0
117 *190:131 *215:155 0
118 *190:166 *5905:C1 0.000194318
119 *190:166 *215:28 5.24393e-05
120 *190:207 *215:193 0.000108681
121 *190:207 *215:206 0
122 *190:233 *215:72 2.93845e-05
123 *200:8 *215:72 0.000519329
124 *203:36 *6221:B1 9.84794e-05
125 *203:36 *215:36 5.3304e-05
126 *203:50 *6287:B1 3.47781e-05
127 *203:50 *215:24 0.000187995
128 *203:50 *215:53 0.000218952
129 *203:112 *215:146 0.000163361
130 *203:112 *215:155 1.14452e-05
131 *203:129 *6115:C1 1.76557e-05
132 *203:129 *215:155 0.00016046
133 *203:133 *215:166 0
134 *203:144 *6058:C1 0
135 *203:144 *215:170 0
136 *203:144 *215:213 0
137 *203:197 *215:206 0.000110922
*RES
1 *5904:X *215:10 43.365 
2 *215:10 *215:24 27.8843 
3 *215:24 *215:28 18.3143 
4 *215:28 *215:30 15 
5 *215:30 *215:36 6.50429 
6 *215:36 *6221:B1 24.0979 
7 *215:36 *215:45 15 
8 *215:45 *215:53 24.7979 
9 *215:53 *6227:C1 23.4971 
10 *215:53 *215:72 44.2721 
11 *215:72 *6168:B1 23 
12 *215:45 *6287:B1 43.7793 
13 *215:30 *6234:C1 26.2418 
14 *215:28 *5905:C1 40.61 
15 *215:24 *6204:C1 23 
16 *215:10 *215:109 2.96214 
17 *215:109 *6305:C1 38 
18 *215:109 *215:118 2.61 
19 *215:118 *6151:C1 38 
20 *215:118 *215:133 20.8621 
21 *215:133 *6096:C1 24.1186 
22 *215:133 *215:146 17.2579 
23 *215:146 *6133:C1 38 
24 *215:146 *215:155 3.31429 
25 *215:155 *6115:C1 39.5743 
26 *215:155 *215:166 2.61 
27 *215:166 *215:170 1.47071 
28 *215:170 *215:174 21.3386 
29 *215:174 *215:176 2.52714 
30 *215:176 *6186:C1 23.8493 
31 *215:176 *215:193 37.6643 
32 *215:193 *6003:C1 23 
33 *215:174 *215:206 33.2314 
34 *215:206 *6040:C1 23 
35 *215:170 *215:213 2.61 
36 *215:213 *6076:C1 38 
37 *215:213 *6058:C1 40.61 
38 *215:166 *6022:C1 40.5271 
*END

*D_NET *216 0.0337681
*CONN
*I *5912:S I *D sky130_fd_sc_hd__mux2_1
*I *5916:S I *D sky130_fd_sc_hd__mux2_1
*I *5914:S I *D sky130_fd_sc_hd__mux2_1
*I *5906:S I *D sky130_fd_sc_hd__mux2_1
*I *5908:S I *D sky130_fd_sc_hd__mux2_1
*I *5918:S I *D sky130_fd_sc_hd__mux2_1
*I *5920:S I *D sky130_fd_sc_hd__mux2_1
*I *5910:S I *D sky130_fd_sc_hd__mux2_1
*I *5905:X O *D sky130_fd_sc_hd__o211a_4
*CAP
1 *5912:S 0
2 *5916:S 0
3 *5914:S 0
4 *5906:S 0
5 *5908:S 0
6 *5918:S 0
7 *5920:S 0
8 *5910:S 0.000128282
9 *5905:X 4.56956e-05
10 *216:141 0.00171512
11 *216:122 0.000101563
12 *216:116 0.0042517
13 *216:96 0.000684956
14 *216:79 0.000684956
15 *216:77 0.00139341
16 *216:60 0.00175103
17 *216:54 0.00151986
18 *216:44 0.00307788
19 *216:29 0.00191564
20 *216:27 0.000908254
21 *216:14 0.002192
22 *216:8 0.00363618
23 *5910:S *229:35 4.00355e-05
24 *216:14 *6562:A 4.83577e-05
25 *216:14 *226:279 0.000377172
26 *216:14 *229:35 5.63434e-05
27 *216:14 *401:12 0.000628148
28 *216:14 *401:22 0.000701263
29 *216:14 *428:52 0
30 *216:14 *746:109 0.000117765
31 *216:27 *6585:A 8.72173e-05
32 *216:27 *225:12 0
33 *216:27 *225:21 0.000704083
34 *216:27 *225:27 0.000564228
35 *216:27 *287:20 4.45839e-05
36 *216:27 *401:22 0.000186064
37 *216:27 *409:10 4.94412e-05
38 *216:27 *480:16 0
39 *216:27 *636:156 0.000129402
40 *216:27 *746:145 0.000139647
41 *216:27 *790:12 3.93703e-05
42 *216:27 *791:35 1.69668e-05
43 *216:44 *5920:A0 0.000195293
44 *216:44 *6243:S 0
45 *216:44 *6541:A 0
46 *216:44 *225:68 0
47 *216:44 *225:160 0
48 *216:44 *226:112 0
49 *216:44 *428:105 0
50 *216:44 *433:8 1.83564e-05
51 *216:44 *488:123 2.93845e-05
52 *216:44 *658:22 0.000742789
53 *216:44 *679:8 4.08641e-05
54 *216:54 *6182:A 0.000135726
55 *216:54 *6416:CLK 7.88399e-05
56 *216:54 *6541:A 0
57 *216:54 *433:8 6.6869e-05
58 *216:54 *488:78 0.000140259
59 *216:54 *488:82 9.48381e-06
60 *216:54 *580:10 1.73399e-05
61 *216:54 *588:10 0
62 *216:54 *590:28 0.000354116
63 *216:60 *223:10 0
64 *216:60 *590:10 5.31444e-05
65 *216:60 *625:10 1.14452e-05
66 *216:60 *735:18 5.08899e-05
67 *216:60 *782:8 0
68 *216:77 *5918:A0 0.000402806
69 *216:77 *6427:CLK 5.50049e-05
70 *216:77 *218:8 0
71 *216:77 *481:68 0.00010018
72 *216:77 *585:20 1.19796e-05
73 *216:77 *593:6 1.84914e-05
74 *216:77 *593:31 1.40004e-05
75 *216:77 *625:21 3.91386e-05
76 *216:96 *5906:A0 4.74774e-05
77 *216:96 *5906:A1 5.50049e-05
78 *216:96 *5907:A 0
79 *216:96 *5939:S0 0.000603058
80 *216:96 *5939:S1 0
81 *216:96 *225:121 5.2497e-05
82 *216:96 *226:135 0
83 *216:96 *481:56 0
84 *216:96 *585:20 0.000227208
85 *216:96 *593:31 9.39159e-05
86 *216:96 *600:23 2.93845e-05
87 *216:96 *720:6 2.32101e-05
88 *216:116 *6095:B 1.55097e-05
89 *216:116 *6151:B1 0.000284534
90 *216:116 *382:14 5.8058e-05
91 *216:116 *401:12 3.97399e-05
92 *216:122 *230:66 8.93663e-05
93 *216:122 *232:58 0.000190218
94 *216:141 *5913:A 9.41435e-05
95 *216:141 *6413:CLK 1.79175e-05
96 *216:141 *6615:A 5.50106e-05
97 *216:141 *603:25 0.0002007
98 *216:141 *729:6 4.9662e-05
99 *5905:A1 *216:116 0.000112087
100 *5905:B1 *216:8 0.000139352
101 *5905:B1 *216:116 7.88926e-05
102 *5905:C1 *216:14 0
103 *6398:D *216:44 6.92576e-05
104 *6413:D *216:141 0.000170785
105 *6427:D *216:77 1.64354e-05
106 *90:8 *216:14 0
107 *106:8 *216:27 0
108 *190:76 *216:116 0.000351513
109 *190:179 *216:116 0
110 *212:22 *216:8 7.44257e-05
111 *212:22 *216:116 5.73835e-06
112 *215:28 *216:14 0
*RES
1 *5905:X *216:8 39.5743 
2 *216:8 *216:14 43.8343 
3 *216:14 *5910:S 24.9471 
4 *216:14 *216:27 38.3864 
5 *216:27 *216:29 15 
6 *216:29 *5920:S 23 
7 *216:29 *216:44 48.205 
8 *216:44 *216:54 37.2886 
9 *216:54 *216:60 35.4271 
10 *216:60 *5918:S 23 
11 *216:60 *216:77 37.9514 
12 *216:77 *216:79 15 
13 *216:79 *5908:S 23 
14 *216:79 *216:96 46.6129 
15 *216:96 *5906:S 23 
16 *216:44 *5914:S 38 
17 *216:8 *216:116 47.4386 
18 *216:116 *216:122 32.61 
19 *216:122 *5916:S 23 
20 *216:116 *216:141 28.1507 
21 *216:141 *5912:S 23 
*END

*D_NET *217 0.000310306
*CONN
*I *5907:A I *D sky130_fd_sc_hd__clkbuf_1
*I *5906:X O *D sky130_fd_sc_hd__mux2_1
*CAP
1 *5907:A 5.76565e-05
2 *5906:X 5.76565e-05
3 *5907:A *5906:A0 0
4 *5907:A *225:102 9.48123e-05
5 *5907:A *600:23 0.00010018
6 *216:96 *5907:A 0
*RES
1 *5906:X *5907:A 47.9471 
*END

*D_NET *218 0.00134049
*CONN
*I *5909:A I *D sky130_fd_sc_hd__clkbuf_1
*I *5908:X O *D sky130_fd_sc_hd__mux2_1
*CAP
1 *5909:A 0.000369255
2 *5908:X 0.00023035
3 *218:8 0.000599606
4 *5909:A *593:16 5.50049e-05
5 *218:8 *593:16 8.62783e-05
6 *28:8 *218:8 0
7 *216:77 *218:8 0
*RES
1 *5908:X *218:8 42.0186 
2 *218:8 *5909:A 45.0636 
*END

*D_NET *219 0.00051947
*CONN
*I *5911:A I *D sky130_fd_sc_hd__clkbuf_1
*I *5910:X O *D sky130_fd_sc_hd__mux2_1
*CAP
1 *5911:A 0
2 *5910:X 0.00019003
3 *219:10 0.00019003
4 *219:10 *225:12 0
5 *219:10 *229:35 1.40958e-05
6 *219:10 *480:79 6.4393e-05
7 *219:10 *480:89 4.21594e-06
8 *219:10 *594:10 0
9 *219:10 *725:12 5.67058e-05
*RES
1 *5910:X *219:10 41.3557 
2 *219:10 *5911:A 38 
*END

*D_NET *220 0.000216378
*CONN
*I *5913:A I *D sky130_fd_sc_hd__clkbuf_1
*I *5912:X O *D sky130_fd_sc_hd__mux2_1
*CAP
1 *5913:A 5.13826e-05
2 *5912:X 5.13826e-05
3 *5913:A *603:25 1.94693e-05
4 *216:141 *5913:A 9.41435e-05
*RES
1 *5912:X *5913:A 47.4707 
*END

*D_NET *221 0.00192268
*CONN
*I *5915:A I *D sky130_fd_sc_hd__clkbuf_1
*I *5914:X O *D sky130_fd_sc_hd__mux2_1
*CAP
1 *5915:A 0.00011504
2 *5914:X 0.000574889
3 *221:10 0.000689929
4 *221:10 *5966:S0 6.07929e-05
5 *221:10 *225:58 6.90248e-05
6 *221:10 *488:94 4.68721e-05
7 *221:10 *588:10 0
8 *221:10 *604:31 5.09072e-05
9 *221:10 *768:93 1.19796e-05
10 *221:10 *768:119 0.000139357
11 *31:8 *221:10 0
12 *148:10 *221:10 0.000163884
*RES
1 *5914:X *221:10 49.2271 
2 *221:10 *5915:A 40.0507 
*END

*D_NET *222 0.00193218
*CONN
*I *5917:A I *D sky130_fd_sc_hd__clkbuf_1
*I *5916:X O *D sky130_fd_sc_hd__mux2_1
*CAP
1 *5917:A 0.000160957
2 *5916:X 0.000376743
3 *222:8 0.000537699
4 *5917:A *411:92 0.000308039
5 *222:8 *5975:A2 0.000338313
6 *222:8 *6626:A 8.72173e-05
7 *222:8 *233:35 3.46954e-05
8 *222:8 *237:84 0
9 *222:8 *391:143 8.85189e-05
10 *222:8 *581:26 0
11 *222:8 *779:91 0
*RES
1 *5916:X *222:8 45.8921 
2 *222:8 *5917:A 41.48 
*END

*D_NET *223 0.00112216
*CONN
*I *5919:A I *D sky130_fd_sc_hd__clkbuf_1
*I *5918:X O *D sky130_fd_sc_hd__mux2_1
*CAP
1 *5919:A 0
2 *5918:X 0.000302005
3 *223:10 0.000302005
4 *223:10 *6217:A1 2.93747e-05
5 *223:10 *625:21 2.93845e-05
6 *223:10 *625:32 0.0003731
7 *223:10 *735:18 8.62876e-05
8 *216:60 *223:10 0
*RES
1 *5918:X *223:10 44.1729 
2 *223:10 *5919:A 38 
*END

*D_NET *224 0.00146969
*CONN
*I *5921:A I *D sky130_fd_sc_hd__clkbuf_1
*I *5920:X O *D sky130_fd_sc_hd__mux2_1
*CAP
1 *5921:A 0
2 *5920:X 0.000536131
3 *224:10 0.000536131
4 *224:10 *5920:A0 3.7122e-06
5 *224:10 *6329:CLK 0
6 *224:10 *225:27 6.48881e-05
7 *224:10 *225:37 0.000123967
8 *224:10 *480:16 0
9 *224:10 *591:14 6.4393e-05
10 *224:10 *607:25 5.1358e-05
11 *224:10 *636:156 3.70094e-05
12 *34:8 *224:10 5.21024e-05
*RES
1 *5920:X *224:10 48.9993 
2 *224:10 *5921:A 38 
*END

*D_NET *225 0.0542718
*CONN
*I *6251:A I *D sky130_fd_sc_hd__xnor2_1
*I *6254:A1 I *D sky130_fd_sc_hd__a31o_1
*I *6263:A I *D sky130_fd_sc_hd__nor2_1
*I *6271:A1 I *D sky130_fd_sc_hd__a31o_1
*I *6252:A I *D sky130_fd_sc_hd__nand2_1
*I *5993:S0 I *D sky130_fd_sc_hd__mux4_1
*I *5975:S0 I *D sky130_fd_sc_hd__mux4_1
*I *5958:S0 I *D sky130_fd_sc_hd__mux4_1
*I *5957:S0 I *D sky130_fd_sc_hd__mux4_1
*I *5949:S0 I *D sky130_fd_sc_hd__mux4_1
*I *5925:S0 I *D sky130_fd_sc_hd__mux4_1
*I *5940:S0 I *D sky130_fd_sc_hd__mux4_1
*I *5924:S0 I *D sky130_fd_sc_hd__mux4_1
*I *5939:S0 I *D sky130_fd_sc_hd__mux4_1
*I *5984:S0 I *D sky130_fd_sc_hd__mux4_1
*I *5967:S0 I *D sky130_fd_sc_hd__mux4_1
*I *5966:S0 I *D sky130_fd_sc_hd__mux4_1
*I *5948:S0 I *D sky130_fd_sc_hd__mux4_1
*I *5922:X O *D sky130_fd_sc_hd__buf_8
*CAP
1 *6251:A 0
2 *6254:A1 0
3 *6263:A 0
4 *6271:A1 0.000150013
5 *6252:A 0
6 *5993:S0 3.27378e-05
7 *5975:S0 0.00039927
8 *5958:S0 0
9 *5957:S0 2.53239e-05
10 *5949:S0 0
11 *5925:S0 0
12 *5940:S0 0
13 *5924:S0 1.50079e-05
14 *5939:S0 0.00033331
15 *5984:S0 0.000151932
16 *5967:S0 0
17 *5966:S0 8.77445e-05
18 *5948:S0 0
19 *5922:X 0
20 *225:262 0.000824396
21 *225:247 0.000827506
22 *225:245 0.000406549
23 *225:237 0.000303834
24 *225:231 0.0012877
25 *225:198 0.000976461
26 *225:181 0.00142888
27 *225:170 0.00032235
28 *225:164 0.00287559
29 *225:160 0.00448431
30 *225:149 0.000654796
31 *225:136 0.00133147
32 *225:121 0.000891626
33 *225:108 0.000637719
34 *225:102 0.00133196
35 *225:79 0.00187839
36 *225:68 0.000467418
37 *225:62 0.00125038
38 *225:58 0.00261233
39 *225:39 0.000457183
40 *225:37 0.00131718
41 *225:27 0.00186223
42 *225:21 0.00207577
43 *225:12 0.000674143
44 *225:4 0.00100031
45 *5924:S0 *5924:A2 5.50049e-05
46 *5924:S0 *576:27 5.50049e-05
47 *5939:S0 *5939:A0 5.67058e-05
48 *5939:S0 *5939:A3 5.50049e-05
49 *5939:S0 *585:20 0
50 *5957:S0 *5957:A0 0.00014196
51 *5957:S0 *587:14 0.00014196
52 *5966:S0 *604:31 7.30891e-05
53 *5975:S0 *5975:A1 3.46673e-05
54 *5975:S0 *5975:A3 0.000350612
55 *5975:S0 *397:10 0.000144802
56 *5975:S0 *470:18 0.000148412
57 *5975:S0 *581:26 0.000181125
58 *5984:S0 *265:12 0
59 *5984:S0 *582:12 0
60 *5984:S0 *590:28 1.01436e-05
61 *5984:S0 *625:45 0.000104123
62 *5993:S0 *5993:A2 5.50049e-05
63 *6271:A1 *6263:B 9.90933e-06
64 *6271:A1 *6271:A2 1.89493e-05
65 *6271:A1 *226:28 4.19743e-05
66 *6271:A1 *226:30 4.04303e-05
67 *6271:A1 *237:32 5.50049e-05
68 *225:12 *287:24 9.30054e-05
69 *225:12 *411:20 1.70989e-05
70 *225:12 *480:8 6.07611e-06
71 *225:12 *480:79 0.00030514
72 *225:12 *480:89 0
73 *225:12 *602:29 1.44546e-05
74 *225:12 *746:145 0
75 *225:12 *790:33 0.000137651
76 *225:21 *226:85 0
77 *225:21 *401:22 0.000267207
78 *225:21 *575:8 4.58941e-05
79 *225:27 *226:85 0
80 *225:27 *226:93 0
81 *225:27 *607:25 6.68587e-05
82 *225:37 *226:93 0
83 *225:37 *391:47 0.000906685
84 *225:37 *391:59 0.000617571
85 *225:37 *411:42 0
86 *225:37 *636:117 0
87 *225:58 *5966:S1 8.68903e-05
88 *225:58 *6244:A 5.50049e-05
89 *225:58 *226:112 0.000133563
90 *225:58 *391:59 0.000182832
91 *225:58 *604:12 0
92 *225:58 *768:93 0
93 *225:58 *768:119 6.69016e-05
94 *225:62 *226:112 0.000294309
95 *225:62 *428:105 3.71369e-05
96 *225:68 *226:114 0
97 *225:68 *295:20 4.23714e-05
98 *225:68 *500:28 0.000219639
99 *225:68 *564:27 0
100 *225:79 *226:112 0.000153155
101 *225:79 *265:12 0
102 *225:79 *428:105 0.000206495
103 *225:79 *435:10 3.83778e-05
104 *225:79 *625:45 0.000116403
105 *225:79 *625:51 0.000355023
106 *225:102 *6445:CLK 0.000975675
107 *225:102 *494:53 2.02872e-05
108 *225:102 *582:12 0.000482844
109 *225:102 *600:8 3.53115e-05
110 *225:102 *600:23 0.000222786
111 *225:108 *685:8 0
112 *225:121 *226:135 0
113 *225:121 *600:23 5.21024e-05
114 *225:136 *226:133 0
115 *225:136 *481:41 0.000205687
116 *225:136 *553:14 0
117 *225:136 *561:25 0
118 *225:136 *600:23 5.56111e-05
119 *225:136 *658:16 9.63918e-05
120 *225:149 *5925:A2 5.50049e-05
121 *225:149 *6025:S 0
122 *225:149 *6545:A 0
123 *225:149 *226:183 0
124 *225:149 *255:14 0.000191148
125 *225:149 *311:10 0
126 *225:149 *496:18 5.50049e-05
127 *225:149 *497:27 0
128 *225:149 *684:10 4.334e-05
129 *225:149 *747:12 2.79004e-05
130 *225:160 *6327:CLK 2.1199e-05
131 *225:160 *226:112 3.3123e-05
132 *225:160 *237:84 0
133 *225:160 *309:14 0
134 *225:160 *372:72 0.000782831
135 *225:160 *397:10 4.334e-05
136 *225:160 *401:36 8.82627e-05
137 *225:160 *470:18 0.000483688
138 *225:160 *488:14 3.79779e-05
139 *225:160 *488:20 0.000117971
140 *225:160 *489:34 0.000196802
141 *225:160 *489:95 0.000145564
142 *225:160 *623:8 0.000114656
143 *225:160 *627:10 2.79004e-05
144 *225:160 *651:8 0.000114083
145 *225:160 *768:69 0.000439425
146 *225:160 *768:79 0.000114092
147 *225:160 *768:93 0
148 *225:164 *6241:S 0.00024543
149 *225:164 *6327:CLK 5.29672e-05
150 *225:164 *428:32 0.000559265
151 *225:164 *495:107 2.30292e-05
152 *225:164 *779:91 0.000193749
153 *225:170 *309:82 0
154 *225:170 *411:109 0.000193407
155 *225:170 *495:88 0
156 *225:170 *570:16 0.000168744
157 *225:181 *6241:S 0.00026808
158 *225:181 *226:219 0.000108662
159 *225:181 *309:82 0.000226427
160 *225:181 *757:97 0
161 *225:198 *309:82 0.000640966
162 *225:198 *483:63 2.6302e-05
163 *225:198 *499:28 6.92789e-05
164 *225:198 *757:87 0
165 *225:198 *757:89 0
166 *225:198 *757:97 0
167 *225:231 *6401:CLK 1.40958e-05
168 *225:231 *237:12 7.44161e-06
169 *225:231 *237:66 0.000162698
170 *225:231 *239:154 0.00126097
171 *225:237 *237:12 5.3304e-05
172 *225:237 *239:146 6.48049e-05
173 *225:237 *711:123 9.26005e-05
174 *225:237 *712:49 7.76364e-06
175 *225:245 *230:301 0
176 *225:245 *237:12 0.000526319
177 *225:245 *239:134 0.000275371
178 *225:245 *713:8 9.04083e-05
179 *225:247 *6254:A2 5.50049e-05
180 *225:247 *226:18 0.000288279
181 *225:247 *439:10 5.67058e-05
182 *225:247 *680:18 5.10686e-05
183 *225:247 *711:115 0.00012162
184 *225:262 *6267:B 3.91386e-05
185 *225:262 *226:28 5.50049e-05
186 *225:262 *230:281 0.000188926
187 *225:262 *438:20 0.000140958
188 *225:262 *453:10 3.71198e-05
189 *225:262 *711:109 4.21594e-06
190 *225:262 *711:135 0.000186269
191 *225:262 *711:150 5.86328e-05
192 *5907:A *225:102 9.48123e-05
193 *6254:A3 *225:247 5.67058e-05
194 *6327:D *225:164 9.31115e-05
195 *6410:D *225:102 2.26823e-05
196 *6444:D *225:164 4.9054e-06
197 *27:8 *225:121 0
198 *27:8 *225:136 0
199 *29:8 *225:12 0
200 *106:8 *225:12 0.000141888
201 *119:10 *225:37 5.50049e-05
202 *136:10 *225:160 4.96264e-05
203 *216:27 *225:12 0
204 *216:27 *225:21 0.000704083
205 *216:27 *225:27 0.000564228
206 *216:44 *225:68 0
207 *216:44 *225:160 0
208 *216:96 *5939:S0 0.000603058
209 *216:96 *225:121 5.2497e-05
210 *219:10 *225:12 0
211 *221:10 *5966:S0 6.07929e-05
212 *221:10 *225:58 6.90248e-05
213 *224:10 *225:27 6.48881e-05
214 *224:10 *225:37 0.000123967
*RES
1 *5922:X *225:4 23 
2 *225:4 *225:12 44.8936 
3 *225:12 *5948:S0 23 
4 *225:4 *225:21 24.6529 
5 *225:21 *225:27 11.8279 
6 *225:27 *225:37 39.6707 
7 *225:37 *225:39 15 
8 *225:39 *5966:S0 39.9057 
9 *225:39 *225:58 39.0314 
10 *225:58 *225:62 21.815 
11 *225:62 *225:68 38.5964 
12 *225:68 *5967:S0 23 
13 *225:62 *225:79 28.34 
14 *225:79 *5984:S0 40.9621 
15 *225:79 *225:102 40.7479 
16 *225:102 *225:108 16.4189 
17 *225:108 *5939:S0 46.6896 
18 *225:108 *225:121 3.49036 
19 *225:121 *5924:S0 38.6214 
20 *225:121 *225:136 12.18 
21 *225:136 *5940:S0 38 
22 *225:136 *225:149 27.035 
23 *225:149 *5925:S0 23 
24 *225:58 *225:160 45.4057 
25 *225:160 *225:164 45.16 
26 *225:164 *225:170 37.1879 
27 *225:170 *5949:S0 23 
28 *225:164 *225:181 24.135 
29 *225:181 *5957:S0 39.5743 
30 *225:181 *225:198 35.0514 
31 *225:198 *5958:S0 23 
32 *225:160 *5975:S0 48.3779 
33 *225:27 *5993:S0 38.6214 
34 *225:21 *225:231 49.6786 
35 *225:231 *225:237 16.8229 
36 *225:237 *225:245 38.4721 
37 *225:245 *225:247 5.86214 
38 *225:247 *6252:A 23 
39 *225:247 *225:262 44.0857 
40 *225:262 *6271:A1 26.5214 
41 *225:262 *6263:A 23 
42 *225:245 *6254:A1 23 
43 *225:237 *6251:A 23 
*END

*D_NET *226 0.0579213
*CONN
*I *5948:S1 I *D sky130_fd_sc_hd__mux4_1
*I *5993:S1 I *D sky130_fd_sc_hd__mux4_1
*I *5957:S1 I *D sky130_fd_sc_hd__mux4_1
*I *5958:S1 I *D sky130_fd_sc_hd__mux4_1
*I *5975:S1 I *D sky130_fd_sc_hd__mux4_1
*I *5949:S1 I *D sky130_fd_sc_hd__mux4_1
*I *5925:S1 I *D sky130_fd_sc_hd__mux4_1
*I *5940:S1 I *D sky130_fd_sc_hd__mux4_1
*I *5924:S1 I *D sky130_fd_sc_hd__mux4_1
*I *5984:S1 I *D sky130_fd_sc_hd__mux4_1
*I *5939:S1 I *D sky130_fd_sc_hd__mux4_1
*I *5967:S1 I *D sky130_fd_sc_hd__mux4_1
*I *5966:S1 I *D sky130_fd_sc_hd__mux4_1
*I *6254:B1 I *D sky130_fd_sc_hd__a31o_1
*I *6252:B I *D sky130_fd_sc_hd__nand2_1
*I *6263:B I *D sky130_fd_sc_hd__nor2_1
*I *6260:A I *D sky130_fd_sc_hd__inv_2
*I *6271:A2 I *D sky130_fd_sc_hd__a31o_1
*I *5923:X O *D sky130_fd_sc_hd__buf_6
*CAP
1 *5948:S1 0
2 *5993:S1 0
3 *5957:S1 4.94654e-05
4 *5958:S1 0
5 *5975:S1 0
6 *5949:S1 6.65256e-05
7 *5925:S1 6.80682e-05
8 *5940:S1 0
9 *5924:S1 0
10 *5984:S1 0
11 *5939:S1 0.000224793
12 *5967:S1 0
13 *5966:S1 0.000203209
14 *6254:B1 4.01155e-05
15 *6252:B 0
16 *6263:B 1.13475e-05
17 *6260:A 0.000193573
18 *6271:A2 4.48697e-05
19 *5923:X 0
20 *226:279 0.000749278
21 *226:244 0.000488271
22 *226:240 0.000905873
23 *226:227 0.00154047
24 *226:219 0.00243506
25 *226:204 0.00100544
26 *226:200 0.00139113
27 *226:183 0.00159754
28 *226:170 0.000731112
29 *226:154 0.000688121
30 *226:135 0.00122925
31 *226:133 0.000793795
32 *226:131 0.00175786
33 *226:114 0.00148654
34 *226:112 0.00112122
35 *226:95 0.00093799
36 *226:93 0.000902614
37 *226:85 0.0018912
38 *226:83 0.0021044
39 *226:45 0.00214549
40 *226:43 0.00196595
41 *226:30 8.85401e-05
42 *226:28 0.000689352
43 *226:18 0.00119192
44 *226:14 0.00173655
45 *226:12 0.00152637
46 *226:4 0.000740017
47 *5925:S1 *496:18 4.67488e-05
48 *5939:S1 *481:56 0.000209913
49 *5949:S1 *5949:A1 1.94693e-05
50 *5949:S1 *309:82 6.3239e-06
51 *5957:S1 *595:31 9.28078e-06
52 *5957:S1 *746:45 7.65564e-05
53 *5966:S1 *6541:A 0.000373091
54 *6260:A *423:8 9.84794e-05
55 *6260:A *442:10 1.83327e-05
56 *6271:A2 *444:10 3.52912e-05
57 *226:12 *411:26 8.40391e-05
58 *226:12 *480:14 0
59 *226:12 *680:10 0.000159938
60 *226:12 *790:12 3.34129e-05
61 *226:12 *791:14 5.50106e-05
62 *226:12 *791:35 0.000130423
63 *226:14 *6254:A2 1.94693e-05
64 *226:14 *680:18 0.000169227
65 *226:14 *711:115 7.63554e-05
66 *226:14 *713:25 6.87362e-05
67 *226:18 *6254:A2 1.5769e-05
68 *226:18 *6267:B 5.47454e-05
69 *226:18 *680:18 2.81406e-06
70 *226:28 *6267:B 9.67842e-05
71 *226:28 *237:24 0.000419189
72 *226:28 *237:32 0
73 *226:28 *437:12 6.85339e-05
74 *226:28 *438:20 4.48671e-05
75 *226:28 *444:10 7.53384e-06
76 *226:28 *453:10 0.000215782
77 *226:28 *797:19 0
78 *226:30 *237:32 5.50049e-05
79 *226:30 *444:10 8.1796e-05
80 *226:43 *444:10 9.72057e-06
81 *226:45 *5893:B 0.00064384
82 *226:45 *6437:CLK 2.96369e-05
83 *226:45 *6459:RESET_B 0
84 *226:45 *239:88 0
85 *226:45 *487:71 1.7992e-05
86 *226:45 *490:50 0
87 *226:45 *710:12 0.000200329
88 *226:45 *710:16 0.000338524
89 *226:45 *710:30 0
90 *226:45 *710:32 0
91 *226:45 *710:34 0
92 *226:45 *710:36 0
93 *226:45 *710:38 0
94 *226:45 *797:19 0.000381644
95 *226:45 *800:8 8.85189e-05
96 *226:45 *803:10 0
97 *226:45 *813:10 0
98 *226:45 *817:10 0
99 *226:83 *6201:A0 0.000135037
100 *226:83 *6201:A1 9.41704e-05
101 *226:83 *6201:S 4.00259e-06
102 *226:83 *401:22 2.09226e-05
103 *226:83 *409:10 2.93845e-05
104 *226:83 *790:12 1.76557e-05
105 *226:83 *791:35 0.000268873
106 *226:85 *6201:A1 0
107 *226:85 *232:12 0
108 *226:85 *380:8 0.000186813
109 *226:85 *559:10 9.48381e-06
110 *226:85 *607:25 3.81451e-05
111 *226:85 *636:111 0
112 *226:85 *636:117 0
113 *226:85 *731:8 5.26101e-05
114 *226:93 *6249:A0 0.000752298
115 *226:93 *6250:A 0.000184527
116 *226:93 *428:75 7.42621e-05
117 *226:93 *428:84 0.000186205
118 *226:93 *607:25 4.21594e-06
119 *226:93 *636:117 0.000487153
120 *226:93 *731:8 5.86165e-05
121 *226:112 *6541:A 3.70187e-05
122 *226:114 *500:28 0
123 *226:114 *564:27 0.000346225
124 *226:114 *625:51 0
125 *226:131 *5967:A1 7.57281e-06
126 *226:131 *271:18 0.00136341
127 *226:131 *561:25 2.05503e-05
128 *226:131 *712:49 0.00331058
129 *226:133 *227:14 0
130 *226:133 *481:52 0.000111138
131 *226:133 *553:31 0
132 *226:133 *600:23 9.21347e-06
133 *226:133 *658:16 9.04083e-05
134 *226:135 *481:52 0.00010403
135 *226:135 *481:56 0.000103101
136 *226:135 *600:23 4.23714e-05
137 *226:154 *6169:A0 2.4754e-05
138 *226:154 *281:8 4.06849e-05
139 *226:154 *392:10 0.000113211
140 *226:154 *428:121 0.0013974
141 *226:154 *724:43 0.00109318
142 *226:170 *553:31 0
143 *226:170 *561:25 0.000132743
144 *226:183 *6025:S 0.000103773
145 *226:183 *227:14 0
146 *226:183 *237:124 0.00047889
147 *226:183 *363:10 0
148 *226:183 *496:18 0
149 *226:183 *747:12 2.5415e-05
150 *226:200 *227:14 0
151 *226:200 *231:8 0
152 *226:200 *237:124 0.000367038
153 *226:200 *664:10 6.71408e-06
154 *226:204 *5949:A1 5.97612e-05
155 *226:204 *6525:A 8.57735e-05
156 *226:204 *251:8 0.000158613
157 *226:204 *309:82 0
158 *226:204 *312:12 0.000302227
159 *226:204 *625:100 8.51049e-05
160 *226:204 *664:10 0.000124182
161 *226:219 *6028:A 6.29422e-05
162 *226:219 *6120:A1 0
163 *226:219 *309:82 0
164 *226:219 *746:45 0
165 *226:219 *757:97 2.54046e-05
166 *226:227 *5975:A1 0.000132166
167 *226:227 *5975:A3 0
168 *226:227 *6325:CLK 8.85483e-05
169 *226:227 *391:143 0.000238089
170 *226:227 *391:151 3.44001e-05
171 *226:227 *479:14 1.59094e-05
172 *226:227 *495:90 0.00028012
173 *226:227 *495:107 0.00068415
174 *226:227 *595:31 3.32357e-05
175 *226:240 *595:31 0.000184018
176 *226:240 *603:25 7.65564e-05
177 *226:240 *746:45 4.76829e-05
178 *226:240 *757:97 0.000141404
179 *226:244 *5958:A2 7.02841e-05
180 *226:244 *6564:A 9.53602e-05
181 *226:244 *555:14 8.4047e-05
182 *226:244 *603:25 9.49187e-05
183 *226:244 *746:45 0.00059785
184 *226:244 *757:87 0.000188363
185 *226:279 *5948:A0 9.17998e-05
186 *226:279 *5948:A1 3.7122e-06
187 *226:279 *5948:A2 0
188 *226:279 *6240:A 0
189 *226:279 *380:8 0.000376544
190 *226:279 *401:22 0.000108197
191 *226:279 *559:10 2.71489e-05
192 *226:279 *578:10 5.44858e-05
193 *226:279 *737:8 0
194 *226:279 *746:109 0.000167443
195 *226:279 *790:33 0
196 *6271:A1 *6263:B 9.90933e-06
197 *6271:A1 *6271:A2 1.89493e-05
198 *6271:A1 *226:28 4.19743e-05
199 *6271:A1 *226:30 4.04303e-05
200 *6325:D *226:227 9.95543e-06
201 *6429:D *226:227 1.64354e-05
202 *6468:D *226:14 5.67058e-05
203 *140:10 *6260:A 2.30292e-05
204 *142:8 *226:45 7.03869e-05
205 *148:10 *5966:S1 6.68587e-05
206 *151:10 *226:93 3.2439e-05
207 *205:8 *226:45 4.334e-05
208 *216:14 *226:279 0.000377172
209 *216:44 *226:112 0
210 *216:96 *5939:S1 0
211 *216:96 *226:135 0
212 *225:21 *226:85 0
213 *225:27 *226:85 0
214 *225:27 *226:93 0
215 *225:37 *226:93 0
216 *225:58 *5966:S1 8.68903e-05
217 *225:58 *226:112 0.000133563
218 *225:62 *226:112 0.000294309
219 *225:68 *226:114 0
220 *225:79 *226:112 0.000153155
221 *225:121 *226:135 0
222 *225:136 *226:133 0
223 *225:149 *226:183 0
224 *225:160 *226:112 3.3123e-05
225 *225:181 *226:219 0.000108662
226 *225:247 *226:18 0.000288279
227 *225:262 *226:28 5.50049e-05
*RES
1 *5923:X *226:4 23 
2 *226:4 *226:12 38.0993 
3 *226:12 *226:14 16.3436 
4 *226:14 *226:18 8.14071 
5 *226:18 *226:28 44.4379 
6 *226:28 *226:30 1.57429 
7 *226:30 *6271:A2 24.1186 
8 *226:30 *226:43 15.4971 
9 *226:43 *226:45 41.6979 
10 *226:45 *6260:A 41.9771 
11 *226:28 *6263:B 23.4971 
12 *226:18 *6252:B 23 
13 *226:14 *6254:B1 23.8493 
14 *226:4 *226:83 22.8093 
15 *226:83 *226:85 17.4 
16 *226:85 *226:93 37.5371 
17 *226:93 *226:95 15 
18 *226:95 *5966:S1 43.075 
19 *226:95 *226:112 43.0914 
20 *226:112 *226:114 7.89214 
21 *226:114 *5967:S1 38 
22 *226:114 *226:131 24.0272 
23 *226:131 *226:133 9.12464 
24 *226:133 *226:135 5.77929 
25 *226:135 *5939:S1 43.4271 
26 *226:135 *226:154 40.5821 
27 *226:154 *5984:S1 23 
28 *226:133 *5924:S1 38 
29 *226:131 *226:170 3.53179 
30 *226:170 *5940:S1 38 
31 *226:170 *226:183 12.18 
32 *226:183 *5925:S1 39.0979 
33 *226:183 *226:200 44.7486 
34 *226:200 *226:204 10.3468 
35 *226:204 *5949:S1 39.3154 
36 *226:204 *226:219 25.2846 
37 *226:219 *226:227 27.2393 
38 *226:227 *5975:S1 23 
39 *226:219 *226:240 23.0475 
40 *226:240 *226:244 30.8154 
41 *226:244 *5958:S1 23 
42 *226:240 *5957:S1 39.6468 
43 *226:85 *5993:S1 38 
44 *226:83 *226:279 32.1929 
45 *226:279 *5948:S1 23 
*END

*D_NET *227 0.00397945
*CONN
*I *5928:A0 I *D sky130_fd_sc_hd__mux2_1
*I *5924:X O *D sky130_fd_sc_hd__mux4_1
*CAP
1 *5928:A0 0
2 *5924:X 7.96284e-05
3 *227:14 0.00126738
4 *227:8 0.00134701
5 *227:8 *5924:A1 2.93747e-05
6 *227:8 *6236:A 1.76557e-05
7 *227:14 *5928:A1 0.000185434
8 *227:14 *241:14 0
9 *227:14 *363:10 0.000348465
10 *227:14 *364:8 4.48568e-05
11 *227:14 *479:151 0
12 *227:14 *481:18 0.000191148
13 *227:14 *481:29 0
14 *227:14 *481:52 0
15 *227:14 *496:18 8.4047e-05
16 *227:14 *496:35 3.39335e-05
17 *227:14 *553:31 0.000266466
18 *227:14 *584:10 8.4047e-05
19 *227:14 *735:105 0
20 *226:133 *227:14 0
21 *226:183 *227:14 0
22 *226:200 *227:14 0
*RES
1 *5924:X *227:8 39.0979 
2 *227:8 *227:14 39.0286 
3 *227:14 *5928:A0 23 
*END

*D_NET *228 0.000488104
*CONN
*I *5928:A1 I *D sky130_fd_sc_hd__mux2_1
*I *5925:X O *D sky130_fd_sc_hd__mux4_1
*CAP
1 *5928:A1 0.00014516
2 *5925:X 0.00014516
3 *5928:A1 *479:151 6.17437e-06
4 *5928:A1 *496:18 6.17437e-06
5 *227:14 *5928:A1 0.000185434
*RES
1 *5925:X *5928:A1 49.0036 
*END

*D_NET *229 0.00514176
*CONN
*I *5998:S I *D sky130_fd_sc_hd__mux2_1
*I *5927:A I *D sky130_fd_sc_hd__buf_8
*I *5926:Y O *D sky130_fd_sc_hd__inv_2
*CAP
1 *5998:S 0
2 *5927:A 0
3 *5926:Y 7.2476e-05
4 *229:35 0.00145368
5 *229:14 0.000126484
6 *229:6 0.00165264
7 *229:6 *6174:A 9.84794e-05
8 *229:6 *709:185 1.76557e-05
9 *229:14 *709:177 0
10 *229:14 *712:39 5.56203e-05
11 *229:14 *792:45 0
12 *229:35 *5998:A1 4.07999e-05
13 *229:35 *6174:A 5.50106e-05
14 *229:35 *292:18 9.84851e-05
15 *229:35 *479:51 0.00061236
16 *229:35 *709:185 4.21471e-05
17 *229:35 *725:12 0.000213974
18 *229:35 *753:6 0.000491478
19 *5910:S *229:35 4.00355e-05
20 *216:14 *229:35 5.63434e-05
21 *219:10 *229:35 1.40958e-05
*RES
1 *5926:Y *229:6 24.5743 
2 *229:6 *229:14 32.4029 
3 *229:14 *5927:A 23 
4 *229:6 *229:35 31.1543 
5 *229:35 *5998:S 23 
*END

*D_NET *230 0.0628627
*CONN
*I *6258:A I *D sky130_fd_sc_hd__or3_1
*I *6276:A I *D sky130_fd_sc_hd__or4_1
*I *6267:A I *D sky130_fd_sc_hd__and2_1
*I *5968:S I *D sky130_fd_sc_hd__mux2_1
*I *5980:S I *D sky130_fd_sc_hd__mux2_1
*I *5962:S I *D sky130_fd_sc_hd__mux2_1
*I *5933:S I *D sky130_fd_sc_hd__mux2_1
*I *5944:S I *D sky130_fd_sc_hd__mux2_1
*I *5950:S I *D sky130_fd_sc_hd__mux2_1
*I *5928:S I *D sky130_fd_sc_hd__mux2_1
*I *5941:S I *D sky130_fd_sc_hd__mux2_1
*I *5989:S I *D sky130_fd_sc_hd__mux2_1
*I *5959:S I *D sky130_fd_sc_hd__mux2_1
*I *5953:S I *D sky130_fd_sc_hd__mux2_1
*I *5971:S I *D sky130_fd_sc_hd__mux2_1
*I *5977:S I *D sky130_fd_sc_hd__mux2_1
*I *5986:S I *D sky130_fd_sc_hd__mux2_1
*I *5995:S I *D sky130_fd_sc_hd__mux2_1
*I *5927:X O *D sky130_fd_sc_hd__buf_8
*CAP
1 *6258:A 0
2 *6276:A 0
3 *6267:A 0
4 *5968:S 0.000172005
5 *5980:S 0.000454941
6 *5962:S 0
7 *5933:S 0
8 *5944:S 0
9 *5950:S 0
10 *5928:S 3.2572e-05
11 *5941:S 0.000444032
12 *5989:S 0
13 *5959:S 4.41127e-05
14 *5953:S 0
15 *5971:S 0
16 *5977:S 6.32379e-05
17 *5986:S 0
18 *5995:S 0.000198804
19 *5927:X 0.000280869
20 *230:301 0.000390955
21 *230:281 0.000191758
22 *230:271 0.000339446
23 *230:263 0.00141785
24 *230:224 0.000702997
25 *230:211 0.0011855
26 *230:196 0.000544313
27 *230:183 0.00109706
28 *230:157 0.000659522
29 *230:155 0.00166928
30 *230:140 0.00115586
31 *230:128 0.00131087
32 *230:126 0.00118734
33 *230:122 0.00260369
34 *230:111 0.000977972
35 *230:109 0.000993353
36 *230:98 0.00189001
37 *230:91 0.000896661
38 *230:89 0.00119719
39 *230:81 0.00258239
40 *230:66 0.0027749
41 *230:55 0.000802919
42 *230:41 0.00295458
43 *230:37 0.00189661
44 *230:16 0.00331104
45 *230:8 0.00291796
46 *5928:S *479:151 2.93747e-05
47 *5941:S *362:67 0.000237948
48 *5941:S *479:151 6.84987e-06
49 *5941:S *481:18 0
50 *5941:S *481:29 0
51 *5941:S *724:107 0.000161804
52 *5941:S *724:120 0.000678475
53 *5959:S *259:6 3.71251e-05
54 *5968:S *239:180 5.25011e-05
55 *5977:S *5977:A0 9.84794e-05
56 *5977:S *5977:A1 5.22056e-05
57 *5977:S *565:29 1.41077e-05
58 *5980:S *6105:A0 1.57571e-05
59 *5980:S *6105:A1 6.17437e-06
60 *5980:S *276:12 4.06849e-05
61 *5980:S *351:52 2.11066e-05
62 *5980:S *356:10 4.06849e-05
63 *5995:S *6543:A 0
64 *5995:S *290:8 0
65 *5995:S *362:22 2.31209e-05
66 *230:8 *411:26 0
67 *230:8 *709:185 0.000180401
68 *230:8 *709:187 7.95189e-05
69 *230:16 *6130:A1 0.000135547
70 *230:16 *287:20 0.000235424
71 *230:16 *290:8 0
72 *230:16 *362:22 0.000357538
73 *230:16 *479:30 0
74 *230:16 *636:90 0.000188572
75 *230:16 *712:49 0
76 *230:37 *239:180 0.000116409
77 *230:37 *712:49 0.000659298
78 *230:41 *5967:A1 3.9185e-05
79 *230:41 *6595:A 3.884e-05
80 *230:41 *625:51 0.000598901
81 *230:41 *625:66 2.46345e-05
82 *230:55 *5986:A1 0.000281156
83 *230:55 *6146:A0 9.5877e-05
84 *230:55 *6146:A1 5.3304e-05
85 *230:55 *283:10 2.64616e-05
86 *230:55 *372:64 0.000588984
87 *230:66 *6615:A 4.14061e-05
88 *230:66 *232:25 0.000378706
89 *230:66 *232:58 0.000869715
90 *230:66 *273:8 0.000365265
91 *230:66 *309:52 0
92 *230:66 *316:10 2.72055e-05
93 *230:66 *434:10 0
94 *230:66 *495:107 0
95 *230:66 *589:8 2.54046e-05
96 *230:66 *625:66 0.000445811
97 *230:66 *625:82 0
98 *230:66 *746:93 0
99 *230:66 *768:42 0
100 *230:66 *779:156 0
101 *230:81 *6105:A1 0
102 *230:81 *232:58 0.000151898
103 *230:81 *232:69 0.00146193
104 *230:81 *232:278 4.82774e-05
105 *230:81 *233:62 0
106 *230:81 *309:125 0
107 *230:81 *344:10 4.83778e-05
108 *230:81 *565:29 6.4393e-05
109 *230:81 *779:156 0
110 *230:89 *5970:A0 3.83778e-05
111 *230:89 *6160:A1 1.56665e-05
112 *230:89 *6160:S 9.67842e-05
113 *230:89 *232:77 2.35238e-05
114 *230:89 *233:62 0.000653227
115 *230:89 *268:12 5.90383e-05
116 *230:89 *269:8 8.85189e-05
117 *230:89 *270:10 0
118 *230:89 *484:34 0
119 *230:89 *634:6 5.94488e-05
120 *230:98 *6311:A 0.000141954
121 *230:98 *232:101 0.000503155
122 *230:98 *233:167 0.000262864
123 *230:98 *254:8 0.000137651
124 *230:109 *6157:A 8.79775e-05
125 *230:109 *6404:CLK 0
126 *230:109 *233:167 0.000127821
127 *230:109 *298:73 0
128 *230:109 *298:77 0
129 *230:109 *299:8 2.5415e-05
130 *230:109 *382:53 6.58373e-05
131 *230:109 *382:68 2.43903e-05
132 *230:109 *486:57 0
133 *230:122 *259:6 0.00036687
134 *230:122 *485:10 0.000269781
135 *230:126 *5942:S0 2.11131e-05
136 *230:126 *232:167 3.06106e-05
137 *230:126 *233:181 0
138 *230:126 *233:191 0
139 *230:126 *233:212 0.000559115
140 *230:126 *284:16 0
141 *230:126 *319:124 0.000437535
142 *230:126 *329:87 0
143 *230:126 *336:8 8.62783e-05
144 *230:126 *521:22 0.000348465
145 *230:126 *526:35 0.000277714
146 *230:126 *645:10 4.334e-05
147 *230:140 *5989:A1 1.76557e-05
148 *230:140 *6089:S 0.000315857
149 *230:140 *233:212 0
150 *230:140 *237:138 0.000218962
151 *230:140 *284:16 5.81619e-05
152 *230:140 *477:8 3.10276e-05
153 *230:140 *482:76 5.67058e-05
154 *230:140 *518:25 0.000411632
155 *230:140 *625:192 0
156 *230:140 *735:117 0
157 *230:155 *5989:A1 5.70419e-05
158 *230:155 *6110:A 0.00023881
159 *230:155 *482:76 0.000126774
160 *230:155 *482:93 1.4345e-05
161 *230:157 *479:151 1.69668e-05
162 *230:157 *482:18 4.75381e-05
163 *230:157 *482:29 7.30978e-05
164 *230:157 *724:120 0.000429611
165 *230:183 *5950:A1 3.32489e-05
166 *230:183 *6384:CLK 0.000125404
167 *230:183 *309:101 0.000172924
168 *230:183 *470:34 0.000110155
169 *230:183 *482:29 6.88819e-05
170 *230:183 *482:42 2.82275e-05
171 *230:183 *724:120 0.00030179
172 *230:196 *6089:S 0.000639088
173 *230:196 *231:22 4.23817e-05
174 *230:196 *351:119 0.000138727
175 *230:211 *5933:A0 0.000132166
176 *230:211 *6549:A 0.000355023
177 *230:211 *233:181 0
178 *230:211 *235:14 2.93747e-05
179 *230:211 *259:18 0
180 *230:211 *329:85 1.62615e-05
181 *230:211 *329:87 1.19796e-05
182 *230:211 *330:10 0.000169361
183 *230:211 *520:22 9.67842e-05
184 *230:211 *724:164 0.000189173
185 *230:224 *6103:S 0
186 *230:224 *6373:CLK 0.000305429
187 *230:224 *6549:A 4.2573e-05
188 *230:224 *235:14 2.64616e-05
189 *230:224 *237:175 0.000249918
190 *230:224 *262:8 0
191 *230:224 *351:109 0
192 *230:224 *351:111 0
193 *230:224 *507:12 0.000277714
194 *230:263 *6256:A 0.000349633
195 *230:263 *6467:RESET_B 2.26011e-05
196 *230:263 *239:6 0.000135661
197 *230:271 *6253:B 0.000154046
198 *230:271 *239:6 2.64616e-05
199 *230:271 *239:10 0.00011569
200 *230:281 *6267:B 0.00018613
201 *230:281 *6269:A0 1.94693e-05
202 *230:281 *437:12 0.000188926
203 *230:281 *680:18 0.000284811
204 *230:301 *6253:A 6.25829e-05
205 *230:301 *6258:B 0.000140958
206 *230:301 *6258:C 0
207 *230:301 *239:117 0.000397734
208 *230:301 *439:10 0.000104133
209 *230:301 *441:8 0.000140958
210 *230:301 *713:8 0
211 *6392:D *230:55 4.79641e-05
212 *6418:D *230:55 5.90675e-06
213 *6470:D *230:301 0
214 *16:5 *230:109 0.000370474
215 *43:10 *230:109 0.000167443
216 *57:8 *230:66 0.000137222
217 *73:10 *230:126 0.000178775
218 *78:8 *230:224 8.43562e-05
219 *85:8 *230:89 0
220 *109:8 *230:109 0.000191157
221 *153:10 *230:263 5.41288e-05
222 *216:122 *230:66 8.93663e-05
223 *225:245 *230:301 0
224 *225:262 *230:281 0.000188926
*RES
1 *5927:X *230:8 44.6596 
2 *230:8 *230:16 25.4243 
3 *230:16 *5995:S 40.4339 
4 *230:16 *230:37 38.2059 
5 *230:37 *230:41 23.5964 
6 *230:41 *230:55 29.6657 
7 *230:55 *5986:S 23 
8 *230:41 *230:66 41.5321 
9 *230:66 *5977:S 40.0921 
10 *230:66 *230:81 23.3864 
11 *230:81 *230:89 48.56 
12 *230:89 *230:91 15 
13 *230:91 *5971:S 23 
14 *230:91 *230:98 20.155 
15 *230:98 *5953:S 23 
16 *230:98 *230:109 36.7914 
17 *230:109 *230:111 15 
18 *230:111 *5959:S 24.0979 
19 *230:111 *230:122 18.27 
20 *230:122 *230:126 44.725 
21 *230:126 *230:128 15 
22 *230:128 *230:140 44.3757 
23 *230:140 *5989:S 23 
24 *230:140 *230:155 23.9071 
25 *230:155 *230:157 5.77929 
26 *230:157 *5941:S 49.4136 
27 *230:157 *5928:S 38.6214 
28 *230:155 *230:183 33.3529 
29 *230:183 *5950:S 23 
30 *230:128 *230:196 39.1971 
31 *230:196 *5944:S 23 
32 *230:122 *230:211 43.0914 
33 *230:211 *5933:S 23 
34 *230:211 *230:224 45.2043 
35 *230:224 *5962:S 23 
36 *230:81 *5980:S 46.7207 
37 *230:37 *5968:S 25.5479 
38 *230:8 *230:263 31.5507 
39 *230:263 *230:271 3.48 
40 *230:271 *230:281 36.1107 
41 *230:281 *6267:A 23 
42 *230:271 *6276:A 23 
43 *230:263 *230:301 39.715 
44 *230:301 *6258:A 23 
*END

*D_NET *231 0.00972818
*CONN
*I *5935:A0 I *D sky130_fd_sc_hd__mux2_1
*I *5928:X O *D sky130_fd_sc_hd__mux2_1
*CAP
1 *5935:A0 0
2 *5928:X 0.000173701
3 *231:22 0.00134056
4 *231:18 0.00186181
5 *231:12 0.00211012
6 *231:8 0.00176258
7 *231:8 *482:18 0
8 *231:8 *482:29 0
9 *231:12 *6165:A 2.30292e-05
10 *231:12 *6346:CLK 8.65442e-05
11 *231:12 *6574:A 4.93341e-05
12 *231:12 *382:96 5.83407e-05
13 *231:12 *742:6 8.71938e-05
14 *231:18 *243:14 0
15 *231:18 *351:119 0
16 *231:18 *351:133 2.33476e-05
17 *231:18 *353:10 0.000347884
18 *231:18 *470:52 0
19 *231:18 *622:8 0.000117334
20 *231:22 *237:163 0.00112054
21 *231:22 *243:14 0
22 *231:22 *244:8 0.000100283
23 *231:22 *331:8 0.000140958
24 *231:22 *351:111 0
25 *231:22 *351:119 0
26 *231:22 *545:16 0
27 *231:22 *678:8 0.00016815
28 *231:22 *724:179 0
29 *84:8 *231:18 0.000114092
30 *226:200 *231:8 0
31 *230:196 *231:22 4.23817e-05
*RES
1 *5928:X *231:8 40.9621 
2 *231:8 *231:12 36.1079 
3 *231:12 *231:18 26.4032 
4 *231:18 *231:22 47.8218 
5 *231:22 *5935:A0 23 
*END

*D_NET *232 0.0643955
*CONN
*I *5985:S0 I *D sky130_fd_sc_hd__mux4_1
*I *5978:S0 I *D sky130_fd_sc_hd__mux4_1
*I *5996:S0 I *D sky130_fd_sc_hd__mux4_1
*I *5979:S0 I *D sky130_fd_sc_hd__mux4_1
*I *5970:S0 I *D sky130_fd_sc_hd__mux4_1
*I *5969:S0 I *D sky130_fd_sc_hd__mux4_1
*I *5960:S0 I *D sky130_fd_sc_hd__mux4_1
*I *5961:S0 I *D sky130_fd_sc_hd__mux4_1
*I *5931:S0 I *D sky130_fd_sc_hd__mux4_1
*I *5987:S0 I *D sky130_fd_sc_hd__mux4_1
*I *5943:S0 I *D sky130_fd_sc_hd__mux4_1
*I *5932:S0 I *D sky130_fd_sc_hd__mux4_1
*I *5942:S0 I *D sky130_fd_sc_hd__mux4_1
*I *5951:S0 I *D sky130_fd_sc_hd__mux4_1
*I *5952:S0 I *D sky130_fd_sc_hd__mux4_1
*I *5976:S0 I *D sky130_fd_sc_hd__mux4_1
*I *5988:S0 I *D sky130_fd_sc_hd__mux4_1
*I *5994:S0 I *D sky130_fd_sc_hd__mux4_1
*I *5929:X O *D sky130_fd_sc_hd__buf_8
*CAP
1 *5985:S0 0.000239208
2 *5978:S0 0.000567831
3 *5996:S0 1.50079e-05
4 *5979:S0 4.59515e-05
5 *5970:S0 0
6 *5969:S0 0
7 *5960:S0 3.04956e-05
8 *5961:S0 0
9 *5931:S0 0
10 *5987:S0 1.50079e-05
11 *5943:S0 0.000206592
12 *5932:S0 0.000244795
13 *5942:S0 4.65039e-05
14 *5951:S0 3.41083e-05
15 *5952:S0 0.000179814
16 *5976:S0 1.50079e-05
17 *5988:S0 0
18 *5994:S0 0
19 *5929:X 0
20 *232:305 0.00111192
21 *232:289 0.0020292
22 *232:278 0.000996789
23 *232:258 0.000483726
24 *232:240 0.000846763
25 *232:192 0.00156509
26 *232:184 0.00214681
27 *232:167 0.00169967
28 *232:157 0.00188748
29 *232:151 0.00130805
30 *232:143 0.00202605
31 *232:141 0.00192816
32 *232:118 0.00175693
33 *232:103 0.000715439
34 *232:101 0.00138784
35 *232:85 0.00199807
36 *232:81 0.000172552
37 *232:77 0.000660065
38 *232:69 0.00200614
39 *232:58 0.00209419
40 *232:47 0.00203788
41 *232:39 0.00242779
42 *232:25 0.00199271
43 *232:21 0.00232946
44 *232:12 0.000285154
45 *232:4 0.00204603
46 *5932:S0 *5932:A1 0.00011807
47 *5942:S0 *233:212 1.01436e-05
48 *5943:S0 *245:6 8.77182e-05
49 *5943:S0 *339:91 0.000196293
50 *5943:S0 *609:28 0.000191628
51 *5951:S0 *522:20 7.52566e-05
52 *5951:S0 *538:27 1.14762e-05
53 *5952:S0 *5952:A2 9.84851e-05
54 *5952:S0 *5952:A3 0
55 *5952:S0 *5952:S1 0
56 *5952:S0 *351:99 0.00010018
57 *5952:S0 *610:12 1.19796e-05
58 *5952:S0 *746:31 0
59 *5960:S0 *5960:A3 0.000185434
60 *5960:S0 *531:16 0.000185434
61 *5976:S0 *233:45 5.50049e-05
62 *5976:S0 *573:18 5.50049e-05
63 *5978:S0 *5979:S1 4.99865e-05
64 *5978:S0 *6014:S 0
65 *5978:S0 *233:106 4.09054e-05
66 *5978:S0 *298:33 0
67 *5978:S0 *335:8 0
68 *5978:S0 *460:31 0.000194318
69 *5978:S0 *549:29 2.08324e-05
70 *5985:S0 *5985:A0 0.000141519
71 *5985:S0 *566:27 3.70553e-06
72 *5987:S0 *5987:A3 5.50049e-05
73 *5987:S0 *542:27 5.50049e-05
74 *5996:S0 *5996:A2 5.50049e-05
75 *5996:S0 *535:18 5.50049e-05
76 *232:12 *428:65 0.000427667
77 *232:12 *503:16 1.01436e-05
78 *232:12 *559:10 0
79 *232:12 *737:8 4.91627e-05
80 *232:12 *790:33 0.000134929
81 *232:12 *790:46 8.34394e-05
82 *232:21 *6400:CLK 0.000123517
83 *232:21 *6506:A 1.94812e-05
84 *232:21 *489:14 1.05235e-05
85 *232:21 *489:21 7.44161e-06
86 *232:21 *566:27 1.04148e-05
87 *232:21 *790:46 6.51763e-05
88 *232:25 *233:35 0
89 *232:25 *558:12 0.000567084
90 *232:39 *5985:A3 4.61838e-05
91 *232:39 *6630:A 7.27085e-05
92 *232:39 *309:52 0.000180218
93 *232:39 *316:10 5.67058e-05
94 *232:39 *558:12 3.58084e-06
95 *232:39 *768:44 9.61094e-05
96 *232:47 *284:16 9.02578e-05
97 *232:47 *470:34 0.00352273
98 *232:47 *518:25 1.83223e-05
99 *232:47 *669:14 0.000595958
100 *232:58 *233:35 0.000286724
101 *232:69 *6572:A 0
102 *232:69 *275:10 0
103 *232:69 *501:24 0
104 *232:69 *557:18 0
105 *232:69 *663:8 0
106 *232:69 *722:8 0
107 *232:69 *740:10 0
108 *232:77 *6105:A1 0.000187986
109 *232:77 *233:62 6.12551e-05
110 *232:77 *516:16 0
111 *232:77 *768:32 0
112 *232:77 *768:36 1.59094e-05
113 *232:77 *768:38 9.03784e-05
114 *232:81 *5970:A0 7.88926e-05
115 *232:81 *351:75 5.12328e-05
116 *232:85 *351:75 1.70886e-05
117 *232:85 *768:32 9.03979e-05
118 *232:101 *270:8 5.50049e-05
119 *232:101 *620:6 5.3304e-05
120 *232:101 *620:14 0.000265477
121 *232:118 *5952:S1 0
122 *232:118 *6490:CLK 0
123 *232:118 *233:150 0
124 *232:118 *473:8 0
125 *232:118 *530:16 9.48381e-06
126 *232:118 *744:8 0
127 *232:118 *757:50 0
128 *232:141 *5960:A3 0.000267178
129 *232:141 *6294:A0 0.000180224
130 *232:141 *6294:S 0.0001096
131 *232:141 *6295:A 0.000182793
132 *232:141 *252:10 5.12254e-05
133 *232:141 *319:105 0
134 *232:141 *486:93 9.58714e-05
135 *232:141 *522:20 0.000209415
136 *232:141 *523:26 3.93338e-05
137 *232:141 *538:27 7.44642e-05
138 *232:143 *233:171 0
139 *232:143 *233:306 0
140 *232:143 *319:105 6.38388e-05
141 *232:143 *486:34 2.3529e-05
142 *232:143 *528:10 0.000129504
143 *232:143 *539:27 0
144 *232:143 *637:8 8.62876e-05
145 *232:151 *5931:A3 6.53382e-05
146 *232:151 *233:171 0
147 *232:151 *233:175 4.23714e-05
148 *232:151 *486:34 0.000168914
149 *232:151 *520:22 5.62237e-06
150 *232:151 *528:10 1.01436e-05
151 *232:151 *528:26 0
152 *232:151 *536:23 7.02666e-06
153 *232:157 *5931:A3 5.3304e-05
154 *232:157 *6053:A1 0.000182428
155 *232:157 *6502:A 6.93449e-05
156 *232:157 *319:109 0.000170506
157 *232:157 *460:78 0
158 *232:157 *460:80 0
159 *232:157 *479:238 0.000111106
160 *232:157 *485:10 0
161 *232:157 *526:22 0.000384169
162 *232:157 *528:26 1.01436e-05
163 *232:157 *534:31 0.000140558
164 *232:157 *625:142 3.69935e-05
165 *232:157 *661:8 0.000188916
166 *232:157 *724:151 6.75116e-05
167 *232:167 *6290:S 0
168 *232:167 *6355:CLK 0.000107651
169 *232:167 *237:163 0
170 *232:167 *319:124 0.000272321
171 *232:167 *485:90 2.70366e-05
172 *232:167 *521:22 4.33731e-05
173 *232:167 *526:22 4.6318e-06
174 *232:167 *537:29 3.97374e-05
175 *232:167 *625:142 0.000119921
176 *232:167 *645:10 8.62876e-05
177 *232:167 *653:8 0.000110913
178 *232:184 *5942:A3 6.99782e-05
179 *232:184 *6089:S 0.000569799
180 *232:184 *233:212 0.000189693
181 *232:184 *237:150 0.000214862
182 *232:184 *243:14 0.000208941
183 *232:184 *245:6 3.71369e-05
184 *232:184 *339:91 9.0102e-05
185 *232:184 *537:29 5.11935e-06
186 *232:184 *545:16 0.000134585
187 *232:184 *622:45 1.32314e-05
188 *232:192 *245:14 8.0139e-05
189 *232:192 *339:75 0
190 *232:192 *339:91 0
191 *232:192 *341:8 4.334e-05
192 *232:192 *351:111 0.000221172
193 *232:192 *351:119 2.96154e-05
194 *232:192 *470:56 0
195 *232:192 *504:12 0
196 *232:192 *521:33 0.000277714
197 *232:192 *608:12 0
198 *232:192 *643:12 4.334e-05
199 *232:192 *735:170 0.000259974
200 *232:240 *261:8 0.000119315
201 *232:240 *351:109 0.000215589
202 *232:240 *619:16 0.000150056
203 *232:258 *233:81 0
204 *232:258 *334:10 0
205 *232:258 *484:56 0.000580598
206 *232:258 *484:69 0.000222113
207 *232:258 *548:29 1.44546e-05
208 *232:258 *768:32 0.0001642
209 *232:258 *777:8 0
210 *232:278 *5979:S1 9.47917e-06
211 *232:278 *351:52 0.000336545
212 *232:278 *479:188 0.000394647
213 *232:278 *492:8 0
214 *232:289 *5979:S1 0.000149227
215 *232:289 *6493:CLK 0
216 *232:305 *319:12 6.93449e-05
217 *232:305 *337:8 0
218 *232:305 *535:18 9.48381e-06
219 *232:305 *621:16 2.54044e-05
220 *6352:D *232:39 4.9346e-05
221 *6400:D *232:21 2.80263e-05
222 *6493:D *232:305 3.24476e-06
223 *32:8 *232:58 0.000166513
224 *56:8 *232:69 0
225 *71:10 *232:258 0
226 *74:10 *232:305 0.000141052
227 *86:10 *232:240 3.22879e-05
228 *175:8 *232:118 0.000166513
229 *178:8 *232:289 5.21024e-05
230 *216:122 *232:58 0.000190218
231 *226:85 *232:12 0
232 *230:66 *232:25 0.000378706
233 *230:66 *232:58 0.000869715
234 *230:81 *232:58 0.000151898
235 *230:81 *232:69 0.00146193
236 *230:81 *232:278 4.82774e-05
237 *230:89 *232:77 2.35238e-05
238 *230:98 *232:101 0.000503155
239 *230:126 *5942:S0 2.11131e-05
240 *230:126 *232:167 3.06106e-05
*RES
1 *5929:X *232:4 23 
2 *232:4 *232:12 37.3536 
3 *232:12 *5994:S0 23 
4 *232:4 *232:21 23.3864 
5 *232:21 *232:25 25.3571 
6 *232:25 *232:39 45.4054 
7 *232:39 *232:47 31.9898 
8 *232:47 *5988:S0 23 
9 *232:25 *232:58 30.4914 
10 *232:58 *5976:S0 38.6214 
11 *232:58 *232:69 19.5129 
12 *232:69 *232:77 39.5286 
13 *232:77 *232:81 16.5743 
14 *232:81 *232:85 17.61 
15 *232:85 *232:101 38.0343 
16 *232:101 *232:103 15 
17 *232:103 *5952:S0 41.7079 
18 *232:103 *232:118 24.3007 
19 *232:118 *5951:S0 24.1186 
20 *232:118 *232:141 39.5464 
21 *232:141 *232:143 13.5264 
22 *232:143 *232:151 23.0993 
23 *232:151 *232:157 36.5429 
24 *232:157 *232:167 47.9696 
25 *232:167 *5942:S0 39.2946 
26 *232:167 *232:184 32.0168 
27 *232:184 *232:192 44.0829 
28 *232:192 *5932:S0 42.9093 
29 *232:184 *5943:S0 29.0486 
30 *232:157 *5987:S0 38.6214 
31 *232:151 *5931:S0 23 
32 *232:143 *232:240 32.1514 
33 *232:240 *5961:S0 23 
34 *232:141 *5960:S0 40.0507 
35 *232:85 *232:258 27.1179 
36 *232:258 *5969:S0 23 
37 *232:81 *5970:S0 23 
38 *232:69 *232:278 19.5491 
39 *232:278 *5979:S0 38.6214 
40 *232:278 *232:289 6.65964 
41 *232:289 *232:305 46.4989 
42 *232:305 *5996:S0 38.6214 
43 *232:289 *5978:S0 49.2996 
44 *232:21 *5985:S0 26.5007 
*END

*D_NET *233 0.0571775
*CONN
*I *5985:S1 I *D sky130_fd_sc_hd__mux4_1
*I *5960:S1 I *D sky130_fd_sc_hd__mux4_1
*I *5932:S1 I *D sky130_fd_sc_hd__mux4_1
*I *5943:S1 I *D sky130_fd_sc_hd__mux4_1
*I *5961:S1 I *D sky130_fd_sc_hd__mux4_1
*I *5931:S1 I *D sky130_fd_sc_hd__mux4_1
*I *5987:S1 I *D sky130_fd_sc_hd__mux4_1
*I *5988:S1 I *D sky130_fd_sc_hd__mux4_1
*I *5942:S1 I *D sky130_fd_sc_hd__mux4_1
*I *5952:S1 I *D sky130_fd_sc_hd__mux4_1
*I *5951:S1 I *D sky130_fd_sc_hd__mux4_1
*I *5978:S1 I *D sky130_fd_sc_hd__mux4_1
*I *5996:S1 I *D sky130_fd_sc_hd__mux4_1
*I *5979:S1 I *D sky130_fd_sc_hd__mux4_1
*I *5969:S1 I *D sky130_fd_sc_hd__mux4_1
*I *5970:S1 I *D sky130_fd_sc_hd__mux4_1
*I *5976:S1 I *D sky130_fd_sc_hd__mux4_1
*I *5994:S1 I *D sky130_fd_sc_hd__mux4_1
*I *5930:X O *D sky130_fd_sc_hd__buf_6
*CAP
1 *5985:S1 0
2 *5960:S1 0
3 *5932:S1 5.25882e-05
4 *5943:S1 0
5 *5961:S1 0
6 *5931:S1 6.25105e-05
7 *5987:S1 2.60324e-05
8 *5988:S1 0
9 *5942:S1 0.000132289
10 *5952:S1 0.00019516
11 *5951:S1 3.1805e-05
12 *5978:S1 0
13 *5996:S1 0
14 *5979:S1 0.000467458
15 *5969:S1 0
16 *5970:S1 0
17 *5976:S1 0
18 *5994:S1 0
19 *5930:X 2.95294e-05
20 *233:321 0.000793904
21 *233:306 0.000536184
22 *233:274 0.00154994
23 *233:264 0.00244037
24 *233:253 0.000140329
25 *233:247 0.0016555
26 *233:212 0.000668158
27 *233:191 0.0013452
28 *233:181 0.0016468
29 *233:175 0.00134467
30 *233:171 0.00133587
31 *233:169 0.000988585
32 *233:167 0.00123918
33 *233:150 0.00182719
34 *233:139 0.00219881
35 *233:123 0.000772962
36 *233:106 0.00173175
37 *233:98 0.00182609
38 *233:92 0.00314631
39 *233:81 0.000749075
40 *233:66 0.000825162
41 *233:62 0.00131624
42 *233:45 0.00155575
43 *233:35 0.00238819
44 *233:33 0.0020352
45 *233:31 0.00181362
46 *233:14 0.00016856
47 *233:6 0.00121781
48 *5931:S1 *520:22 3.52383e-05
49 *5932:S1 *5932:A1 3.71251e-05
50 *5942:S1 *5942:A1 0.000214553
51 *5942:S1 *537:29 2.50451e-05
52 *5942:S1 *645:10 8.59625e-05
53 *5952:S1 *5952:A3 0
54 *5952:S1 *254:10 3.54495e-05
55 *5952:S1 *473:8 4.6318e-06
56 *5952:S1 *618:22 6.79006e-05
57 *5979:S1 *470:96 0
58 *5979:S1 *476:8 0.000351617
59 *5979:S1 *779:43 0
60 *5979:S1 *779:54 6.85338e-05
61 *5987:S1 *6071:A1 6.07611e-06
62 *5987:S1 *284:16 1.23172e-05
63 *5987:S1 *542:27 2.60152e-05
64 *233:6 *791:50 5.50049e-05
65 *233:14 *362:22 7.7377e-05
66 *233:14 *401:36 4.96717e-05
67 *233:14 *636:84 0.000240341
68 *233:31 *372:72 0.000788866
69 *233:31 *379:10 5.67058e-05
70 *233:31 *489:14 0.000145471
71 *233:31 *559:10 0.000103297
72 *233:31 *791:50 0.000125213
73 *233:35 *5975:A2 0.000346225
74 *233:35 *6626:A 0.000272321
75 *233:35 *237:84 0
76 *233:35 *275:10 0
77 *233:35 *379:10 0
78 *233:35 *391:143 0.000136486
79 *233:35 *489:83 0
80 *233:35 *558:12 0.000164201
81 *233:35 *565:10 0
82 *233:35 *566:12 4.334e-05
83 *233:35 *672:8 0
84 *233:35 *779:79 0
85 *233:35 *779:81 0
86 *233:45 *565:29 4.23343e-05
87 *233:45 *573:18 9.0102e-05
88 *233:45 *779:156 1.80023e-05
89 *233:62 *6160:A1 0.000182826
90 *233:62 *309:125 0.000194318
91 *233:62 *344:10 6.68793e-05
92 *233:62 *768:36 0.000268074
93 *233:62 *768:38 0
94 *233:62 *768:42 0
95 *233:62 *779:156 0.000248198
96 *233:66 *6160:S 1.01436e-05
97 *233:66 *270:10 5.65617e-05
98 *233:66 *508:35 4.6318e-06
99 *233:66 *516:16 4.90891e-05
100 *233:66 *768:32 0
101 *233:81 *5969:A0 3.47776e-05
102 *233:81 *6553:A 0.000110116
103 *233:81 *268:12 0
104 *233:81 *270:10 5.55541e-05
105 *233:81 *334:10 0.000164833
106 *233:81 *508:35 4.56677e-05
107 *233:81 *620:25 0.000274553
108 *233:81 *768:32 0
109 *233:92 *334:10 9.26005e-05
110 *233:98 *5969:A0 6.51384e-06
111 *233:98 *5969:A2 0.000505647
112 *233:98 *5978:A0 0.00015428
113 *233:98 *540:6 5.50049e-05
114 *233:106 *335:8 0.000166513
115 *233:106 *779:33 0.000262606
116 *233:106 *779:43 0
117 *233:123 *292:8 7.15126e-05
118 *233:123 *493:35 5.37348e-06
119 *233:139 *5969:A0 1.17821e-05
120 *233:139 *6364:CLK 0.000186349
121 *233:139 *329:70 0.000131087
122 *233:139 *522:20 4.83778e-05
123 *233:139 *773:10 8.08139e-06
124 *233:150 *6613:A 8.72881e-05
125 *233:150 *252:10 0
126 *233:150 *329:70 7.8128e-05
127 *233:150 *473:8 0.000181034
128 *233:150 *522:20 2.89463e-05
129 *233:150 *618:22 6.43143e-05
130 *233:171 *329:85 0
131 *233:171 *355:8 0
132 *233:171 *662:8 8.62876e-05
133 *233:171 *724:164 0
134 *233:175 *259:18 4.6318e-06
135 *233:175 *486:34 0
136 *233:175 *724:164 0
137 *233:181 *6053:A1 0
138 *233:181 *6071:A1 7.21872e-05
139 *233:181 *259:18 0.000133962
140 *233:181 *319:109 0
141 *233:181 *485:10 0
142 *233:181 *485:14 0
143 *233:181 *486:10 0
144 *233:181 *486:34 0
145 *233:181 *534:12 7.56417e-05
146 *233:181 *536:23 0.000135252
147 *233:181 *654:8 2.5415e-05
148 *233:191 *5942:A1 0.000146821
149 *233:191 *6006:A0 9.11748e-05
150 *233:191 *6291:A 0
151 *233:191 *284:16 0.000765071
152 *233:191 *521:22 0.00010018
153 *233:191 *675:8 0
154 *233:212 *6319:A 0.000148678
155 *233:212 *237:138 0
156 *233:212 *237:150 0.000288521
157 *233:212 *243:14 0
158 *233:212 *482:93 0.000184259
159 *233:212 *614:35 0.000113719
160 *233:212 *622:45 4.74706e-05
161 *233:212 *625:192 0.000237628
162 *233:247 *6373:CLK 6.98383e-05
163 *233:247 *263:18 0.000530627
164 *233:247 *339:63 0.000460705
165 *233:247 *515:10 5.67058e-05
166 *233:247 *724:164 0.000314157
167 *233:253 *6083:S 0
168 *233:253 *515:10 0
169 *233:264 *235:10 0.000215822
170 *233:264 *263:18 0.000259146
171 *233:264 *382:74 0
172 *233:264 *512:12 0
173 *233:264 *642:8 0
174 *233:274 *245:6 3.52383e-05
175 *233:274 *382:74 0
176 *233:274 *382:80 4.21594e-06
177 *233:274 *504:31 0
178 *233:274 *512:12 0
179 *233:274 *642:8 0
180 *233:274 *724:206 4.58924e-05
181 *233:274 *735:162 0.000326799
182 *233:306 *260:8 0
183 *233:306 *329:85 6.44678e-05
184 *233:306 *333:10 0
185 *233:306 *355:8 9.8459e-05
186 *233:306 *531:16 3.3123e-05
187 *233:306 *539:27 6.09811e-05
188 *233:321 *5985:A0 4.67488e-05
189 *233:321 *362:51 0.000136486
190 *233:321 *372:30 0
191 *233:321 *372:64 0.00023005
192 *233:321 *372:72 2.4754e-05
193 *5942:S0 *233:212 1.01436e-05
194 *5952:S0 *5952:S1 0
195 *5976:S0 *233:45 5.50049e-05
196 *5978:S0 *5979:S1 4.99865e-05
197 *5978:S0 *233:106 4.09054e-05
198 *6342:D *233:98 9.18194e-05
199 *6364:D *233:139 2.13733e-05
200 *6373:D *233:247 1.64354e-05
201 *6392:D *233:321 8.44742e-05
202 *16:5 *233:139 0
203 *32:8 *233:35 5.26101e-05
204 *36:8 *233:274 3.81391e-05
205 *45:10 *233:139 5.26733e-06
206 *67:10 *233:181 0.000169674
207 *73:10 *233:181 0.000518082
208 *73:10 *233:191 0
209 *86:10 *233:171 8.41012e-05
210 *129:8 *233:35 0
211 *222:8 *233:35 3.46954e-05
212 *230:81 *233:62 0
213 *230:89 *233:62 0.000653227
214 *230:98 *233:167 0.000262864
215 *230:109 *233:167 0.000127821
216 *230:126 *233:181 0
217 *230:126 *233:191 0
218 *230:126 *233:212 0.000559115
219 *230:140 *233:212 0
220 *230:211 *233:181 0
221 *232:25 *233:35 0
222 *232:58 *233:35 0.000286724
223 *232:77 *233:62 6.12551e-05
224 *232:118 *5952:S1 0
225 *232:118 *233:150 0
226 *232:143 *233:171 0
227 *232:143 *233:306 0
228 *232:151 *233:171 0
229 *232:151 *233:175 4.23714e-05
230 *232:184 *233:212 0.000189693
231 *232:258 *233:81 0
232 *232:278 *5979:S1 9.47917e-06
233 *232:289 *5979:S1 0.000149227
*RES
1 *5930:X *233:6 23.6214 
2 *233:6 *233:14 34.4121 
3 *233:14 *5994:S1 23 
4 *233:6 *233:31 20.3829 
5 *233:31 *233:33 15 
6 *233:33 *233:35 40.9936 
7 *233:35 *233:45 35.3029 
8 *233:45 *5976:S1 38 
9 *233:45 *233:62 43.6271 
10 *233:62 *233:66 17.61 
11 *233:66 *5970:S1 38 
12 *233:66 *233:81 15.2664 
13 *233:81 *5969:S1 38 
14 *233:81 *233:92 16.2014 
15 *233:92 *233:98 19.72 
16 *233:98 *233:106 25.7921 
17 *233:106 *5979:S1 48.0464 
18 *233:106 *233:123 28.0293 
19 *233:123 *5996:S1 23 
20 *233:98 *5978:S1 23 
21 *233:92 *233:139 39.7743 
22 *233:139 *5951:S1 38.6214 
23 *233:139 *233:150 8.94857 
24 *233:150 *5952:S1 41.8529 
25 *233:150 *233:167 36.5843 
26 *233:167 *233:169 15 
27 *233:169 *233:171 8.59643 
28 *233:171 *233:175 3.70786 
29 *233:175 *233:181 23.2932 
30 *233:181 *233:191 29.7796 
31 *233:191 *5942:S1 27.6193 
32 *233:191 *233:212 46.8821 
33 *233:212 *5988:S1 23 
34 *233:181 *5987:S1 39.0254 
35 *233:175 *5931:S1 39.0979 
36 *233:171 *233:247 32.6279 
37 *233:247 *233:253 32.2579 
38 *233:253 *5961:S1 23 
39 *233:247 *233:264 32.5864 
40 *233:264 *233:274 45.1807 
41 *233:274 *5943:S1 23 
42 *233:264 *5932:S1 39.0979 
43 *233:169 *233:306 27.5114 
44 *233:306 *5960:S1 23 
45 *233:31 *233:321 41.7243 
46 *233:321 *5985:S1 23 
*END

*D_NET *234 0.00104937
*CONN
*I *5933:A0 I *D sky130_fd_sc_hd__mux2_1
*I *5931:X O *D sky130_fd_sc_hd__mux4_1
*CAP
1 *5933:A0 0.000341857
2 *5931:X 5.94775e-05
3 *234:8 0.000401335
4 *5933:A0 *520:22 2.8258e-05
5 *234:8 *520:22 8.62783e-05
6 *234:8 *724:164 0
7 *230:211 *5933:A0 0.000132166
*RES
1 *5931:X *234:8 39.2014 
2 *234:8 *5933:A0 42.9093 
*END

*D_NET *235 0.00312227
*CONN
*I *5933:A1 I *D sky130_fd_sc_hd__mux2_1
*I *5932:X O *D sky130_fd_sc_hd__mux4_1
*CAP
1 *5933:A1 0
2 *5932:X 0.000356033
3 *235:14 0.000882482
4 *235:10 0.00123852
5 *235:10 *5932:A1 2.19998e-05
6 *235:10 *6639:A 2.70366e-05
7 *235:10 *382:74 0.000134276
8 *235:10 *639:8 4.08641e-05
9 *235:10 *642:8 0.000114092
10 *235:14 *6549:A 3.53115e-05
11 *230:211 *235:14 2.93747e-05
12 *230:224 *235:14 2.64616e-05
13 *233:264 *235:10 0.000215822
*RES
1 *5932:X *235:10 47.6943 
2 *235:10 *235:14 28.9614 
3 *235:14 *5933:A1 23 
*END

*D_NET *236 0.000721479
*CONN
*I *5935:A1 I *D sky130_fd_sc_hd__mux2_1
*I *5933:X O *D sky130_fd_sc_hd__mux2_1
*CAP
1 *5935:A1 4.91734e-05
2 *5933:X 8.0354e-05
3 *236:8 0.000129527
4 *5935:A1 *6370:CLK 4.79544e-05
5 *5935:A1 *237:169 0.00014196
6 *5935:A1 *238:12 0.000128401
7 *236:8 *237:175 0
8 *236:8 *329:85 0.00014411
*RES
1 *5933:X *236:8 39.9057 
2 *236:8 *5935:A1 40.5271 
*END

*D_NET *237 0.0436629
*CONN
*I *5999:S I *D sky130_fd_sc_hd__mux2_1
*I *5990:S I *D sky130_fd_sc_hd__mux2_1
*I *5954:S I *D sky130_fd_sc_hd__mux2_1
*I *5935:S I *D sky130_fd_sc_hd__mux2_1
*I *5963:S I *D sky130_fd_sc_hd__mux2_1
*I *5945:S I *D sky130_fd_sc_hd__mux2_1
*I *5972:S I *D sky130_fd_sc_hd__mux2_1
*I *5981:S I *D sky130_fd_sc_hd__mux2_1
*I *6259:A I *D sky130_fd_sc_hd__xnor2_1
*I *6268:A I *D sky130_fd_sc_hd__xnor2_1
*I *6275:A I *D sky130_fd_sc_hd__inv_2
*I *6271:B1 I *D sky130_fd_sc_hd__a31o_1
*I *5934:X O *D sky130_fd_sc_hd__clkbuf_8
*CAP
1 *5999:S 0
2 *5990:S 0
3 *5954:S 0
4 *5935:S 0
5 *5963:S 0
6 *5945:S 2.32712e-05
7 *5972:S 0.000230611
8 *5981:S 2.95294e-05
9 *6259:A 0
10 *6268:A 0
11 *6275:A 0
12 *6271:B1 0
13 *5934:X 0
14 *237:175 0.000298005
15 *237:169 0.000354119
16 *237:163 0.00134809
17 *237:150 0.0018693
18 *237:138 0.00163624
19 *237:124 0.00177709
20 *237:118 0.00231734
21 *237:112 0.00178093
22 *237:97 0.00151421
23 *237:84 0.00223021
24 *237:82 0.00220068
25 *237:80 0.00177484
26 *237:78 0.00131461
27 *237:66 0.00138408
28 *237:32 0.000276269
29 *237:24 0.000749462
30 *237:14 0.000661685
31 *237:12 0.000786819
32 *237:4 0.00131751
33 *5945:S *545:16 3.91386e-05
34 *5972:S *270:18 0
35 *5972:S *281:12 0
36 *5972:S *362:51 0
37 *5981:S *5981:A0 5.50049e-05
38 *237:12 *5934:A 0.000399291
39 *237:12 *239:134 8.29052e-05
40 *237:12 *239:146 0.000137651
41 *237:12 *239:154 0.000470935
42 *237:14 *239:134 6.99589e-05
43 *237:14 *448:10 0.000102093
44 *237:14 *711:109 8.2832e-05
45 *237:24 *6258:C 0
46 *237:24 *239:16 0
47 *237:24 *239:30 0
48 *237:24 *287:24 0.000141954
49 *237:24 *437:12 1.02387e-05
50 *237:24 *447:8 6.68793e-05
51 *237:24 *448:10 0.000186287
52 *237:24 *709:10 0
53 *237:24 *709:17 0
54 *237:24 *711:109 5.83407e-05
55 *237:24 *797:19 0
56 *237:32 *797:19 0.000146951
57 *237:66 *5934:A 0.000228903
58 *237:66 *6130:A1 0
59 *237:66 *6401:CLK 5.3304e-05
60 *237:66 *239:154 0.000700765
61 *237:66 *239:168 0.00102699
62 *237:66 *567:8 0.000323882
63 *237:78 *6130:A1 2.87907e-06
64 *237:78 *6130:S 0.00031495
65 *237:78 *6505:A 6.75804e-05
66 *237:78 *239:168 3.58358e-05
67 *237:78 *290:8 0
68 *237:78 *503:29 4.75206e-05
69 *237:78 *658:26 0.000291317
70 *237:80 *6131:A 0.000280918
71 *237:80 *768:69 0.000148688
72 *237:84 *6626:A 0
73 *237:84 *379:10 0
74 *237:84 *382:14 0.000359254
75 *237:84 *391:122 0.000141386
76 *237:84 *401:36 0
77 *237:84 *470:18 0
78 *237:84 *470:34 2.11157e-05
79 *237:84 *489:83 0.000193743
80 *237:84 *605:10 5.90531e-05
81 *237:84 *627:10 0
82 *237:84 *629:8 0
83 *237:84 *779:79 0.000343333
84 *237:84 *779:81 0.000449495
85 *237:84 *779:91 0.000472558
86 *237:84 *787:8 2.5415e-05
87 *237:97 *6031:A1 5.70419e-05
88 *237:97 *6031:S 0.000193729
89 *237:97 *6595:A 1.40958e-05
90 *237:97 *763:6 0.000105159
91 *237:97 *768:69 0.000173278
92 *237:112 *5990:A1 0.000139352
93 *237:112 *362:51 0
94 *237:112 *372:36 0.000112665
95 *237:118 *6134:S 0.000344286
96 *237:118 *6545:A 0.000225863
97 *237:118 *286:20 0.000192068
98 *237:118 *372:36 0.00108277
99 *237:118 *687:6 8.29052e-05
100 *237:124 *6025:S 0.000296026
101 *237:124 *255:14 0
102 *237:124 *309:101 0.000395921
103 *237:124 *625:116 2.93845e-05
104 *237:138 *6109:A0 8.31018e-05
105 *237:138 *470:34 1.94522e-05
106 *237:138 *477:8 1.01436e-05
107 *237:138 *510:14 0.000311554
108 *237:138 *622:30 0.000278432
109 *237:138 *625:116 0.000186941
110 *237:138 *625:192 0
111 *237:150 *5945:A1 5.50106e-05
112 *237:150 *6089:S 2.25419e-05
113 *237:150 *243:14 0
114 *237:150 *247:6 1.76557e-05
115 *237:150 *545:16 7.39615e-05
116 *237:150 *622:45 8.45596e-05
117 *237:150 *775:6 0.00014196
118 *237:163 *5942:A3 0
119 *237:163 *5945:A1 0.000143655
120 *237:163 *6061:S 6.63801e-05
121 *237:163 *247:6 7.06229e-05
122 *237:163 *329:85 6.85412e-05
123 *237:163 *329:87 0.000286154
124 *237:163 *351:111 0
125 *237:163 *485:90 0
126 *237:163 *537:29 0
127 *237:163 *545:16 0
128 *237:169 *6370:CLK 0.000185434
129 *237:169 *238:12 1.76557e-05
130 *237:175 *329:85 0
131 *237:175 *351:111 0
132 *5935:A1 *237:169 0.00014196
133 *6271:A1 *237:32 5.50049e-05
134 *6401:D *237:66 0.000104433
135 *60:10 *237:163 5.01247e-05
136 *89:8 *237:124 0
137 *105:8 *237:84 4.334e-05
138 *129:8 *237:84 0
139 *152:10 *237:12 2.28331e-05
140 *222:8 *237:84 0
141 *225:160 *237:84 0
142 *225:231 *237:12 7.44161e-06
143 *225:231 *237:66 0.000162698
144 *225:237 *237:12 5.3304e-05
145 *225:245 *237:12 0.000526319
146 *226:28 *237:24 0.000419189
147 *226:28 *237:32 0
148 *226:30 *237:32 5.50049e-05
149 *226:183 *237:124 0.00047889
150 *226:200 *237:124 0.000367038
151 *230:140 *237:138 0.000218962
152 *230:224 *237:175 0.000249918
153 *231:22 *237:163 0.00112054
154 *232:167 *237:163 0
155 *232:184 *237:150 0.000214862
156 *233:35 *237:84 0
157 *233:212 *237:138 0
158 *233:212 *237:150 0.000288521
159 *236:8 *237:175 0
*RES
1 *5934:X *237:4 23 
2 *237:4 *237:12 16.4057 
3 *237:12 *237:14 4.43286 
4 *237:14 *237:24 41.3929 
5 *237:24 *237:32 36.4007 
6 *237:32 *6271:B1 23 
7 *237:24 *6275:A 23 
8 *237:14 *6268:A 23 
9 *237:12 *6259:A 23 
10 *237:4 *237:66 24.3393 
11 *237:66 *237:78 42.0557 
12 *237:78 *237:80 9.19714 
13 *237:80 *237:82 15 
14 *237:82 *237:84 46.98 
15 *237:84 *5981:S 38.6214 
16 *237:80 *237:97 31.3436 
17 *237:97 *5972:S 42.0186 
18 *237:97 *237:112 18.48 
19 *237:112 *237:118 41.245 
20 *237:118 *237:124 33.3736 
21 *237:124 *237:138 49.9686 
22 *237:138 *237:150 40.5229 
23 *237:150 *5945:S 23.8493 
24 *237:150 *237:163 47.48 
25 *237:163 *237:169 17.5479 
26 *237:169 *237:175 35.7793 
27 *237:175 *5963:S 23 
28 *237:169 *5935:S 23 
29 *237:124 *5954:S 23 
30 *237:112 *5990:S 23 
31 *237:66 *5999:S 23 
*END

*D_NET *238 0.0032364
*CONN
*I *5937:A0 I *D sky130_fd_sc_hd__mux2_1
*I *5935:X O *D sky130_fd_sc_hd__mux2_1
*CAP
1 *5937:A0 0
2 *5935:X 0.00144829
3 *238:12 0.00144829
4 *238:12 *5937:S 3.91386e-05
5 *238:12 *6370:CLK 8.7843e-05
6 *238:12 *6636:A 3.22879e-05
7 *238:12 *512:12 2.3191e-05
8 *5935:A1 *238:12 0.000128401
9 *6370:D *238:12 1.13128e-05
10 *237:169 *238:12 1.76557e-05
*RES
1 *5935:X *238:12 44.6464 
2 *238:12 *5937:A0 23 
*END

*D_NET *239 0.0503401
*CONN
*I *6253:A I *D sky130_fd_sc_hd__or2_1
*I *6251:B I *D sky130_fd_sc_hd__xnor2_1
*I *5964:S I *D sky130_fd_sc_hd__mux2_1
*I *5937:S I *D sky130_fd_sc_hd__mux2_1
*I *5946:S I *D sky130_fd_sc_hd__mux2_1
*I *5955:S I *D sky130_fd_sc_hd__mux2_1
*I *6000:S I *D sky130_fd_sc_hd__mux2_1
*I *5973:S I *D sky130_fd_sc_hd__mux2_1
*I *6258:B I *D sky130_fd_sc_hd__or3_1
*I *6276:C I *D sky130_fd_sc_hd__or4_1
*I *6269:S I *D sky130_fd_sc_hd__mux2_1
*I *6261:S I *D sky130_fd_sc_hd__mux2_1
*I *6265:S I *D sky130_fd_sc_hd__mux2_1
*I *5982:S I *D sky130_fd_sc_hd__mux2_1
*I *6273:S I *D sky130_fd_sc_hd__mux2_1
*I *5991:S I *D sky130_fd_sc_hd__mux2_1
*I *5936:Y O *D sky130_fd_sc_hd__nand2_8
*CAP
1 *6253:A 2.84517e-05
2 *6251:B 0
3 *5964:S 0.000485836
4 *5937:S 4.44557e-05
5 *5946:S 0
6 *5955:S 0.000170685
7 *6000:S 0.00030437
8 *5973:S 0
9 *6258:B 0.000120029
10 *6276:C 0
11 *6269:S 0
12 *6261:S 0
13 *6265:S 8.50801e-05
14 *5982:S 0
15 *6273:S 0
16 *5991:S 0.000273387
17 *5936:Y 0.000142527
18 *239:228 0.00196066
19 *239:219 0.00308988
20 *239:206 0.00228107
21 *239:193 0.00139946
22 *239:184 0.00150192
23 *239:180 0.00324248
24 *239:168 0.00378534
25 *239:154 0.00174432
26 *239:146 0.000575655
27 *239:134 0.000721672
28 *239:117 0.000763679
29 *239:115 0.000182321
30 *239:96 0.000649162
31 *239:88 0.0011995
32 *239:67 0.000943709
33 *239:54 0.00147484
34 *239:41 0.00160288
35 *239:30 0.00153354
36 *239:16 0.00111566
37 *239:10 0.000534942
38 *239:6 0.000385628
39 *5937:S *5937:A1 5.50106e-05
40 *5964:S *5964:A1 3.22879e-05
41 *5964:S *6333:CLK 0
42 *5964:S *263:18 1.32314e-05
43 *5964:S *264:8 0
44 *5964:S *382:74 0
45 *5964:S *712:96 0
46 *5991:S *6475:CLK 1.5547e-05
47 *5991:S *709:25 5.12254e-05
48 *5991:S *709:38 5.10416e-05
49 *6000:S *296:10 0
50 *6000:S *703:27 4.90891e-05
51 *6000:S *706:12 0
52 *6253:A *439:10 9.21347e-06
53 *6253:A *711:135 7.93144e-05
54 *6258:B *6258:C 0
55 *6258:B *711:109 1.14452e-05
56 *6265:S *6265:A0 0.000102389
57 *6265:S *6265:A1 0.000102389
58 *6265:S *446:8 4.00259e-06
59 *239:10 *6253:B 8.48502e-06
60 *239:10 *6276:D 2.02872e-05
61 *239:16 *6276:D 5.3304e-05
62 *239:16 *454:10 9.50292e-05
63 *239:16 *797:19 0.000188256
64 *239:30 *6269:A0 9.58714e-05
65 *239:30 *680:26 0.000900334
66 *239:30 *702:22 0.000116413
67 *239:30 *709:25 3.0647e-05
68 *239:30 *711:73 0
69 *239:30 *797:10 8.62876e-05
70 *239:30 *797:19 1.14452e-05
71 *239:41 *451:10 4.58924e-05
72 *239:41 *702:22 0.000437279
73 *239:41 *709:25 2.60152e-05
74 *239:41 *709:38 0
75 *239:54 *6273:A1 0.000225265
76 *239:54 *6472:RESET_B 0.000758594
77 *239:54 *451:10 1.02387e-05
78 *239:54 *702:22 2.82105e-05
79 *239:54 *709:38 2.21344e-05
80 *239:54 *709:48 9.43301e-05
81 *239:54 *709:59 1.65626e-05
82 *239:54 *709:71 0
83 *239:54 *709:80 0
84 *239:54 *709:90 0
85 *239:54 *798:21 8.62783e-05
86 *239:54 *821:8 0
87 *239:54 *822:8 0
88 *239:54 *826:8 8.85189e-05
89 *239:67 *6265:A1 3.47032e-05
90 *239:67 *6472:RESET_B 8.16253e-05
91 *239:67 *446:8 7.44354e-05
92 *239:67 *709:90 0
93 *239:88 *6265:A0 0.000315092
94 *239:88 *6458:CLK 6.17437e-06
95 *239:88 *445:16 3.43144e-05
96 *239:88 *490:20 4.67488e-05
97 *239:88 *490:35 4.73884e-05
98 *239:88 *712:27 2.81066e-05
99 *239:96 *5894:B 0
100 *239:96 *6261:A1 8.90445e-05
101 *239:96 *6265:A1 0
102 *239:96 *442:10 0.000515229
103 *239:96 *814:16 5.3304e-05
104 *239:96 *824:8 0
105 *239:117 *711:109 0.000259946
106 *239:117 *711:135 0.000136486
107 *239:134 *711:109 3.91386e-05
108 *239:146 *711:123 0.000108776
109 *239:146 *712:49 5.6652e-05
110 *239:146 *713:8 0
111 *239:154 *6401:CLK 6.17437e-06
112 *239:154 *480:14 2.91902e-05
113 *239:154 *480:16 6.25829e-05
114 *239:168 *6032:A 9.84794e-05
115 *239:168 *6038:A 0.000183733
116 *239:168 *6130:A1 2.4754e-05
117 *239:168 *6130:S 2.63049e-05
118 *239:168 *6350:CLK 0.000171097
119 *239:168 *370:12 0.000136743
120 *239:168 *503:29 0.000313255
121 *239:168 *681:6 0.00052451
122 *239:180 *5940:A3 0.0005349
123 *239:180 *6190:A 9.84794e-05
124 *239:180 *267:6 0.000782749
125 *239:180 *270:18 0.000228001
126 *239:180 *553:31 8.06804e-06
127 *239:180 *561:25 1.69977e-05
128 *239:180 *747:6 3.68634e-05
129 *239:184 *5941:A1 0.000267173
130 *239:184 *243:6 0.00164794
131 *239:184 *272:10 5.50106e-05
132 *239:184 *553:31 0.000112697
133 *239:184 *703:16 2.4754e-05
134 *239:184 *747:6 8.26171e-05
135 *239:193 *703:16 0.000141954
136 *239:206 *296:10 0
137 *239:206 *700:12 0
138 *239:206 *712:72 0
139 *239:206 *712:83 7.06124e-05
140 *239:219 *247:14 0
141 *239:219 *712:83 0
142 *239:219 *752:8 0
143 *239:228 *247:14 0
144 *239:228 *632:8 4.08641e-05
145 *239:228 *699:8 0
146 *239:228 *712:83 0
147 *239:228 *712:96 0
148 *5968:S *239:180 5.25011e-05
149 *6350:D *239:168 0.00027857
150 *6401:D *239:168 0.000102732
151 *6475:D *5991:S 8.46881e-05
152 *124:12 *239:180 0.000222806
153 *204:10 *239:54 1.47563e-05
154 *206:10 *239:88 0.0001366
155 *206:10 *239:96 0.000247678
156 *208:14 *239:88 2.02872e-05
157 *208:14 *239:96 0
158 *225:231 *239:154 0.00126097
159 *225:237 *239:146 6.48049e-05
160 *225:245 *239:134 0.000275371
161 *226:45 *239:88 0
162 *230:37 *239:180 0.000116409
163 *230:263 *239:6 0.000135661
164 *230:271 *239:6 2.64616e-05
165 *230:271 *239:10 0.00011569
166 *230:301 *6253:A 6.25829e-05
167 *230:301 *6258:B 0.000140958
168 *230:301 *239:117 0.000397734
169 *237:12 *239:134 8.29052e-05
170 *237:12 *239:146 0.000137651
171 *237:12 *239:154 0.000470935
172 *237:14 *239:134 6.99589e-05
173 *237:24 *239:16 0
174 *237:24 *239:30 0
175 *237:66 *239:154 0.000700765
176 *237:66 *239:168 0.00102699
177 *237:78 *239:168 3.58358e-05
178 *238:12 *5937:S 3.91386e-05
*RES
1 *5936:Y *239:6 25.5271 
2 *239:6 *239:10 3.97714 
3 *239:10 *239:16 21.09 
4 *239:16 *239:30 46.2607 
5 *239:30 *5991:S 43.8621 
6 *239:30 *239:41 11.4136 
7 *239:41 *6273:S 38 
8 *239:41 *239:54 29.5593 
9 *239:54 *5982:S 38 
10 *239:54 *239:67 20.2614 
11 *239:67 *6265:S 25.9207 
12 *239:67 *239:88 39.1971 
13 *239:88 *239:96 45.2043 
14 *239:96 *6261:S 23 
15 *239:16 *6269:S 38 
16 *239:10 *6276:C 23 
17 *239:6 *239:115 15 
18 *239:115 *239:117 5.42714 
19 *239:117 *6258:B 39.9057 
20 *239:117 *239:134 25.1914 
21 *239:134 *239:146 49.3293 
22 *239:146 *239:154 45.515 
23 *239:154 *239:168 46.9414 
24 *239:168 *239:180 45.0329 
25 *239:180 *239:184 24.94 
26 *239:184 *5973:S 23 
27 *239:184 *239:193 26.5793 
28 *239:193 *6000:S 43.7793 
29 *239:193 *239:206 23.9486 
30 *239:206 *5955:S 26.0036 
31 *239:206 *239:219 44.58 
32 *239:219 *5946:S 38 
33 *239:219 *239:228 26.2036 
34 *239:228 *5937:S 39.1186 
35 *239:228 *5964:S 47.135 
36 *239:134 *6251:B 23 
37 *239:115 *6253:A 39.2014 
*END

*D_NET *240 0.000431089
*CONN
*I *5938:A I *D sky130_fd_sc_hd__clkbuf_1
*I *5937:X O *D sky130_fd_sc_hd__mux2_1
*CAP
1 *5938:A 0
2 *5937:X 4.36392e-05
3 *240:8 4.36392e-05
4 *240:8 *6333:CLK 2.77955e-05
5 *240:8 *382:74 0.000171906
6 *240:8 *712:96 0.00014411
*RES
1 *5937:X *240:8 40.2579 
2 *240:8 *5938:A 38 
*END

*D_NET *241 0.00446036
*CONN
*I *5941:A0 I *D sky130_fd_sc_hd__mux2_1
*I *5939:X O *D sky130_fd_sc_hd__mux4_1
*CAP
1 *5941:A0 0
2 *5939:X 0.000166284
3 *241:14 0.000803412
4 *241:10 0.000969695
5 *241:10 *5939:A0 8.82787e-05
6 *241:10 *430:10 5.67058e-05
7 *241:10 *626:6 9.75779e-05
8 *241:14 *362:67 0.000218477
9 *241:14 *364:8 6.93553e-05
10 *241:14 *428:134 0.00035793
11 *241:14 *481:29 0.000207879
12 *241:14 *724:41 0.000135557
13 *241:14 *724:107 0
14 *241:14 *734:8 8.4047e-05
15 *241:14 *735:92 1.14452e-05
16 *241:14 *735:105 0.00119371
17 *227:14 *241:14 0
*RES
1 *5939:X *241:10 41.9771 
2 *241:10 *241:14 36.9779 
3 *241:14 *5941:A0 23 
*END

*D_NET *242 0.000570933
*CONN
*I *5941:A1 I *D sky130_fd_sc_hd__mux2_1
*I *5940:X O *D sky130_fd_sc_hd__mux4_1
*CAP
1 *5941:A1 7.97647e-05
2 *5940:X 7.97647e-05
3 *5941:A1 *553:31 0.000144231
4 *239:184 *5941:A1 0.000267173
*RES
1 *5940:X *5941:A1 49.0036 
*END

*D_NET *243 0.00829897
*CONN
*I *5945:A0 I *D sky130_fd_sc_hd__mux2_1
*I *5941:X O *D sky130_fd_sc_hd__mux2_1
*CAP
1 *5945:A0 0
2 *5941:X 0.00110295
3 *243:14 0.00158476
4 *243:6 0.00268771
5 *243:6 *271:18 0.000164818
6 *243:14 *271:18 0
7 *243:14 *482:93 0
8 *243:14 *545:16 1.14452e-05
9 *243:14 *614:10 0.000133316
10 *243:14 *614:35 0.000460039
11 *243:14 *622:8 0.000180701
12 *243:14 *622:45 6.7177e-06
13 *243:14 *735:129 2.33476e-05
14 *243:14 *738:8 8.62876e-05
15 *84:8 *243:14 0
16 *231:18 *243:14 0
17 *231:22 *243:14 0
18 *232:184 *243:14 0.000208941
19 *233:212 *243:14 0
20 *237:150 *243:14 0
21 *239:184 *243:6 0.00164794
*RES
1 *5941:X *243:6 41.2493 
2 *243:6 *243:14 45.6157 
3 *243:14 *5945:A0 38 
*END

*D_NET *244 0.000833753
*CONN
*I *5944:A0 I *D sky130_fd_sc_hd__mux2_1
*I *5942:X O *D sky130_fd_sc_hd__mux4_1
*CAP
1 *5944:A0 6.81522e-05
2 *5942:X 0.000112413
3 *244:8 0.000180566
4 *5944:A0 *245:14 5.67058e-05
5 *5944:A0 *247:6 1.32939e-05
6 *244:8 *351:119 0.000302339
7 *231:22 *244:8 0.000100283
*RES
1 *5942:X *244:8 42.0186 
2 *244:8 *5944:A0 39.0979 
*END

*D_NET *245 0.00299801
*CONN
*I *5944:A1 I *D sky130_fd_sc_hd__mux2_1
*I *5943:X O *D sky130_fd_sc_hd__mux4_1
*CAP
1 *5944:A1 0
2 *5943:X 0.000901969
3 *245:14 0.000300093
4 *245:6 0.00120206
5 *245:6 *505:23 1.69977e-05
6 *245:6 *609:28 6.50913e-05
7 *245:14 *247:6 6.15314e-05
8 *245:14 *351:119 0.000153324
9 *245:14 *470:56 0
10 *245:14 *617:12 0
11 *5943:S0 *245:6 8.77182e-05
12 *5944:A0 *245:14 5.67058e-05
13 *232:184 *245:6 3.71369e-05
14 *232:192 *245:14 8.0139e-05
15 *233:274 *245:6 3.52383e-05
*RES
1 *5943:X *245:6 35.0557 
2 *245:6 *245:14 36.4214 
3 *245:14 *5944:A1 23 
*END

*D_NET *246 0.000446665
*CONN
*I *5945:A1 I *D sky130_fd_sc_hd__mux2_1
*I *5944:X O *D sky130_fd_sc_hd__mux2_1
*CAP
1 *5945:A1 0.000124
2 *5944:X 0.000124
3 *237:150 *5945:A1 5.50106e-05
4 *237:163 *5945:A1 0.000143655
*RES
1 *5944:X *5945:A1 48.0507 
*END

*D_NET *247 0.00451594
*CONN
*I *5946:A0 I *D sky130_fd_sc_hd__mux2_1
*I *5945:X O *D sky130_fd_sc_hd__mux2_1
*CAP
1 *5946:A0 0
2 *5945:X 0.00124526
3 *247:14 0.000324092
4 *247:6 0.00156935
5 *247:6 *6080:A 0.00035654
6 *247:6 *545:16 0.000218476
7 *247:6 *643:12 0.000144437
8 *247:14 *712:83 0.000494686
9 *5944:A0 *247:6 1.32939e-05
10 *237:150 *247:6 1.76557e-05
11 *237:163 *247:6 7.06229e-05
12 *239:219 *247:14 0
13 *239:228 *247:14 0
14 *245:14 *247:6 6.15314e-05
*RES
1 *5945:X *247:6 45.0607 
2 *247:6 *247:14 38.0579 
3 *247:14 *5946:A0 23 
*END

*D_NET *248 0.000165133
*CONN
*I *5947:A I *D sky130_fd_sc_hd__clkbuf_1
*I *5946:X O *D sky130_fd_sc_hd__mux2_1
*CAP
1 *5947:A 8.25667e-05
2 *5946:X 8.25667e-05
*RES
1 *5946:X *5947:A 47.4707 
*END

*D_NET *249 0.00960096
*CONN
*I *5950:A0 I *D sky130_fd_sc_hd__mux2_1
*I *5948:X O *D sky130_fd_sc_hd__mux4_1
*CAP
1 *5950:A0 0
2 *5948:X 1.23142e-05
3 *249:18 0.00334946
4 *249:10 0.00336178
5 *249:10 *578:10 2.5343e-05
6 *249:18 *470:34 0.00282942
7 *249:18 *664:10 2.26406e-05
8 *249:18 *669:14 0
*RES
1 *5948:X *249:10 46.3211 
2 *249:10 *249:18 32.9941 
3 *249:18 *5950:A0 23 
*END

*D_NET *250 0.000814814
*CONN
*I *5950:A1 I *D sky130_fd_sc_hd__mux2_1
*I *5949:X O *D sky130_fd_sc_hd__mux4_1
*CAP
1 *5950:A1 2.95607e-05
2 *5949:X 0.000188999
3 *250:8 0.00021856
4 *5950:A1 *625:114 0
5 *250:8 *312:12 2.26489e-05
6 *250:8 *625:114 0.000210875
7 *93:8 *250:8 0.000110922
8 *230:183 *5950:A1 3.32489e-05
*RES
1 *5949:X *250:8 42.0186 
2 *250:8 *5950:A1 38.8493 
*END

*D_NET *251 0.00191988
*CONN
*I *5954:A0 I *D sky130_fd_sc_hd__mux2_1
*I *5950:X O *D sky130_fd_sc_hd__mux2_1
*CAP
1 *5954:A0 0.000367248
2 *5950:X 8.63193e-05
3 *251:8 0.000453567
4 *5954:A0 *6027:A0 3.85898e-05
5 *5954:A0 *312:12 2.81066e-05
6 *5954:A0 *625:114 0.000165744
7 *5954:A0 *625:116 0.000274078
8 *251:8 *5949:A1 0.000155461
9 *251:8 *6525:A 1.05441e-05
10 *6388:D *5954:A0 0.000181608
11 *226:204 *251:8 0.000158613
*RES
1 *5950:X *251:8 40.2579 
2 *251:8 *5954:A0 47.1971 
*END

*D_NET *252 0.00166735
*CONN
*I *5953:A0 I *D sky130_fd_sc_hd__mux2_1
*I *5951:X O *D sky130_fd_sc_hd__mux4_1
*CAP
1 *5953:A0 0
2 *5951:X 0.000395313
3 *252:10 0.000395313
4 *252:10 *6613:A 0.00026599
5 *252:10 *254:10 8.62783e-05
6 *252:10 *470:126 0.000163361
7 *252:10 *522:20 1.01436e-05
8 *252:10 *618:22 8.74175e-05
9 *16:5 *252:10 0.000212304
10 *232:141 *252:10 5.12254e-05
11 *233:150 *252:10 0
*RES
1 *5951:X *252:10 47.3421 
2 *252:10 *5953:A0 38 
*END

*D_NET *253 0.000570279
*CONN
*I *5953:A1 I *D sky130_fd_sc_hd__mux2_1
*I *5952:X O *D sky130_fd_sc_hd__mux4_1
*CAP
1 *5953:A1 0
2 *5952:X 0.000199576
3 *253:10 0.000199576
4 *253:10 *254:10 4.334e-05
5 *253:10 *351:99 4.14986e-05
6 *16:5 *253:10 8.62876e-05
*RES
1 *5952:X *253:10 41.2521 
2 *253:10 *5953:A1 38 
*END

*D_NET *254 0.00834346
*CONN
*I *5954:A1 I *D sky130_fd_sc_hd__mux2_1
*I *5953:X O *D sky130_fd_sc_hd__mux2_1
*CAP
1 *5954:A1 9.21863e-05
2 *5953:X 9.11233e-05
3 *254:10 0.00228565
4 *254:8 0.00228459
5 *5954:A1 *625:116 0.000143655
6 *254:10 *5952:A3 0
7 *254:10 *6122:S 0.000107548
8 *254:10 *6339:CLK 0
9 *254:10 *6538:A 0
10 *254:10 *257:12 0.00128287
11 *254:10 *362:109 0.000748446
12 *254:10 *366:10 0
13 *254:10 *485:30 0
14 *254:10 *498:8 3.95777e-05
15 *254:10 *499:10 0.000192087
16 *254:10 *555:27 0
17 *254:10 *618:22 0.000188916
18 *254:10 *727:10 0.000161814
19 *254:10 *746:45 0
20 *5952:S1 *254:10 3.54495e-05
21 *16:5 *254:10 0.000422277
22 *230:98 *254:8 0.000137651
23 *252:10 *254:10 8.62783e-05
24 *253:10 *254:10 4.334e-05
*RES
1 *5953:X *254:8 39.5743 
2 *254:8 *254:10 53.3186 
3 *254:10 *5954:A1 39.5743 
*END

*D_NET *255 0.00797564
*CONN
*I *5955:A0 I *D sky130_fd_sc_hd__mux2_1
*I *5954:X O *D sky130_fd_sc_hd__mux2_1
*CAP
1 *5955:A0 0
2 *5954:X 0
3 *255:26 0.00248269
4 *255:14 0.00342013
5 *255:6 0.000937441
6 *255:14 *6023:A1 0.00010018
7 *255:14 *6545:A 0
8 *255:14 *309:101 0.000301873
9 *255:14 *481:18 2.02517e-05
10 *255:14 *552:10 0
11 *255:14 *568:23 0.000220603
12 *255:26 *5956:A 7.30985e-05
13 *255:26 *481:18 5.3304e-05
14 *255:26 *496:6 5.43525e-05
15 *255:26 *496:18 6.36763e-07
16 *91:12 *255:14 5.67058e-05
17 *91:12 *255:26 6.32216e-05
18 *225:149 *255:14 0.000191148
19 *237:124 *255:14 0
*RES
1 *5954:X *255:6 38 
2 *255:6 *255:14 34.285 
3 *255:14 *255:26 34.6757 
4 *255:26 *5955:A0 23 
*END

*D_NET *256 0.000178622
*CONN
*I *5956:A I *D sky130_fd_sc_hd__clkbuf_1
*I *5955:X O *D sky130_fd_sc_hd__mux2_1
*CAP
1 *5956:A 5.27615e-05
2 *5955:X 5.27615e-05
3 *255:26 *5956:A 7.30985e-05
*RES
1 *5955:X *5956:A 47.4707 
*END

*D_NET *257 0.00325895
*CONN
*I *5959:A0 I *D sky130_fd_sc_hd__mux2_1
*I *5957:X O *D sky130_fd_sc_hd__mux4_1
*CAP
1 *5959:A0 0
2 *5957:X 0.000102492
3 *257:12 0.00046757
4 *257:8 0.000570062
5 *257:8 *5957:A0 5.50049e-05
6 *257:8 *579:14 0.000139357
7 *257:12 *485:30 2.12347e-06
8 *16:5 *257:12 0.000639464
9 *254:10 *257:12 0.00128287
*RES
1 *5957:X *257:8 40.0507 
2 *257:8 *257:12 32.0479 
3 *257:12 *5959:A0 23 
*END

*D_NET *258 0.000392109
*CONN
*I *5959:A1 I *D sky130_fd_sc_hd__mux2_1
*I *5958:X O *D sky130_fd_sc_hd__mux4_1
*CAP
1 *5959:A1 0.000154681
2 *5958:X 0.000154681
3 *5959:A1 *259:6 8.2747e-05
*RES
1 *5958:X *5959:A1 49.0036 
*END

*D_NET *259 0.00552831
*CONN
*I *5963:A0 I *D sky130_fd_sc_hd__mux2_1
*I *5959:X O *D sky130_fd_sc_hd__mux2_1
*CAP
1 *5963:A0 0
2 *5959:X 0.00150192
3 *259:18 0.000725069
4 *259:6 0.00222699
5 *259:6 *485:10 0.000102313
6 *259:18 *5963:A1 0.000187129
7 *259:18 *330:10 0
8 *259:18 *520:22 7.68929e-05
9 *259:18 *724:164 0
10 *5959:A1 *259:6 8.2747e-05
11 *5959:S *259:6 3.71251e-05
12 *67:10 *259:18 8.26569e-05
13 *230:122 *259:6 0.00036687
14 *230:211 *259:18 0
15 *233:175 *259:18 4.6318e-06
16 *233:181 *259:18 0.000133962
*RES
1 *5959:X *259:6 44.5843 
2 *259:6 *259:18 44.8729 
3 *259:18 *5963:A0 23 
*END

*D_NET *260 0.00124465
*CONN
*I *5962:A0 I *D sky130_fd_sc_hd__mux2_1
*I *5960:X O *D sky130_fd_sc_hd__mux4_1
*CAP
1 *5962:A0 4.09144e-05
2 *5960:X 0.000340618
3 *260:8 0.000381532
4 *260:8 *6103:S 0.000255292
5 *260:8 *329:85 0
6 *260:8 *333:10 8.62876e-05
7 *260:8 *486:106 0
8 *260:8 *507:12 8.68575e-05
9 *260:8 *757:182 5.31444e-05
10 *233:306 *260:8 0
*RES
1 *5960:X *260:8 46.2443 
2 *260:8 *5962:A0 38.6214 
*END

*D_NET *261 0.00306789
*CONN
*I *5962:A1 I *D sky130_fd_sc_hd__mux2_1
*I *5961:X O *D sky130_fd_sc_hd__mux4_1
*CAP
1 *5962:A1 0.000503446
2 *5961:X 0.000649724
3 *261:8 0.00115317
4 *5962:A1 *6083:S 0
5 *5962:A1 *6373:CLK 0
6 *5962:A1 *6531:A 0
7 *5962:A1 *343:8 0.000221184
8 *5962:A1 *486:131 0.000183733
9 *5962:A1 *486:141 0
10 *5962:A1 *611:12 0.000140949
11 *5962:A1 *757:213 0
12 *261:8 *5961:A3 3.71369e-05
13 *261:8 *386:10 3.24514e-05
14 *261:8 *507:27 1.01712e-05
15 *261:8 *619:16 1.38395e-05
16 *176:8 *5962:A1 2.76611e-06
17 *232:240 *261:8 0.000119315
*RES
1 *5961:X *261:8 47.1971 
2 *261:8 *5962:A1 48.44 
*END

*D_NET *262 0.00224496
*CONN
*I *5963:A1 I *D sky130_fd_sc_hd__mux2_1
*I *5962:X O *D sky130_fd_sc_hd__mux2_1
*CAP
1 *5963:A1 4.10609e-05
2 *5962:X 0.000375186
3 *262:8 0.000416247
4 *5963:A1 *263:14 0.000228909
5 *262:8 *6103:S 0.000110024
6 *262:8 *329:85 0.000775268
7 *262:8 *351:109 0.000111138
8 *230:224 *262:8 0
9 *259:18 *5963:A1 0.000187129
*RES
1 *5962:X *262:8 48.3571 
2 *262:8 *5963:A1 40.5271 
*END

*D_NET *263 0.00354742
*CONN
*I *5964:A0 I *D sky130_fd_sc_hd__mux2_1
*I *5963:X O *D sky130_fd_sc_hd__mux2_1
*CAP
1 *5964:A0 0
2 *5963:X 0.000521099
3 *263:18 0.000596553
4 *263:14 0.00111765
5 *263:14 *6083:S 0
6 *263:14 *6084:A 2.64616e-05
7 *263:14 *339:71 0
8 *263:14 *343:8 0.0001672
9 *263:18 *339:63 8.65442e-05
10 *5963:A1 *263:14 0.000228909
11 *5964:S *263:18 1.32314e-05
12 *233:247 *263:18 0.000530627
13 *233:264 *263:18 0.000259146
*RES
1 *5963:X *263:14 47.5907 
2 *263:14 *263:18 29.4379 
3 *263:18 *5964:A0 23 
*END

*D_NET *264 0.000377834
*CONN
*I *5965:A I *D sky130_fd_sc_hd__clkbuf_1
*I *5964:X O *D sky130_fd_sc_hd__mux2_1
*CAP
1 *5965:A 8.59064e-05
2 *5964:X 6.66531e-05
3 *264:8 0.000152559
4 *264:8 *382:74 4.334e-05
5 *5964:S *264:8 0
6 *6333:D *5965:A 2.93747e-05
*RES
1 *5964:X *264:8 39.2014 
2 *264:8 *5965:A 39.9679 
*END

*D_NET *265 0.00486284
*CONN
*I *5968:A0 I *D sky130_fd_sc_hd__mux2_1
*I *5966:X O *D sky130_fd_sc_hd__mux4_1
*CAP
1 *5968:A0 0
2 *5966:X 0.000287406
3 *265:12 0.00102368
4 *265:8 0.00131109
5 *265:8 *5966:A0 6.9805e-05
6 *265:8 *6243:S 0.000181925
7 *265:8 *6519:A 7.1349e-05
8 *265:8 *657:6 0.00052972
9 *265:8 *768:136 2.4754e-05
10 *265:12 *6124:A1 0
11 *265:12 *266:10 0.000135168
12 *265:12 *362:59 0
13 *265:12 *367:10 0
14 *265:12 *494:99 1.47563e-05
15 *265:12 *582:12 3.72639e-05
16 *265:12 *598:27 0.000299187
17 *265:12 *625:51 0.000876735
18 *5984:S0 *265:12 0
19 *95:8 *265:12 0
20 *121:8 *265:12 0
21 *225:79 *265:12 0
*RES
1 *5966:X *265:8 46.7207 
2 *265:8 *265:12 35.2171 
3 *265:12 *5968:A0 23 
*END

*D_NET *266 0.000539396
*CONN
*I *5968:A1 I *D sky130_fd_sc_hd__mux2_1
*I *5967:X O *D sky130_fd_sc_hd__mux4_1
*CAP
1 *5968:A1 0
2 *5967:X 0.00013453
3 *266:10 0.00013453
4 *266:10 *494:99 0.000135168
5 *265:12 *266:10 0.000135168
*RES
1 *5967:X *266:10 40.5271 
2 *266:10 *5968:A1 38 
*END

*D_NET *267 0.00188135
*CONN
*I *5972:A0 I *D sky130_fd_sc_hd__mux2_1
*I *5968:X O *D sky130_fd_sc_hd__mux2_1
*CAP
1 *5972:A0 0
2 *5968:X 0.0005493
3 *267:6 0.0005493
4 *239:180 *267:6 0.000782749
*RES
1 *5968:X *267:6 31.7207 
2 *267:6 *5972:A0 23 
*END

*D_NET *268 0.00149156
*CONN
*I *5971:A0 I *D sky130_fd_sc_hd__mux2_1
*I *5969:X O *D sky130_fd_sc_hd__mux4_1
*CAP
1 *5971:A0 0
2 *5969:X 0.000716259
3 *268:12 0.000716259
4 *268:12 *6553:A 0
5 *268:12 *484:34 0
6 *268:12 *484:118 0
7 *230:89 *268:12 5.90383e-05
8 *233:81 *268:12 0
*RES
1 *5969:X *268:12 49.8279 
2 *268:12 *5971:A0 38 
*END

*D_NET *269 0.000207833
*CONN
*I *5971:A1 I *D sky130_fd_sc_hd__mux2_1
*I *5970:X O *D sky130_fd_sc_hd__mux4_1
*CAP
1 *5971:A1 0
2 *5970:X 5.96569e-05
3 *269:8 5.96569e-05
4 *230:89 *269:8 8.85189e-05
*RES
1 *5970:X *269:8 39.2014 
2 *269:8 *5971:A1 38 
*END

*D_NET *270 0.0114192
*CONN
*I *5972:A1 I *D sky130_fd_sc_hd__mux2_1
*I *5971:X O *D sky130_fd_sc_hd__mux2_1
*CAP
1 *5972:A1 0
2 *5971:X 4.25104e-05
3 *270:18 0.00143616
4 *270:10 0.00358058
5 *270:8 0.00218693
6 *270:10 *5970:A0 3.46241e-05
7 *270:10 *6126:S 0
8 *270:10 *6160:S 0.00019182
9 *270:10 *6413:CLK 0.000653296
10 *270:10 *362:95 0
11 *270:10 *372:24 0.000337286
12 *270:10 *382:24 0.000153687
13 *270:10 *404:10 0
14 *270:10 *411:98 0
15 *270:10 *415:8 0.000295087
16 *270:10 *479:14 7.57281e-06
17 *270:10 *479:178 0.000123091
18 *270:10 *483:31 0.000379413
19 *270:10 *483:69 0.000181934
20 *270:10 *501:10 0
21 *270:10 *562:10 9.32509e-05
22 *270:10 *612:10 5.51058e-05
23 *270:10 *726:8 0
24 *270:10 *758:8 9.57363e-05
25 *270:18 *6418:CLK 0
26 *270:18 *6512:A 6.09632e-05
27 *270:18 *281:12 0.000248934
28 *270:18 *283:10 8.4047e-05
29 *270:18 *372:30 0
30 *270:18 *372:36 0
31 *270:18 *402:10 0
32 *270:18 *479:116 0.000158787
33 *270:18 *495:10 0
34 *270:18 *495:32 0
35 *270:18 *495:41 0
36 *270:18 *495:56 0
37 *270:18 *562:10 0.000170123
38 *270:18 *760:12 7.75329e-06
39 *5972:S *270:18 0
40 *99:8 *270:18 2.79004e-05
41 *118:10 *270:10 5.31444e-05
42 *123:8 *270:18 0
43 *125:10 *270:10 0.000342734
44 *125:10 *270:18 2.15656e-05
45 *126:8 *270:10 0
46 *230:89 *270:10 0
47 *232:101 *270:8 5.50049e-05
48 *233:66 *270:10 5.65617e-05
49 *233:81 *270:10 5.55541e-05
50 *239:180 *270:18 0.000228001
*RES
1 *5971:X *270:8 38.6214 
2 *270:8 *270:10 49.7246 
3 *270:10 *270:18 43.0161 
4 *270:18 *5972:A1 23 
*END

*D_NET *271 0.0084063
*CONN
*I *5973:A0 I *D sky130_fd_sc_hd__mux2_1
*I *5972:X O *D sky130_fd_sc_hd__mux2_1
*CAP
1 *5973:A0 0
2 *5972:X 1.13606e-05
3 *271:18 0.00304457
4 *271:10 0.00305593
5 *271:10 *362:51 2.5343e-05
6 *271:18 *479:130 0
7 *271:18 *703:16 0
8 *271:18 *712:49 0.00074088
9 *226:131 *271:18 0.00136341
10 *243:6 *271:18 0.000164818
11 *243:14 *271:18 0
*RES
1 *5972:X *271:10 46.3211 
2 *271:10 *271:18 33.3463 
3 *271:18 *5973:A0 23 
*END

*D_NET *272 0.000478766
*CONN
*I *5974:A I *D sky130_fd_sc_hd__clkbuf_1
*I *5973:X O *D sky130_fd_sc_hd__mux2_1
*CAP
1 *5974:A 0
2 *5973:X 0.000211878
3 *272:10 0.000211878
4 *272:10 *703:16 0
5 *239:184 *272:10 5.50106e-05
*RES
1 *5973:X *272:10 40.8793 
2 *272:10 *5974:A 38 
*END

*D_NET *273 0.00183875
*CONN
*I *5977:A0 I *D sky130_fd_sc_hd__mux2_1
*I *5975:X O *D sky130_fd_sc_hd__mux4_1
*CAP
1 *5977:A0 0.000109043
2 *5975:X 0.000392927
3 *273:8 0.000501969
4 *5977:A0 *5977:A1 2.98648e-05
5 *273:8 *6615:A 0.000341204
6 *273:8 *768:42 0
7 *5977:S *5977:A0 9.84794e-05
8 *230:66 *273:8 0.000365265
*RES
1 *5975:X *273:8 48.005 
2 *273:8 *5977:A0 40.0507 
*END

*D_NET *274 0.00110951
*CONN
*I *5977:A1 I *D sky130_fd_sc_hd__mux2_1
*I *5976:X O *D sky130_fd_sc_hd__mux4_1
*CAP
1 *5977:A1 0.000288215
2 *5976:X 6.14794e-05
3 *274:8 0.000349694
4 *5977:A1 *565:29 5.67058e-05
5 *5977:A1 *779:156 0.000182832
6 *274:8 *758:8 0
7 *274:8 *768:42 8.85189e-05
8 *5977:A0 *5977:A1 2.98648e-05
9 *5977:S *5977:A1 5.22056e-05
*RES
1 *5976:X *274:8 39.2014 
2 *274:8 *5977:A1 43.9036 
*END

*D_NET *275 0.00147304
*CONN
*I *5981:A0 I *D sky130_fd_sc_hd__mux2_1
*I *5977:X O *D sky130_fd_sc_hd__mux2_1
*CAP
1 *5981:A0 0.000218072
2 *5977:X 0.000325103
3 *275:10 0.000543175
4 *275:10 *557:18 9.20311e-06
5 *275:10 *565:29 0.000227208
6 *275:10 *573:18 1.01436e-05
7 *275:10 *779:79 8.51329e-05
8 *5981:S *5981:A0 5.50049e-05
9 *232:69 *275:10 0
10 *233:35 *275:10 0
*RES
1 *5977:X *275:10 43.7379 
2 *275:10 *5981:A0 41.48 
*END

*D_NET *276 0.00239463
*CONN
*I *5980:A0 I *D sky130_fd_sc_hd__mux2_1
*I *5978:X O *D sky130_fd_sc_hd__mux4_1
*CAP
1 *5980:A0 0
2 *5978:X 0
3 *276:12 0.000690281
4 *276:6 0.000690281
5 *276:12 *6382:CLK 0.000650135
6 *276:12 *356:10 0
7 *276:12 *493:73 0.000129513
8 *276:12 *621:29 0.000138727
9 *276:12 *779:33 0
10 *276:12 *779:43 5.50049e-05
11 *5980:S *276:12 4.06849e-05
12 *87:8 *276:12 0
*RES
1 *5978:X *276:6 38 
2 *276:6 *276:12 29.9971 
3 *276:12 *5980:A0 23 
*END

*D_NET *277 0.000494179
*CONN
*I *5980:A1 I *D sky130_fd_sc_hd__mux2_1
*I *5979:X O *D sky130_fd_sc_hd__mux4_1
*CAP
1 *5980:A1 0
2 *5979:X 0.000165002
3 *277:10 0.000165002
4 *277:10 *6524:A 5.70419e-05
5 *277:10 *278:12 8.4047e-05
6 *277:10 *470:96 2.3087e-05
*RES
1 *5979:X *277:10 41.0036 
2 *277:10 *5980:A1 38 
*END

*D_NET *278 0.00412925
*CONN
*I *5981:A1 I *D sky130_fd_sc_hd__mux2_1
*I *5980:X O *D sky130_fd_sc_hd__mux2_1
*CAP
1 *5981:A1 0
2 *5980:X 0.000176323
3 *278:12 0.000779213
4 *278:8 0.000955537
5 *278:8 *509:27 4.9662e-05
6 *278:8 *779:43 1.61361e-05
7 *278:12 *382:14 0.000779648
8 *278:12 *470:96 0.00119049
9 *278:12 *613:23 8.37147e-05
10 *278:12 *779:73 1.4471e-05
11 *277:10 *278:12 8.4047e-05
*RES
1 *5980:X *278:8 40.0507 
2 *278:8 *278:12 35.9214 
3 *278:12 *5981:A1 23 
*END

*D_NET *279 0.0121037
*CONN
*I *5982:A0 I *D sky130_fd_sc_hd__mux2_1
*I *5981:X O *D sky130_fd_sc_hd__mux2_1
*CAP
1 *5982:A0 0
2 *5981:X 0.000142834
3 *279:24 0.00274832
4 *279:22 0.00321225
5 *279:16 0.00162281
6 *279:8 0.00130171
7 *279:8 *309:14 6.95768e-05
8 *279:8 *470:96 6.0093e-05
9 *279:16 *6133:B1 7.9284e-05
10 *279:16 *349:10 9.41704e-05
11 *279:16 *372:10 0.00102886
12 *279:22 *427:12 1.76557e-05
13 *279:24 *5982:A1 5.67058e-05
14 *5889:A1 *279:24 5.67058e-05
15 *5889:A2 *279:24 0.000228909
16 *6168:A1 *279:24 3.79173e-05
17 *6168:A2 *279:24 2.98767e-05
18 *6203:B *279:22 2.32101e-05
19 *6287:A2 *279:22 3.71311e-05
20 *6287:A2 *279:24 3.32734e-05
21 *6668:A *279:24 0.00010018
22 *104:8 *279:8 3.47781e-05
23 *183:18 *279:24 0.000300074
24 *184:12 *279:24 9.25256e-05
25 *190:192 *279:16 4.08641e-05
26 *198:16 *279:24 2.4754e-05
27 *202:6 *279:24 9.69279e-05
28 *203:184 *279:16 8.4047e-05
29 *213:29 *279:22 0.000352421
30 *215:72 *279:24 9.58714e-05
*RES
1 *5981:X *279:8 40.9621 
2 *279:8 *279:16 47.0686 
3 *279:16 *279:22 22.0739 
4 *279:22 *279:24 47.5496 
5 *279:24 *5982:A0 23 
*END

*D_NET *280 0.000750548
*CONN
*I *5983:A I *D sky130_fd_sc_hd__clkbuf_1
*I *5982:X O *D sky130_fd_sc_hd__mux2_1
*CAP
1 *5983:A 0.000267413
2 *5982:X 6.47174e-05
3 *280:8 0.00033213
4 *280:8 *704:16 0
5 *280:8 *709:90 8.62876e-05
*RES
1 *5982:X *280:8 39.2014 
2 *280:8 *5983:A 42.8264 
*END

*D_NET *281 0.00321067
*CONN
*I *5986:A0 I *D sky130_fd_sc_hd__mux2_1
*I *5984:X O *D sky130_fd_sc_hd__mux4_1
*CAP
1 *5986:A0 0
2 *5984:X 7.02108e-05
3 *281:12 0.00129204
4 *281:8 0.00136225
5 *281:12 *374:10 0
6 *281:12 *392:10 0
7 *281:12 *403:10 0
8 *281:12 *411:121 0
9 *281:12 *412:10 0
10 *281:12 *428:117 0
11 *281:12 *494:10 0
12 *281:12 *494:18 0
13 *281:12 *582:25 0
14 *5972:S *281:12 0
15 *100:8 *281:12 0
16 *131:8 *281:12 0.000196549
17 *226:154 *281:8 4.06849e-05
18 *270:18 *281:12 0.000248934
*RES
1 *5984:X *281:8 39.0979 
2 *281:8 *281:12 38.7386 
3 *281:12 *5986:A0 23 
*END

*D_NET *282 0.00102022
*CONN
*I *5986:A1 I *D sky130_fd_sc_hd__mux2_1
*I *5985:X O *D sky130_fd_sc_hd__mux4_1
*CAP
1 *5986:A1 0.000212345
2 *5985:X 4.11681e-05
3 *282:8 0.000253513
4 *282:8 *372:30 8.85189e-05
5 *6392:D *5986:A1 5.50049e-05
6 *97:8 *282:8 8.85189e-05
7 *230:55 *5986:A1 0.000281156
*RES
1 *5985:X *282:8 39.2014 
2 *282:8 *5986:A1 42.8057 
*END

*D_NET *283 0.00120615
*CONN
*I *5990:A0 I *D sky130_fd_sc_hd__mux2_1
*I *5986:X O *D sky130_fd_sc_hd__mux2_1
*CAP
1 *5990:A0 0.000293726
2 *5986:X 0.000100154
3 *283:10 0.000393881
4 *5990:A0 *5990:A1 0.000168821
5 *5990:A0 *479:116 5.50106e-05
6 *283:10 *479:116 8.4047e-05
7 *230:55 *283:10 2.64616e-05
8 *270:18 *283:10 8.4047e-05
*RES
1 *5986:X *283:10 39.8229 
2 *283:10 *5990:A0 42.4329 
*END

*D_NET *284 0.0049867
*CONN
*I *5989:A0 I *D sky130_fd_sc_hd__mux2_1
*I *5987:X O *D sky130_fd_sc_hd__mux4_1
*CAP
1 *5989:A0 0
2 *5987:X 0.000303806
3 *284:16 0.00146664
4 *284:8 0.00177044
5 *284:8 *6071:A1 0.000119467
6 *284:8 *534:16 8.20126e-06
7 *284:16 *6290:S 0
8 *284:16 *351:133 6.88568e-05
9 *284:16 *482:59 1.61379e-05
10 *284:16 *518:25 0
11 *284:16 *542:27 1.01436e-05
12 *284:16 *625:122 0
13 *284:16 *625:142 0.000107538
14 *284:16 *625:179 5.56306e-05
15 *284:16 *649:10 0
16 *284:16 *735:117 3.54658e-05
17 *284:16 *735:192 3.99495e-05
18 *5987:S1 *284:16 1.23172e-05
19 *166:8 *284:16 5.86165e-05
20 *230:126 *284:16 0
21 *230:140 *284:16 5.81619e-05
22 *232:47 *284:16 9.02578e-05
23 *233:191 *284:16 0.000765071
*RES
1 *5987:X *284:8 41.9564 
2 *284:8 *284:16 43.7514 
3 *284:16 *5989:A0 23 
*END

*D_NET *285 0.0019873
*CONN
*I *5989:A1 I *D sky130_fd_sc_hd__mux2_1
*I *5988:X O *D sky130_fd_sc_hd__mux4_1
*CAP
1 *5989:A1 0.000466706
2 *5988:X 0.00012152
3 *285:10 0.000588226
4 *5989:A1 *482:76 9.24795e-06
5 *5989:A1 *482:93 0.000398503
6 *285:10 *482:93 1.02029e-05
7 *285:10 *614:35 0.000207157
8 *6494:D *5989:A1 2.4754e-05
9 *179:8 *285:10 8.62876e-05
10 *230:140 *5989:A1 1.76557e-05
11 *230:155 *5989:A1 5.70419e-05
*RES
1 *5988:X *285:10 40.6514 
2 *285:10 *5989:A1 45.2914 
*END

*D_NET *286 0.00807576
*CONN
*I *5990:A1 I *D sky130_fd_sc_hd__mux2_1
*I *5989:X O *D sky130_fd_sc_hd__mux2_1
*CAP
1 *5990:A1 0.000240308
2 *5989:X 0.0004094
3 *286:20 0.00170138
4 *286:8 0.00187047
5 *5990:A1 *372:36 0.000327011
6 *5990:A1 *479:116 0.00052972
7 *5990:A1 *494:10 0.000120222
8 *286:8 *724:120 0
9 *286:8 *735:117 0.000782781
10 *286:20 *6134:S 1.21972e-05
11 *286:20 *6545:A 9.45591e-05
12 *286:20 *372:36 1.21972e-05
13 *286:20 *479:132 0.000149289
14 *286:20 *481:6 0.000212162
15 *286:20 *481:18 0.000141954
16 *286:20 *494:10 0.000128777
17 *286:20 *496:35 0.000159331
18 *286:20 *684:10 3.57732e-05
19 *286:20 *687:6 0.000527118
20 *286:20 *724:64 0.000120867
21 *5990:A0 *5990:A1 0.000168821
22 *237:112 *5990:A1 0.000139352
23 *237:118 *286:20 0.000192068
*RES
1 *5989:X *286:8 48.3571 
2 *286:8 *286:20 45.2325 
3 *286:20 *5990:A1 33.3882 
*END

*D_NET *287 0.0145984
*CONN
*I *5991:A0 I *D sky130_fd_sc_hd__mux2_1
*I *5990:X O *D sky130_fd_sc_hd__mux2_1
*CAP
1 *5991:A0 0
2 *5990:X 0.000880533
3 *287:30 9.53785e-05
4 *287:24 0.00321131
5 *287:22 0.00311594
6 *287:20 0.0011124
7 *287:8 0.00199294
8 *287:8 *6037:A0 0.000826229
9 *287:8 *6037:A1 0.000221406
10 *287:8 *6037:S 9.67842e-05
11 *287:8 *309:31 0.00130105
12 *287:8 *401:36 2.80394e-05
13 *287:20 *6505:A 2.68403e-05
14 *287:20 *479:30 0
15 *287:20 *636:84 2.93154e-05
16 *287:20 *790:12 4.70953e-05
17 *287:24 *6255:A 1.41129e-05
18 *287:24 *6255:B 0.000139357
19 *287:24 *6277:B 0.000350438
20 *287:24 *6497:A 9.75779e-05
21 *287:24 *438:20 0.000168985
22 *287:24 *453:10 0.000180212
23 *287:24 *790:33 5.3304e-05
24 *287:24 *791:35 9.41704e-05
25 *287:30 *711:69 0
26 *287:30 *711:73 0
27 *216:27 *287:20 4.45839e-05
28 *225:12 *287:24 9.30054e-05
29 *230:16 *287:20 0.000235424
30 *237:24 *287:24 0.000141954
*RES
1 *5990:X *287:8 46.5107 
2 *287:8 *287:20 35.511 
3 *287:20 *287:22 15 
4 *287:22 *287:24 53.505 
5 *287:24 *287:30 31.5536 
6 *287:30 *5991:A0 23 
*END

*D_NET *288 0.000832014
*CONN
*I *5992:A I *D sky130_fd_sc_hd__clkbuf_1
*I *5991:X O *D sky130_fd_sc_hd__mux2_1
*CAP
1 *5992:A 0.000124861
2 *5991:X 0.000235689
3 *288:8 0.000360551
4 *288:8 *680:26 0
5 *288:8 *705:25 0
6 *41:8 *288:8 0.000110913
*RES
1 *5991:X *288:8 42.0186 
2 *288:8 *5992:A 40.4236 
*END

*D_NET *289 0.00145417
*CONN
*I *5995:A0 I *D sky130_fd_sc_hd__mux2_1
*I *5993:X O *D sky130_fd_sc_hd__mux4_1
*CAP
1 *5995:A0 0
2 *5993:X 0.00059891
3 *289:10 0.00059891
4 *289:10 *5993:A0 5.14746e-06
5 *289:10 *6446:CLK 2.32004e-05
6 *289:10 *428:75 0
7 *289:10 *488:24 0.000228001
8 *103:8 *289:10 0
*RES
1 *5993:X *289:10 48.3157 
2 *289:10 *5995:A0 38 
*END

*D_NET *290 0.00195946
*CONN
*I *5995:A1 I *D sky130_fd_sc_hd__mux2_1
*I *5994:X O *D sky130_fd_sc_hd__mux4_1
*CAP
1 *5995:A1 0.000111788
2 *5994:X 0.000536485
3 *290:8 0.000648272
4 *5995:A1 *295:14 0.000205566
5 *5995:A1 *372:88 0.000370239
6 *290:8 *6505:A 8.71111e-05
7 *290:8 *370:12 0
8 *290:8 *503:29 0
9 *290:8 *636:90 0
10 *290:8 *658:26 0
11 *5995:S *290:8 0
12 *230:16 *290:8 0
13 *237:78 *290:8 0
*RES
1 *5994:X *290:8 45.54 
2 *290:8 *5995:A1 42.9507 
*END

*D_NET *291 0.000597257
*CONN
*I *5999:A0 I *D sky130_fd_sc_hd__mux2_1
*I *5995:X O *D sky130_fd_sc_hd__mux2_1
*CAP
1 *5999:A0 0
2 *5995:X 0.000122192
3 *291:10 0.000122192
4 *291:10 *5994:A2 2.48895e-05
5 *291:10 *6543:A 0.000111852
6 *291:10 *372:88 5.50106e-05
7 *291:10 *428:75 0.000161121
*RES
1 *5995:X *291:10 40.8793 
2 *291:10 *5999:A0 38 
*END

*D_NET *292 0.0107296
*CONN
*I *5998:A0 I *D sky130_fd_sc_hd__mux2_1
*I *5996:X O *D sky130_fd_sc_hd__mux4_1
*CAP
1 *5998:A0 0
2 *5996:X 0.000124192
3 *292:18 0.000504164
4 *292:10 0.00258226
5 *292:8 0.00220229
6 *292:10 *6114:B 1.53384e-05
7 *292:10 *6150:A 0
8 *292:10 *307:32 6.68793e-05
9 *292:10 *318:10 0
10 *292:10 *337:8 2.61595e-05
11 *292:10 *348:27 2.472e-05
12 *292:10 *351:12 0.000619619
13 *292:10 *362:12 0.00181346
14 *292:10 *362:22 2.01814e-05
15 *292:10 *382:151 1.35646e-05
16 *292:10 *511:10 3.95159e-06
17 *292:10 *636:53 0.00104692
18 *292:18 *5997:A2 0
19 *292:18 *362:22 0.00090325
20 *292:18 *382:151 1.73115e-05
21 *292:18 *636:73 0.000426569
22 *292:18 *636:84 0
23 *292:18 *790:46 6.95768e-05
24 *74:10 *292:10 4.08641e-05
25 *88:8 *292:10 0
26 *203:64 *292:10 3.83778e-05
27 *203:197 *292:10 0
28 *212:14 *292:10 0
29 *215:206 *292:10 0
30 *229:35 *292:18 9.84851e-05
31 *233:123 *292:8 7.15126e-05
*RES
1 *5996:X *292:8 39.5743 
2 *292:8 *292:10 52.5418 
3 *292:10 *292:18 28.9096 
4 *292:18 *5998:A0 23 
*END

*D_NET *293 0.00123264
*CONN
*I *5998:A1 I *D sky130_fd_sc_hd__mux2_1
*I *5997:X O *D sky130_fd_sc_hd__mux4_1
*CAP
1 *5998:A1 0.00045333
2 *5997:X 0.00010967
3 *293:8 0.000563
4 *293:8 *309:14 0
5 *293:8 *658:26 6.58373e-05
6 *229:35 *5998:A1 4.07999e-05
*RES
1 *5997:X *293:8 39.9057 
2 *293:8 *5998:A1 45.3329 
*END

*D_NET *294 0.002312
*CONN
*I *5999:A1 I *D sky130_fd_sc_hd__mux2_1
*I *5998:X O *D sky130_fd_sc_hd__mux2_1
*CAP
1 *5999:A1 0
2 *5998:X 0
3 *294:10 0.000434554
4 *294:6 0.000434554
5 *294:10 *5994:A2 0.000164011
6 *294:10 *362:22 0.000106583
7 *294:10 *428:65 0.000894549
8 *294:10 *428:75 7.37814e-06
9 *294:10 *575:16 0.000270368
*RES
1 *5998:X *294:6 38 
2 *294:6 *294:10 27.47 
3 *294:10 *5999:A1 23 
*END

*D_NET *295 0.0162011
*CONN
*I *6000:A0 I *D sky130_fd_sc_hd__mux2_1
*I *5999:X O *D sky130_fd_sc_hd__mux2_1
*CAP
1 *6000:A0 0
2 *5999:X 0.000103718
3 *295:30 0.00120015
4 *295:28 0.00272449
5 *295:20 0.00167307
6 *295:14 0.000861406
7 *295:8 0.000816388
8 *295:8 *372:88 8.85189e-05
9 *295:8 *428:75 1.62751e-05
10 *295:8 *636:111 2.11799e-05
11 *295:8 *682:8 8.85189e-05
12 *295:14 *5967:A1 3.53115e-05
13 *295:14 *6142:A0 0.000269775
14 *295:14 *6195:A0 0.000361545
15 *295:14 *6543:A 0.000226306
16 *295:14 *372:74 7.73854e-05
17 *295:14 *372:88 0.00023483
18 *295:14 *500:28 5.41288e-05
19 *295:14 *768:79 2.18506e-05
20 *295:20 *768:79 0
21 *295:28 *6136:A0 0.000655835
22 *295:28 *362:59 0.000178287
23 *295:28 *362:61 0.000447085
24 *295:28 *367:10 0.000230604
25 *295:28 *374:10 0.000184527
26 *295:28 *500:28 0.000295993
27 *295:28 *572:8 5.50049e-05
28 *295:28 *741:10 0.000268868
29 *295:28 *769:6 0.000527112
30 *295:30 *6118:S 2.18409e-05
31 *295:30 *362:61 0.000389481
32 *295:30 *658:10 0.00364516
33 *295:30 *735:105 0.000178517
34 *5995:A1 *295:14 0.000205566
35 *225:68 *295:20 4.23714e-05
*RES
1 *5999:X *295:8 40.2579 
2 *295:8 *295:14 49.6786 
3 *295:14 *295:20 17.4029 
4 *295:20 *295:28 38.1609 
5 *295:28 *295:30 40.802 
6 *295:30 *6000:A0 23 
*END

*D_NET *296 0.00088862
*CONN
*I *6001:A I *D sky130_fd_sc_hd__clkbuf_1
*I *6000:X O *D sky130_fd_sc_hd__mux2_1
*CAP
1 *6001:A 0
2 *6000:X 0.000306213
3 *296:10 0.000306213
4 *296:10 *658:10 0.00010018
5 *296:10 *703:27 8.4047e-05
6 *296:10 *712:72 0
7 *6000:S *296:10 0
8 *42:12 *296:10 9.19669e-05
9 *239:206 *296:10 0
*RES
1 *6000:X *296:10 44.1729 
2 *296:10 *6001:A 38 
*END

*D_NET *297 0.00159668
*CONN
*I *6003:B1 I *D sky130_fd_sc_hd__o211a_4
*I *6002:X O *D sky130_fd_sc_hd__and4b_1
*CAP
1 *6003:B1 0
2 *6002:X 0.00024534
3 *297:10 0.00024534
4 *297:10 *6185:B 5.50049e-05
5 *297:10 *401:73 1.83667e-05
6 *297:10 *810:81 7.03766e-05
7 *297:10 *810:83 1.58805e-05
8 *297:10 *810:107 0.000338282
9 *297:10 *810:119 0.000143655
10 *297:10 *811:76 0.000310641
11 *182:44 *297:10 4.06408e-05
12 *182:102 *297:10 0.000113148
*RES
1 *6002:X *297:10 46.5964 
2 *297:10 *6003:B1 38 
*END

*D_NET *298 0.0264773
*CONN
*I *6014:S I *D sky130_fd_sc_hd__mux2_1
*I *6010:S I *D sky130_fd_sc_hd__mux2_1
*I *6004:S I *D sky130_fd_sc_hd__mux2_1
*I *6006:S I *D sky130_fd_sc_hd__mux2_1
*I *6016:S I *D sky130_fd_sc_hd__mux2_1
*I *6008:S I *D sky130_fd_sc_hd__mux2_1
*I *6012:S I *D sky130_fd_sc_hd__mux2_1
*I *6018:S I *D sky130_fd_sc_hd__mux2_1
*I *6003:X O *D sky130_fd_sc_hd__o211a_4
*CAP
1 *6014:S 0.000375583
2 *6010:S 0.000350425
3 *6004:S 3.2539e-05
4 *6006:S 0
5 *6016:S 0
6 *6008:S 5.71761e-05
7 *6012:S 4.01155e-05
8 *6018:S 0
9 *6003:X 0.000243146
10 *298:94 0.000773703
11 *298:77 0.00201496
12 *298:73 0.00204315
13 *298:67 0.00162286
14 *298:52 0.000560261
15 *298:50 0.00161921
16 *298:37 0.00293616
17 *298:33 0.00278597
18 *298:18 0.00225429
19 *298:14 0.00136389
20 *6004:S *6004:A0 2.93845e-05
21 *6008:S *6008:A0 0.000230604
22 *6008:S *329:62 0.00012377
23 *6010:S *757:33 2.90712e-05
24 *6010:S *757:50 0.000661051
25 *6014:S *460:31 0
26 *6014:S *493:10 0
27 *6014:S *493:56 0
28 *6014:S *541:12 4.55681e-05
29 *298:14 *338:14 2.93747e-05
30 *298:18 *6018:A1 6.07611e-06
31 *298:18 *319:12 0
32 *298:18 *338:8 8.62876e-05
33 *298:18 *527:14 0
34 *298:18 *543:10 0.000124873
35 *298:18 *810:79 0
36 *298:18 *810:81 0
37 *298:18 *811:8 3.56537e-05
38 *298:18 *811:12 8.43721e-05
39 *298:33 *6369:CLK 2.93747e-05
40 *298:33 *493:10 0
41 *298:33 *527:6 2.35238e-05
42 *298:33 *527:14 4.12569e-05
43 *298:33 *551:27 0.000604773
44 *298:33 *774:6 0.000215589
45 *298:37 *6012:A0 5.14746e-06
46 *298:37 *6012:A1 3.06338e-05
47 *298:37 *6367:CLK 9.24504e-05
48 *298:37 *303:10 6.71408e-06
49 *298:37 *460:31 7.57176e-05
50 *298:37 *525:10 1.7009e-05
51 *298:37 *694:6 1.94812e-05
52 *298:50 *6012:A1 8.84808e-05
53 *298:50 *484:44 0.000266732
54 *298:50 *484:48 3.16784e-05
55 *298:50 *484:96 0.000190439
56 *298:50 *530:16 5.50049e-05
57 *298:50 *773:10 0.000108681
58 *298:67 *6008:A0 2.18409e-05
59 *298:67 *6310:A1 0.000213941
60 *298:67 *6613:A 4.05745e-05
61 *298:67 *329:62 0.000481943
62 *298:67 *329:81 0.00077043
63 *298:67 *470:145 0.000482844
64 *298:67 *486:57 7.55996e-05
65 *298:67 *486:72 1.62015e-05
66 *298:67 *781:6 1.57571e-05
67 *298:73 *6157:A 0
68 *298:73 *6404:CLK 0
69 *298:73 *486:57 7.2873e-05
70 *298:73 *668:10 2.29192e-05
71 *298:77 *6389:CLK 0
72 *298:77 *299:8 0
73 *298:77 *305:10 0
74 *298:77 *461:10 0
75 *298:77 *485:30 0
76 *298:77 *724:122 0
77 *298:77 *724:134 4.6599e-05
78 *298:94 *6291:A 0.000225399
79 *298:94 *467:10 2.93747e-05
80 *298:94 *579:10 0
81 *298:94 *659:10 0.000141954
82 *298:94 *724:122 0.000216847
83 *5978:S0 *6014:S 0
84 *5978:S0 *298:33 0
85 *6003:A2 *298:14 4.00259e-06
86 *6340:D *298:50 9.21169e-06
87 *6366:D *298:50 7.10068e-06
88 *6369:D *298:33 1.64354e-05
89 *46:8 *298:67 3.81391e-05
90 *72:12 *298:37 0.000155947
91 *171:8 *298:77 0
92 *182:8 *298:18 0
93 *182:40 *298:18 0.000394824
94 *182:42 *298:18 0.000265339
95 *182:44 *298:18 0.000188926
96 *215:193 *298:14 6.00286e-05
97 *230:109 *298:73 0
98 *230:109 *298:77 0
*RES
1 *6003:X *298:14 42.9714 
2 *298:14 *298:18 40.4993 
3 *298:18 *6018:S 23 
4 *298:18 *298:33 34.6993 
5 *298:33 *298:37 33.2493 
6 *298:37 *6012:S 23.8493 
7 *298:37 *298:50 38.6143 
8 *298:50 *298:52 15 
9 *298:52 *6008:S 26.0243 
10 *298:52 *298:67 32.98 
11 *298:67 *298:73 14.2929 
12 *298:73 *298:77 37.6821 
13 *298:77 *6016:S 23 
14 *298:77 *298:94 46.53 
15 *298:94 *6006:S 23 
16 *298:73 *6004:S 38.6214 
17 *298:67 *6010:S 46.265 
18 *298:33 *6014:S 44.4836 
*END

*D_NET *299 0.000696106
*CONN
*I *6005:A I *D sky130_fd_sc_hd__clkbuf_1
*I *6004:X O *D sky130_fd_sc_hd__mux2_1
*CAP
1 *6005:A 0.000175578
2 *6004:X 6.87722e-05
3 *299:8 0.000244351
4 *6005:A *6480:CLK 0.000181098
5 *43:10 *6005:A 8.91468e-07
6 *230:109 *299:8 2.5415e-05
7 *298:77 *299:8 0
*RES
1 *6004:X *299:8 39.2014 
2 *299:8 *6005:A 40.9 
*END

*D_NET *300 0.000912509
*CONN
*I *6007:A I *D sky130_fd_sc_hd__clkbuf_1
*I *6006:X O *D sky130_fd_sc_hd__mux2_1
*CAP
1 *6007:A 0.000352906
2 *6006:X 5.7591e-05
3 *300:8 0.000410497
4 *6007:A *482:59 4.06849e-05
5 *300:8 *625:122 2.5415e-05
6 *300:8 *724:122 2.5415e-05
*RES
1 *6006:X *300:8 39.2014 
2 *300:8 *6007:A 43.1579 
*END

*D_NET *301 0.000784964
*CONN
*I *6009:A I *D sky130_fd_sc_hd__clkbuf_1
*I *6008:X O *D sky130_fd_sc_hd__mux2_1
*CAP
1 *6009:A 0
2 *6008:X 0.000256873
3 *301:10 0.000256873
4 *301:10 *329:62 5.67058e-05
5 *301:10 *484:34 7.80251e-05
6 *301:10 *484:118 0
7 *301:10 *746:14 0
8 *45:10 *301:10 0.000136486
*RES
1 *6008:X *301:10 43.3443 
2 *301:10 *6009:A 38 
*END

*D_NET *302 0.000482015
*CONN
*I *6011:A I *D sky130_fd_sc_hd__clkbuf_1
*I *6010:X O *D sky130_fd_sc_hd__mux2_1
*CAP
1 *6011:A 0.000125705
2 *6010:X 0.000125705
3 *6011:A *757:33 0
4 *6011:A *757:50 0.000230604
*RES
1 *6010:X *6011:A 49.3764 
*END

*D_NET *303 0.00072892
*CONN
*I *6013:A I *D sky130_fd_sc_hd__clkbuf_1
*I *6012:X O *D sky130_fd_sc_hd__mux2_1
*CAP
1 *6013:A 0
2 *6012:X 0.000320285
3 *303:10 0.000320285
4 *303:10 *6616:A 0
5 *303:10 *329:46 0
6 *303:10 *493:71 0
7 *303:10 *525:10 0
8 *303:10 *532:14 0
9 *303:10 *540:12 0
10 *47:8 *303:10 8.16356e-05
11 *298:37 *303:10 6.71408e-06
*RES
1 *6012:X *303:10 43.6964 
2 *303:10 *6013:A 38 
*END

*D_NET *304 0.000162624
*CONN
*I *6015:A I *D sky130_fd_sc_hd__clkbuf_1
*I *6014:X O *D sky130_fd_sc_hd__mux2_1
*CAP
1 *6015:A 6.92661e-05
2 *6014:X 6.92661e-05
3 *6015:A *319:39 1.79175e-05
4 *6015:A *329:29 6.17437e-06
*RES
1 *6014:X *6015:A 47.4707 
*END

*D_NET *305 0.000651787
*CONN
*I *6017:A I *D sky130_fd_sc_hd__clkbuf_1
*I *6016:X O *D sky130_fd_sc_hd__mux2_1
*CAP
1 *6017:A 0
2 *6016:X 0.000298078
3 *305:10 0.000298078
4 *305:10 *6389:CLK 0
5 *305:10 *485:28 0
6 *305:10 *485:30 0
7 *49:8 *305:10 5.56306e-05
8 *298:77 *305:10 0
*RES
1 *6016:X *305:10 43.3443 
2 *305:10 *6017:A 38 
*END

*D_NET *306 0.000943842
*CONN
*I *6019:A I *D sky130_fd_sc_hd__clkbuf_1
*I *6018:X O *D sky130_fd_sc_hd__mux2_1
*CAP
1 *6019:A 3.45118e-05
2 *6018:X 0.000299938
3 *306:12 0.000334449
4 *6019:A *6303:A 3.45967e-05
5 *6019:A *493:35 6.68617e-05
6 *306:12 *460:8 3.56537e-05
7 *306:12 *468:10 5.80963e-05
8 *306:12 *551:6 2.30292e-05
9 *50:12 *6019:A 5.67058e-05
*RES
1 *6018:X *306:12 43.5307 
2 *306:12 *6019:A 39.4707 
*END

*D_NET *307 0.00147604
*CONN
*I *6021:B I *D sky130_fd_sc_hd__nor2_1
*I *6114:A I *D sky130_fd_sc_hd__nor2_1
*I *6132:B I *D sky130_fd_sc_hd__nor2_1
*I *6020:X O *D sky130_fd_sc_hd__or2_1
*CAP
1 *6021:B 0
2 *6114:A 0
3 *6132:B 1.89322e-05
4 *6020:X 8.02816e-05
5 *307:32 0.000155682
6 *307:17 0.000253523
7 *307:6 0.000197055
8 *6132:B *6132:A 1.73222e-05
9 *307:6 *6132:A 2.93845e-05
10 *307:6 *360:25 0.000189234
11 *307:17 *6132:A 5.65874e-05
12 *307:17 *360:25 8.264e-05
13 *307:17 *361:8 0.00010018
14 *307:32 *6132:A 9.72057e-06
15 *182:56 *6132:B 0
16 *182:56 *307:6 0.000140259
17 *182:75 *307:6 4.2573e-05
18 *182:75 *307:32 0
19 *211:50 *307:6 1.03836e-05
20 *212:14 *307:32 2.54046e-05
21 *292:10 *307:32 6.68793e-05
*RES
1 *6020:X *307:6 26.0036 
2 *307:6 *6132:B 23.4971 
3 *307:6 *307:17 3.02429 
4 *307:17 *6114:A 23 
5 *307:17 *307:32 33.3764 
6 *307:32 *6021:B 23 
*END

*D_NET *308 0.000991496
*CONN
*I *6022:B1 I *D sky130_fd_sc_hd__o211a_4
*I *6021:Y O *D sky130_fd_sc_hd__nor2_1
*CAP
1 *6022:B1 0
2 *6021:Y 0.00017373
3 *308:6 0.00017373
4 *308:6 *309:10 4.5051e-05
5 *308:6 *401:73 0.000122226
6 *6021:A *308:6 2.93747e-05
7 *6022:C1 *308:6 0.000185434
8 *215:174 *308:6 0.000261951
*RES
1 *6021:Y *308:6 28.3857 
2 *308:6 *6022:B1 23 
*END

*D_NET *309 0.0308373
*CONN
*I *6033:S I *D sky130_fd_sc_hd__mux2_1
*I *6023:S I *D sky130_fd_sc_hd__mux2_1
*I *6025:S I *D sky130_fd_sc_hd__mux2_1
*I *6029:S I *D sky130_fd_sc_hd__mux2_1
*I *6027:S I *D sky130_fd_sc_hd__mux2_1
*I *6035:S I *D sky130_fd_sc_hd__mux2_1
*I *6031:S I *D sky130_fd_sc_hd__mux2_1
*I *6037:S I *D sky130_fd_sc_hd__mux2_1
*I *6022:X O *D sky130_fd_sc_hd__o211a_4
*CAP
1 *6033:S 0
2 *6023:S 0
3 *6025:S 0.000248677
4 *6029:S 0.000126377
5 *6027:S 0
6 *6035:S 0
7 *6031:S 0.000181318
8 *6037:S 5.20556e-05
9 *6022:X 0.000373865
10 *309:125 0.000758421
11 *309:101 0.00115881
12 *309:82 0.0018884
13 *309:69 0.00190627
14 *309:65 0.001689
15 *309:52 0.00158031
16 *309:31 0.00163306
17 *309:16 0.0005581
18 *309:14 0.0021432
19 *309:12 0.0021432
20 *309:10 0.00113229
21 *6025:S *479:130 2.11066e-05
22 *6025:S *684:10 2.5415e-05
23 *6029:S *6029:A1 0.00014196
24 *6029:S *6030:A 1.24376e-05
25 *6029:S *728:6 2.4754e-05
26 *6029:S *757:75 9.41704e-05
27 *6031:S *6595:A 0.000267173
28 *6031:S *494:99 0.000194318
29 *6031:S *625:51 9.63918e-05
30 *6031:S *763:6 4.79544e-05
31 *6037:S *401:36 5.41385e-05
32 *309:10 *401:73 0.000129152
33 *309:14 *6327:CLK 0.000234382
34 *309:14 *372:72 6.60455e-05
35 *309:14 *397:10 0.000174314
36 *309:14 *417:8 0
37 *309:14 *470:18 0
38 *309:14 *470:96 0
39 *309:14 *478:10 0
40 *309:14 *489:14 0.000268569
41 *309:14 *489:34 0.000852736
42 *309:14 *489:95 0.000568324
43 *309:14 *492:68 0.000237981
44 *309:14 *492:76 0
45 *309:14 *658:26 0
46 *309:14 *779:91 0.000218952
47 *309:31 *401:36 0.000136687
48 *309:52 *5985:A3 0.000287826
49 *309:52 *6630:A 0.000264564
50 *309:52 *494:99 0.000214862
51 *309:52 *625:51 7.20415e-05
52 *309:52 *625:66 2.24973e-05
53 *309:52 *625:82 8.36011e-05
54 *309:52 *755:8 0.000140528
55 *309:52 *768:44 0
56 *309:65 *6630:A 8.6949e-05
57 *309:65 *625:100 0.000796855
58 *309:65 *633:6 0.000164259
59 *309:69 *5949:A1 4.99853e-05
60 *309:69 *6525:A 4.35743e-05
61 *309:82 *5949:A1 8.16253e-05
62 *309:82 *6632:A 0
63 *309:82 *372:128 0
64 *309:82 *401:87 0
65 *309:82 *483:63 0
66 *309:82 *495:88 0
67 *309:82 *562:25 0.000132743
68 *309:82 *570:16 1.02387e-05
69 *309:82 *595:16 0
70 *309:82 *721:8 0.000164282
71 *309:82 *750:10 0
72 *309:82 *757:79 0
73 *309:101 *568:23 8.55082e-05
74 *309:101 *625:100 6.68822e-05
75 *309:101 *625:114 9.17998e-05
76 *309:125 *401:73 0.000333349
77 *309:125 *501:24 0.000270904
78 *5949:S1 *309:82 6.3239e-06
79 *6022:A1 *309:10 0.000155279
80 *6022:A2 *309:10 9.5877e-05
81 *6022:C1 *309:10 0.000228909
82 *6348:D *309:65 0.000360727
83 *30:8 *309:82 0.000371908
84 *53:12 *309:69 9.35596e-05
85 *53:12 *309:82 0.000201568
86 *54:8 *309:82 0.000127184
87 *58:8 *309:14 7.21237e-05
88 *104:8 *309:14 0
89 *120:8 *309:14 0
90 *190:82 *309:14 0
91 *215:10 *309:14 0
92 *225:149 *6025:S 0
93 *225:160 *309:14 0
94 *225:170 *309:82 0
95 *225:181 *309:82 0.000226427
96 *225:198 *309:82 0.000640966
97 *226:183 *6025:S 0.000103773
98 *226:204 *309:82 0
99 *226:219 *309:82 0
100 *230:66 *309:52 0
101 *230:81 *309:125 0
102 *230:183 *309:101 0.000172924
103 *232:39 *309:52 0.000180218
104 *233:62 *309:125 0.000194318
105 *237:97 *6031:S 0.000193729
106 *237:124 *6025:S 0.000296026
107 *237:124 *309:101 0.000395921
108 *255:14 *309:101 0.000301873
109 *279:8 *309:14 6.95768e-05
110 *287:8 *6037:S 9.67842e-05
111 *287:8 *309:31 0.00130105
112 *293:8 *309:14 0
113 *308:6 *309:10 4.5051e-05
*RES
1 *6022:X *309:10 31.7621 
2 *309:10 *309:12 15 
3 *309:12 *309:14 48.0364 
4 *309:14 *309:16 15 
5 *309:16 *6037:S 24.595 
6 *309:16 *309:31 29.935 
7 *309:31 *6031:S 44.5664 
8 *309:31 *309:52 33.8293 
9 *309:52 *6035:S 23 
10 *309:52 *309:65 17.835 
11 *309:65 *309:69 17.9621 
12 *309:69 *6027:S 38 
13 *309:69 *309:82 37.8864 
14 *309:82 *6029:S 41.0036 
15 *309:65 *309:101 36.9779 
16 *309:101 *6025:S 43.7793 
17 *309:101 *6023:S 38 
18 *309:10 *309:125 46.5714 
19 *309:125 *6033:S 23 
*END

*D_NET *310 0.00107649
*CONN
*I *6024:A I *D sky130_fd_sc_hd__clkbuf_1
*I *6023:X O *D sky130_fd_sc_hd__mux2_1
*CAP
1 *6024:A 0
2 *6023:X 0.000266462
3 *310:10 0.000266462
4 *310:10 *6545:A 0.000169674
5 *310:10 *560:14 0.000171906
6 *310:10 *568:23 0.00014698
7 *310:10 *652:12 5.50049e-05
*RES
1 *6023:X *310:10 43.7379 
2 *310:10 *6024:A 38 
*END

*D_NET *311 0.00107991
*CONN
*I *6026:A I *D sky130_fd_sc_hd__clkbuf_1
*I *6025:X O *D sky130_fd_sc_hd__mux2_1
*CAP
1 *6026:A 0
2 *6025:X 0.000359592
3 *311:10 0.000359592
4 *311:10 *6025:A1 0.000315857
5 *311:10 *497:27 4.48671e-05
6 *311:10 *569:12 0
7 *225:149 *311:10 0
*RES
1 *6025:X *311:10 44.7943 
2 *311:10 *6026:A 38 
*END

*D_NET *312 0.00237808
*CONN
*I *6028:A I *D sky130_fd_sc_hd__clkbuf_1
*I *6027:X O *D sky130_fd_sc_hd__mux2_1
*CAP
1 *6028:A 0.00013518
2 *6027:X 0.000577838
3 *312:12 0.000713019
4 *6028:A *6120:A1 0
5 *312:12 *6027:A0 2.03764e-06
6 *312:12 *6388:CLK 0.000395901
7 *312:12 *664:10 0.000138174
8 *5954:A0 *312:12 2.81066e-05
9 *226:204 *312:12 0.000302227
10 *226:219 *6028:A 6.29422e-05
11 *250:8 *312:12 2.26489e-05
*RES
1 *6027:X *312:12 48.5746 
2 *312:12 *6028:A 40.8896 
*END

*D_NET *313 0.000178936
*CONN
*I *6030:A I *D sky130_fd_sc_hd__clkbuf_1
*I *6029:X O *D sky130_fd_sc_hd__mux2_1
*CAP
1 *6030:A 7.16488e-05
2 *6029:X 7.16488e-05
3 *6030:A *757:75 2.32004e-05
4 *6029:S *6030:A 1.24376e-05
*RES
1 *6029:X *6030:A 47.4707 
*END

*D_NET *314 0.000944784
*CONN
*I *6032:A I *D sky130_fd_sc_hd__clkbuf_1
*I *6031:X O *D sky130_fd_sc_hd__mux2_1
*CAP
1 *6032:A 2.55595e-05
2 *6031:X 0.000324188
3 *314:10 0.000349748
4 *6032:A *6350:CLK 5.67058e-05
5 *314:10 *401:36 0
6 *314:10 *768:69 9.01041e-05
7 *239:168 *6032:A 9.84794e-05
*RES
1 *6031:X *314:10 42.4329 
2 *314:10 *6032:A 39.0979 
*END

*D_NET *315 0.00017903
*CONN
*I *6034:A I *D sky130_fd_sc_hd__clkbuf_1
*I *6033:X O *D sky130_fd_sc_hd__mux2_1
*CAP
1 *6034:A 4.96476e-05
2 *6033:X 4.96476e-05
3 *6034:A *401:83 2.30292e-05
4 *6034:A *779:141 5.67058e-05
*RES
1 *6033:X *6034:A 47.4707 
*END

*D_NET *316 0.000438634
*CONN
*I *6036:A I *D sky130_fd_sc_hd__clkbuf_1
*I *6035:X O *D sky130_fd_sc_hd__mux2_1
*CAP
1 *6036:A 0
2 *6035:X 0.000130619
3 *316:10 0.000130619
4 *316:10 *625:82 5.26204e-05
5 *57:8 *316:10 4.08641e-05
6 *230:66 *316:10 2.72055e-05
7 *232:39 *316:10 5.67058e-05
*RES
1 *6035:X *316:10 40.8793 
2 *316:10 *6036:A 38 
*END

*D_NET *317 0.00159435
*CONN
*I *6038:A I *D sky130_fd_sc_hd__clkbuf_1
*I *6037:X O *D sky130_fd_sc_hd__mux2_1
*CAP
1 *6038:A 8.00852e-05
2 *6037:X 0.00038833
3 *317:10 0.000468415
4 *6038:A *6350:CLK 1.24376e-05
5 *317:10 *401:36 0.0002263
6 *317:10 *658:26 9.96443e-05
7 *58:8 *317:10 0.000135403
8 *239:168 *6038:A 0.000183733
*RES
1 *6037:X *317:10 45.25 
2 *317:10 *6038:A 40.0507 
*END

*D_NET *318 0.000971068
*CONN
*I *6040:B1 I *D sky130_fd_sc_hd__o211a_4
*I *6039:X O *D sky130_fd_sc_hd__and4_1
*CAP
1 *6040:B1 0
2 *6039:X 0.00041396
3 *318:10 0.00041396
4 *318:10 *319:12 0.00011624
5 *190:207 *318:10 6.07611e-06
6 *215:206 *318:10 2.08324e-05
7 *292:10 *318:10 0
*RES
1 *6039:X *318:10 45.1257 
2 *318:10 *6040:B1 38 
*END

*D_NET *319 0.0288269
*CONN
*I *6051:S I *D sky130_fd_sc_hd__mux2_1
*I *6047:S I *D sky130_fd_sc_hd__mux2_1
*I *6041:S I *D sky130_fd_sc_hd__mux2_1
*I *6043:S I *D sky130_fd_sc_hd__mux2_1
*I *6053:S I *D sky130_fd_sc_hd__mux2_1
*I *6045:S I *D sky130_fd_sc_hd__mux2_1
*I *6049:S I *D sky130_fd_sc_hd__mux2_1
*I *6055:S I *D sky130_fd_sc_hd__mux2_1
*I *6040:X O *D sky130_fd_sc_hd__o211a_4
*CAP
1 *6051:S 0.00027494
2 *6047:S 0.000223975
3 *6041:S 0
4 *6043:S 3.51405e-05
5 *6053:S 4.01155e-05
6 *6045:S 0
7 *6049:S 0
8 *6055:S 6.52465e-05
9 *6040:X 0
10 *319:124 0.000862695
11 *319:109 0.00140503
12 *319:105 0.00178815
13 *319:95 0.00241155
14 *319:84 0.0011342
15 *319:78 0.0014115
16 *319:59 0.00207729
17 *319:51 0.00128155
18 *319:49 0.000232428
19 *319:39 0.00148397
20 *319:12 0.0030244
21 *319:6 0.0015642
22 *6043:S *321:10 4.96717e-05
23 *6043:S *537:29 9.75779e-05
24 *6047:S *323:10 0.000185434
25 *6047:S *660:6 6.27395e-05
26 *6047:S *757:169 0.000294145
27 *6047:S *770:10 9.0102e-05
28 *6051:S *6051:A0 6.53345e-06
29 *6051:S *6298:A1 2.14669e-05
30 *6051:S *779:181 0.000138513
31 *6055:S *6055:A1 2.28308e-05
32 *6055:S *460:31 0.000160508
33 *6055:S *636:38 6.64208e-05
34 *6055:S *636:47 3.22879e-05
35 *319:12 *337:8 0
36 *319:12 *492:28 0
37 *319:12 *527:14 0
38 *319:12 *535:18 0
39 *319:12 *543:10 0
40 *319:12 *551:27 0
41 *319:12 *812:113 0
42 *319:39 *6583:A 5.50049e-05
43 *319:39 *329:29 0.000779353
44 *319:39 *535:18 0
45 *319:49 *6014:A1 0.000181125
46 *319:49 *329:29 9.91798e-05
47 *319:49 *533:18 8.72173e-05
48 *319:49 *549:29 8.94487e-05
49 *319:51 *533:18 3.63546e-05
50 *319:51 *549:29 0
51 *319:51 *779:33 3.47781e-05
52 *319:51 *779:181 0.000177852
53 *319:59 *6049:A0 1.56665e-05
54 *319:59 *6049:A1 0.000182826
55 *319:59 *6297:A 0.000128391
56 *319:59 *324:10 0.000267167
57 *319:59 *493:69 0.000166062
58 *319:78 *6046:A 0.000230604
59 *319:78 *6049:A0 0.000227208
60 *319:78 *6593:A 1.14154e-05
61 *319:78 *322:8 3.5561e-05
62 *319:78 *324:10 0.000192031
63 *319:78 *530:16 0
64 *319:78 *530:29 3.67392e-05
65 *319:78 *546:8 4.45701e-05
66 *319:78 *546:25 0.000218329
67 *319:84 *6045:A0 1.61385e-05
68 *319:84 *530:16 2.64616e-05
69 *319:84 *746:227 0.000173264
70 *319:95 *6045:A0 5.33272e-05
71 *319:105 *5960:A3 1.34354e-05
72 *319:105 *6602:A 3.42537e-05
73 *319:105 *320:10 1.7992e-05
74 *319:105 *323:10 7.70038e-05
75 *319:105 *460:78 0
76 *319:105 *486:34 0.000423417
77 *319:105 *486:93 0.000163352
78 *319:105 *523:26 3.47879e-05
79 *319:105 *637:8 2.5415e-05
80 *319:105 *661:8 6.83914e-05
81 *319:105 *757:154 0
82 *319:105 *757:169 0
83 *319:105 *770:10 0.000142418
84 *319:109 *6502:A 0.000140949
85 *319:109 *479:238 0.000235604
86 *319:109 *485:10 0.000379413
87 *319:109 *486:10 0.000277705
88 *319:109 *486:34 0.000387591
89 *319:109 *661:8 0.000163884
90 *319:124 *6053:A0 9.5877e-05
91 *319:124 *6368:CLK 5.41385e-05
92 *319:124 *329:87 0
93 *319:124 *336:8 8.85189e-05
94 *319:124 *485:90 0.000176647
95 *319:124 *485:118 8.05704e-05
96 *319:124 *526:6 1.05235e-05
97 *319:124 *526:22 8.22145e-05
98 *319:124 *526:35 9.26098e-05
99 *6015:A *319:39 1.79175e-05
100 *6368:D *319:124 1.64354e-05
101 *6482:D *319:78 1.64354e-05
102 *16:5 *319:78 0
103 *59:10 *319:105 0
104 *61:8 *319:78 0
105 *64:8 *6051:S 0
106 *64:8 *319:51 0
107 *66:8 *319:39 0
108 *88:8 *319:12 0
109 *169:10 *319:59 0.000187129
110 *182:8 *319:12 7.03869e-05
111 *182:40 *319:12 0
112 *190:207 *319:12 1.14452e-05
113 *211:23 *319:12 0
114 *211:25 *319:12 0
115 *211:31 *319:12 0
116 *230:126 *319:124 0.000437535
117 *232:141 *319:105 0
118 *232:143 *319:105 6.38388e-05
119 *232:157 *319:109 0.000170506
120 *232:167 *319:124 0.000272321
121 *232:305 *319:12 6.93449e-05
122 *233:181 *319:109 0
123 *298:18 *319:12 0
124 *318:10 *319:12 0.00011624
*RES
1 *6040:X *319:6 38 
2 *319:6 *319:12 29.5593 
3 *319:12 *6055:S 41.19 
4 *319:12 *319:39 37.5579 
5 *319:39 *319:49 48.2521 
6 *319:49 *319:51 2.96214 
7 *319:51 *319:59 32.8143 
8 *319:59 *6049:S 23 
9 *319:59 *319:78 41.5557 
10 *319:78 *319:84 19.4536 
11 *319:84 *6045:S 23 
12 *319:84 *319:95 32.835 
13 *319:95 *319:105 24.6914 
14 *319:105 *319:109 31.3436 
15 *319:109 *6053:S 23.8493 
16 *319:109 *319:124 35.1136 
17 *319:124 *6043:S 39.0979 
18 *319:105 *6041:S 38 
19 *319:95 *6047:S 45.9543 
20 *319:51 *6051:S 42.3293 
*END

*D_NET *320 0.00133903
*CONN
*I *6042:A I *D sky130_fd_sc_hd__clkbuf_1
*I *6041:X O *D sky130_fd_sc_hd__mux2_1
*CAP
1 *6042:A 0.000106071
2 *6041:X 0.000140682
3 *320:10 0.000246753
4 *6042:A *528:26 0.000181125
5 *320:10 *339:63 0.000139357
6 *320:10 *528:26 0.000245565
7 *320:10 *661:8 0.000189974
8 *320:10 *724:151 7.15126e-05
9 *319:105 *320:10 1.7992e-05
*RES
1 *6041:X *320:10 42.8886 
2 *320:10 *6042:A 40.0507 
*END

*D_NET *321 0.00133342
*CONN
*I *6044:A I *D sky130_fd_sc_hd__clkbuf_1
*I *6043:X O *D sky130_fd_sc_hd__mux2_1
*CAP
1 *6044:A 2.95011e-05
2 *6043:X 0.000406336
3 *321:10 0.000435837
4 *6044:A *6363:CLK 5.50106e-05
5 *321:10 *6355:CLK 0.000189575
6 *321:10 *485:90 1.14452e-05
7 *321:10 *537:29 7.2e-05
8 *6043:S *321:10 4.96717e-05
9 *60:10 *321:10 8.4047e-05
*RES
1 *6043:X *321:10 44.2143 
2 *321:10 *6044:A 38.6214 
*END

*D_NET *322 0.00081793
*CONN
*I *6046:A I *D sky130_fd_sc_hd__clkbuf_1
*I *6045:X O *D sky130_fd_sc_hd__mux2_1
*CAP
1 *6046:A 0.000192602
2 *6045:X 5.87875e-05
3 *322:8 0.000251389
4 *6046:A *546:25 1.32314e-05
5 *322:8 *530:29 1.0092e-05
6 *16:5 *322:8 2.56634e-05
7 *319:78 *6046:A 0.000230604
8 *319:78 *322:8 3.5561e-05
*RES
1 *6045:X *322:8 39.2014 
2 *322:8 *6046:A 42.6814 
*END

*D_NET *323 0.000988663
*CONN
*I *6048:A I *D sky130_fd_sc_hd__clkbuf_1
*I *6047:X O *D sky130_fd_sc_hd__mux2_1
*CAP
1 *6048:A 4.7268e-05
2 *6047:X 0.00019636
3 *323:10 0.000243628
4 *6048:A *486:83 5.3304e-05
5 *323:10 *486:93 3.47781e-05
6 *323:10 *770:10 5.50106e-05
7 *6047:S *323:10 0.000185434
8 *6357:D *6048:A 9.5877e-05
9 *319:105 *323:10 7.70038e-05
*RES
1 *6047:X *323:10 42.6607 
2 *323:10 *6048:A 39.0979 
*END

*D_NET *324 0.00190398
*CONN
*I *6050:A I *D sky130_fd_sc_hd__clkbuf_1
*I *6049:X O *D sky130_fd_sc_hd__mux2_1
*CAP
1 *6050:A 0
2 *6049:X 0.000670954
3 *324:10 0.000670954
4 *324:10 *6356:CLK 0
5 *324:10 *630:8 5.00904e-05
6 *63:8 *324:10 5.27824e-05
7 *319:59 *324:10 0.000267167
8 *319:78 *324:10 0.000192031
*RES
1 *6049:X *324:10 49.5379 
2 *324:10 *6050:A 38 
*END

*D_NET *325 0.00043847
*CONN
*I *6052:A I *D sky130_fd_sc_hd__clkbuf_1
*I *6051:X O *D sky130_fd_sc_hd__mux2_1
*CAP
1 *6052:A 0
2 *6051:X 0.000172517
3 *325:10 0.000172517
4 *325:10 *6298:A1 5.45644e-05
5 *64:8 *325:10 3.88725e-05
*RES
1 *6051:X *325:10 41.0036 
2 *325:10 *6052:A 38 
*END

*D_NET *326 0.00183994
*CONN
*I *6054:A I *D sky130_fd_sc_hd__clkbuf_1
*I *6053:X O *D sky130_fd_sc_hd__mux2_1
*CAP
1 *6054:A 0.000648705
2 *6053:X 3.55839e-05
3 *326:8 0.000684289
4 *6054:A *485:16 0.000103593
5 *6054:A *485:86 8.45194e-05
6 *6054:A *534:12 0.000108446
7 *326:8 *460:80 8.85189e-05
8 *326:8 *534:31 8.62876e-05
*RES
1 *6053:X *326:8 39.2014 
2 *326:8 *6054:A 46.9693 
*END

*D_NET *327 0.000179962
*CONN
*I *6056:A I *D sky130_fd_sc_hd__clkbuf_1
*I *6055:X O *D sky130_fd_sc_hd__mux2_1
*CAP
1 *6056:A 5.42679e-05
2 *6055:X 5.42679e-05
3 *6056:A *460:31 7.14265e-05
*RES
1 *6055:X *6056:A 47.4707 
*END

*D_NET *328 0.0011961
*CONN
*I *6058:B1 I *D sky130_fd_sc_hd__o211a_4
*I *6057:X O *D sky130_fd_sc_hd__and4b_1
*CAP
1 *6058:B1 0
2 *6057:X 0.000550116
3 *328:8 0.000550116
4 *328:8 *329:8 9.58714e-05
*RES
1 *6057:X *328:8 31.7414 
2 *328:8 *6058:B1 23 
*END

*D_NET *329 0.0287271
*CONN
*I *6067:S I *D sky130_fd_sc_hd__mux2_1
*I *6065:S I *D sky130_fd_sc_hd__mux2_1
*I *6059:S I *D sky130_fd_sc_hd__mux2_1
*I *6071:S I *D sky130_fd_sc_hd__mux2_1
*I *6061:S I *D sky130_fd_sc_hd__mux2_1
*I *6063:S I *D sky130_fd_sc_hd__mux2_1
*I *6069:S I *D sky130_fd_sc_hd__mux2_1
*I *6073:S I *D sky130_fd_sc_hd__mux2_1
*I *6058:X O *D sky130_fd_sc_hd__o211a_4
*CAP
1 *6067:S 0
2 *6065:S 0.000122983
3 *6059:S 0
4 *6071:S 0
5 *6061:S 0.000427534
6 *6063:S 0
7 *6069:S 2.34823e-05
8 *6073:S 0
9 *6058:X 5.14097e-05
10 *329:87 0.000865464
11 *329:85 0.00130052
12 *329:81 0.00267166
13 *329:70 0.000367381
14 *329:62 0.003114
15 *329:50 0.00143335
16 *329:46 0.00136771
17 *329:29 0.001778
18 *329:10 0.00140345
19 *329:8 0.000695233
20 *6061:S *485:90 9.98891e-05
21 *6061:S *646:6 5.70419e-05
22 *6065:S *6065:A0 0.00010018
23 *6065:S *333:10 5.70419e-05
24 *6065:S *470:145 0.000110235
25 *329:10 *351:31 0.00105221
26 *329:10 *493:10 0.000232514
27 *329:10 *493:27 0
28 *329:10 *527:27 6.43005e-05
29 *329:10 *636:53 0.00184503
30 *329:29 *6014:A1 3.66767e-05
31 *329:29 *493:10 0.000101564
32 *329:29 *493:27 0
33 *329:29 *493:56 0.000114864
34 *329:29 *527:27 1.14452e-05
35 *329:29 *739:6 0.000291211
36 *329:29 *751:8 0
37 *329:29 *779:22 1.03955e-05
38 *329:29 *784:6 5.70419e-05
39 *329:46 *532:14 0.000163352
40 *329:46 *768:18 0
41 *329:46 *768:20 0
42 *329:46 *768:26 0
43 *329:46 *779:20 0.000191957
44 *329:46 *780:8 9.32509e-05
45 *329:46 *784:6 0.00024615
46 *329:50 *6067:A1 0.000438462
47 *329:50 *6553:A 2.69545e-05
48 *329:50 *334:10 0.00010018
49 *329:50 *692:6 1.22822e-05
50 *329:62 *6008:A0 3.51496e-05
51 *329:62 *6008:A1 5.50049e-05
52 *329:62 *6553:A 5.69698e-05
53 *329:62 *692:6 0.000445374
54 *329:70 *6063:A1 7.13587e-05
55 *329:70 *332:8 0.000163361
56 *329:70 *460:76 0.000228909
57 *329:70 *530:16 0
58 *329:70 *538:27 6.25829e-05
59 *329:70 *546:25 8.11447e-05
60 *329:70 *759:6 0.00010018
61 *329:81 *470:145 0.000344503
62 *329:81 *539:8 5.50106e-05
63 *329:81 *539:27 0.000359483
64 *329:85 *6103:S 9.53554e-05
65 *329:85 *355:8 0.000201341
66 *329:85 *662:8 0
67 *329:85 *724:164 0.000816662
68 *329:85 *757:182 5.56306e-05
69 *329:87 *485:90 8.92841e-05
70 *329:87 *485:118 0.000123428
71 *329:87 *526:35 0
72 *6008:S *329:62 0.00012377
73 *6015:A *329:29 6.17437e-06
74 *16:5 *329:70 0
75 *48:8 *329:29 9.41331e-05
76 *230:126 *329:87 0
77 *230:211 *329:85 1.62615e-05
78 *230:211 *329:87 1.19796e-05
79 *233:139 *329:70 0.000131087
80 *233:150 *329:70 7.8128e-05
81 *233:171 *329:85 0
82 *233:306 *329:85 6.44678e-05
83 *236:8 *329:85 0.00014411
84 *237:163 *6061:S 6.63801e-05
85 *237:163 *329:85 6.85412e-05
86 *237:163 *329:87 0.000286154
87 *237:175 *329:85 0
88 *260:8 *329:85 0
89 *262:8 *329:85 0.000775268
90 *298:67 *329:62 0.000481943
91 *298:67 *329:81 0.00077043
92 *301:10 *329:62 5.67058e-05
93 *303:10 *329:46 0
94 *319:39 *329:29 0.000779353
95 *319:49 *329:29 9.91798e-05
96 *319:124 *329:87 0
97 *328:8 *329:8 9.58714e-05
*RES
1 *6058:X *329:8 39.0979 
2 *329:8 *329:10 25.1471 
3 *329:10 *6073:S 38 
4 *329:10 *329:29 34.3471 
5 *329:29 *6069:S 23.4971 
6 *329:29 *329:46 49.0157 
7 *329:46 *329:50 7.78857 
8 *329:50 *329:62 20.8593 
9 *329:62 *329:70 40.0671 
10 *329:70 *6063:S 23 
11 *329:62 *329:81 27.3429 
12 *329:81 *329:85 40.8514 
13 *329:85 *329:87 11.4136 
14 *329:87 *6061:S 46.4721 
15 *329:87 *6071:S 38 
16 *329:85 *6059:S 38 
17 *329:81 *6065:S 26.48 
18 *329:50 *6067:S 23 
*END

*D_NET *330 0.000490199
*CONN
*I *6060:A I *D sky130_fd_sc_hd__clkbuf_1
*I *6059:X O *D sky130_fd_sc_hd__mux2_1
*CAP
1 *6060:A 0
2 *6059:X 0.000160419
3 *330:10 0.000160419
4 *230:211 *330:10 0.000169361
5 *259:18 *330:10 0
*RES
1 *6059:X *330:10 41.0036 
2 *330:10 *6060:A 38 
*END

*D_NET *331 0.000309738
*CONN
*I *6062:A I *D sky130_fd_sc_hd__clkbuf_1
*I *6061:X O *D sky130_fd_sc_hd__mux2_1
*CAP
1 *6062:A 0
2 *6061:X 6.19564e-05
3 *331:8 6.19564e-05
4 *331:8 *351:119 4.48671e-05
5 *231:22 *331:8 0.000140958
*RES
1 *6061:X *331:8 39.9057 
2 *331:8 *6062:A 38 
*END

*D_NET *332 0.000612482
*CONN
*I *6064:A I *D sky130_fd_sc_hd__clkbuf_1
*I *6063:X O *D sky130_fd_sc_hd__mux2_1
*CAP
1 *6064:A 1.91252e-05
2 *6063:X 6.95969e-05
3 *332:8 8.87222e-05
4 *6064:A *6364:CLK 5.3304e-05
5 *332:8 *546:25 0.000163361
6 *6364:D *6064:A 5.50106e-05
7 *329:70 *332:8 0.000163361
*RES
1 *6063:X *332:8 40.2579 
2 *332:8 *6064:A 38.6214 
*END

*D_NET *333 0.00081253
*CONN
*I *6066:A I *D sky130_fd_sc_hd__clkbuf_1
*I *6065:X O *D sky130_fd_sc_hd__mux2_1
*CAP
1 *6066:A 0
2 *6065:X 0.00031342
3 *333:10 0.00031342
4 *333:10 *6521:A 0
5 *333:10 *486:106 0
6 *333:10 *531:16 0
7 *6065:S *333:10 5.70419e-05
8 *70:10 *333:10 4.2361e-05
9 *233:306 *333:10 0
10 *260:8 *333:10 8.62876e-05
*RES
1 *6065:X *333:10 43.8207 
2 *333:10 *6066:A 38 
*END

*D_NET *334 0.00146016
*CONN
*I *6068:A I *D sky130_fd_sc_hd__clkbuf_1
*I *6067:X O *D sky130_fd_sc_hd__mux2_1
*CAP
1 *6068:A 0
2 *6067:X 0.000358116
3 *334:10 0.000358116
4 *334:10 *548:29 4.32475e-05
5 *71:10 *334:10 0.000343064
6 *232:258 *334:10 0
7 *233:81 *334:10 0.000164833
8 *233:92 *334:10 9.26005e-05
9 *329:50 *334:10 0.00010018
*RES
1 *6067:X *334:10 46.99 
2 *334:10 *6068:A 38 
*END

*D_NET *335 0.00109348
*CONN
*I *6070:A I *D sky130_fd_sc_hd__clkbuf_1
*I *6069:X O *D sky130_fd_sc_hd__mux2_1
*CAP
1 *6070:A 0.000156422
2 *6069:X 0.000150878
3 *335:8 0.0003073
4 *6070:A *6367:CLK 0.000120432
5 *335:8 *533:18 8.62876e-05
6 *335:8 *549:29 2.61699e-05
7 *335:8 *779:33 4.41619e-05
8 *5978:S0 *335:8 0
9 *72:12 *6070:A 3.53115e-05
10 *233:106 *335:8 0.000166513
*RES
1 *6069:X *335:8 42.0186 
2 *335:8 *6070:A 40.9 
*END

*D_NET *336 0.000574466
*CONN
*I *6072:A I *D sky130_fd_sc_hd__clkbuf_1
*I *6071:X O *D sky130_fd_sc_hd__mux2_1
*CAP
1 *6072:A 0.000155263
2 *6071:X 4.45717e-05
3 *336:8 0.000199834
4 *230:126 *336:8 8.62783e-05
5 *319:124 *336:8 8.85189e-05
*RES
1 *6071:X *336:8 39.2014 
2 *336:8 *6072:A 40.7757 
*END

*D_NET *337 0.00128827
*CONN
*I *6074:A I *D sky130_fd_sc_hd__clkbuf_1
*I *6073:X O *D sky130_fd_sc_hd__mux2_1
*CAP
1 *6074:A 0
2 *6073:X 0.000295554
3 *337:8 0.000295554
4 *337:8 *493:27 0.000166522
5 *337:8 *493:35 0.000136486
6 *337:8 *535:18 4.41722e-05
7 *337:8 *636:53 0
8 *74:10 *337:8 0.000323822
9 *232:305 *337:8 0
10 *292:10 *337:8 2.61595e-05
11 *319:12 *337:8 0
*RES
1 *6073:X *337:8 45.8921 
2 *337:8 *6074:A 38 
*END

*D_NET *338 0.00283095
*CONN
*I *6076:B1 I *D sky130_fd_sc_hd__o211a_4
*I *6075:X O *D sky130_fd_sc_hd__and4b_1
*CAP
1 *6076:B1 0
2 *6075:X 4.36871e-05
3 *338:14 0.000978503
4 *338:8 0.00102219
5 *338:8 *810:81 2.79004e-05
6 *338:14 *339:8 2.19998e-05
7 *338:14 *339:31 7.90208e-05
8 *6003:A1 *338:14 0.000119313
9 *6003:A2 *338:14 1.79651e-05
10 *6040:A1 *338:14 0.000401899
11 *215:193 *338:14 2.80924e-06
12 *298:14 *338:14 2.93747e-05
13 *298:18 *338:8 8.62876e-05
*RES
1 *6075:X *338:8 39.2014 
2 *338:8 *338:14 29.21 
3 *338:14 *6076:B1 23 
*END

*D_NET *339 0.0333622
*CONN
*I *6087:S I *D sky130_fd_sc_hd__mux2_1
*I *6083:S I *D sky130_fd_sc_hd__mux2_1
*I *6077:S I *D sky130_fd_sc_hd__mux2_1
*I *6079:S I *D sky130_fd_sc_hd__mux2_1
*I *6089:S I *D sky130_fd_sc_hd__mux2_1
*I *6081:S I *D sky130_fd_sc_hd__mux2_1
*I *6085:S I *D sky130_fd_sc_hd__mux2_1
*I *6091:S I *D sky130_fd_sc_hd__mux2_1
*I *6076:X O *D sky130_fd_sc_hd__o211a_4
*CAP
1 *6087:S 0.00044613
2 *6083:S 0.000344395
3 *6077:S 6.20443e-05
4 *6079:S 0
5 *6089:S 0.000388266
6 *6081:S 0
7 *6085:S 2.34823e-05
8 *6091:S 7.30557e-05
9 *6076:X 9.98413e-05
10 *339:91 0.000967319
11 *339:81 0.000693948
12 *339:75 0.0011426
13 *339:71 0.00161172
14 *339:65 0.000866369
15 *339:63 0.00271857
16 *339:61 0.00283422
17 *339:50 0.0012475
18 *339:37 0.0016984
19 *339:31 0.00199555
20 *339:12 0.000860583
21 *339:8 0.00189373
22 *6077:S *6077:A0 1.76557e-05
23 *6077:S *6077:A1 5.41385e-05
24 *6083:S *6531:A 8.47448e-05
25 *6083:S *343:8 0
26 *6083:S *515:10 8.16253e-05
27 *6083:S *611:12 0
28 *6087:S *6087:A0 4.96717e-05
29 *6087:S *6087:A1 2.98648e-05
30 *6087:S *470:96 2.72055e-05
31 *6087:S *492:8 0
32 *6087:S *492:64 0
33 *6087:S *779:62 0.00035793
34 *6089:S *518:12 0.000110425
35 *6089:S *518:25 2.93747e-05
36 *6089:S *622:45 9.00923e-05
37 *6089:S *775:6 8.09334e-05
38 *6091:S *6635:A 9.41704e-05
39 *6091:S *511:10 6.17437e-06
40 *6091:S *636:57 1.21972e-05
41 *6091:S *638:10 9.41704e-05
42 *339:12 *350:14 0.000215801
43 *339:12 *351:31 0.000765702
44 *339:12 *362:12 4.42688e-05
45 *339:12 *382:141 0.000282649
46 *339:12 *519:10 0.000166522
47 *339:12 *636:53 0.00199633
48 *339:31 *470:96 0.000115293
49 *339:31 *492:64 0
50 *339:31 *492:68 0
51 *339:37 *6085:A0 2.4754e-05
52 *339:37 *6085:A1 5.50049e-05
53 *339:37 *6162:A0 0.000196488
54 *339:37 *6163:A 1.14154e-05
55 *339:37 *6572:A 5.50049e-05
56 *339:37 *344:10 3.22879e-05
57 *339:37 *382:24 0.000593652
58 *339:37 *779:62 0.000139346
59 *339:37 *779:73 0.000127821
60 *339:50 *6085:A0 0.000455339
61 *339:50 *6085:A1 1.24376e-05
62 *339:50 *6501:A 0
63 *339:50 *6538:A 0
64 *339:50 *6632:A 5.50049e-05
65 *339:50 *382:24 0.000267837
66 *339:50 *483:53 5.3656e-05
67 *339:50 *746:45 9.39159e-05
68 *339:61 *6538:A 0
69 *339:61 *746:37 0
70 *339:63 *6156:A0 1.02949e-05
71 *339:63 *6156:A1 0.000190672
72 *339:63 *385:8 0.00052451
73 *339:63 *724:151 2.98648e-05
74 *339:63 *724:164 0.00013173
75 *339:71 *6077:A1 5.12254e-05
76 *339:71 *340:10 0.000382564
77 *339:71 *343:8 0
78 *339:71 *351:111 0
79 *339:71 *512:12 0
80 *339:71 *688:8 4.85126e-05
81 *339:75 *351:111 0
82 *339:75 *470:56 0.00138511
83 *339:75 *504:31 0
84 *339:75 *512:12 0
85 *339:75 *608:12 0.000114268
86 *339:75 *724:206 0
87 *339:75 *724:219 7.461e-05
88 *339:81 *735:162 2.81066e-05
89 *339:91 *470:56 0.000370869
90 *339:91 *643:12 2.79004e-05
91 *5943:S0 *339:91 0.000196293
92 *5962:A1 *6083:S 0
93 *6040:A2 *339:8 0
94 *6076:A1 *339:31 1.21972e-05
95 *6076:A2 *339:31 0.000103637
96 *75:8 *339:71 0.000194318
97 *107:10 *339:75 0
98 *112:8 *6087:S 0
99 *128:8 *339:31 0.000111852
100 *203:101 *339:12 0
101 *203:112 *339:12 0
102 *230:140 *6089:S 0.000315857
103 *230:196 *6089:S 0.000639088
104 *232:184 *6089:S 0.000569799
105 *232:184 *339:91 9.0102e-05
106 *232:192 *339:75 0
107 *232:192 *339:91 0
108 *233:247 *339:63 0.000460705
109 *233:253 *6083:S 0
110 *237:150 *6089:S 2.25419e-05
111 *263:14 *6083:S 0
112 *263:14 *339:71 0
113 *263:18 *339:63 8.65442e-05
114 *320:10 *339:63 0.000139357
115 *338:14 *339:8 2.19998e-05
116 *338:14 *339:31 7.90208e-05
*RES
1 *6076:X *339:8 24.595 
2 *339:8 *339:12 42.9643 
3 *339:12 *6091:S 39.5743 
4 *339:8 *339:31 31.5714 
5 *339:31 *339:37 30.4114 
6 *339:37 *6085:S 23.4971 
7 *339:37 *339:50 40.0229 
8 *339:50 *6081:S 38 
9 *339:50 *339:61 16.9057 
10 *339:61 *339:63 38.2593 
11 *339:63 *339:65 15 
12 *339:65 *339:71 26.8071 
13 *339:71 *339:75 39.4429 
14 *339:75 *339:81 16.9471 
15 *339:81 *339:91 40.4814 
16 *339:91 *6089:S 37.1271 
17 *339:81 *6079:S 23 
18 *339:71 *6077:S 24.5743 
19 *339:65 *6083:S 44.4836 
20 *339:31 *6087:S 46.3064 
*END

*D_NET *340 0.00102307
*CONN
*I *6078:A I *D sky130_fd_sc_hd__clkbuf_1
*I *6077:X O *D sky130_fd_sc_hd__mux2_1
*CAP
1 *6078:A 0
2 *6077:X 0.000271464
3 *340:10 0.000271464
4 *340:10 *6077:A1 9.75779e-05
5 *340:10 *512:12 0
6 *339:71 *340:10 0.000382564
*RES
1 *6077:X *340:10 44.1729 
2 *340:10 *6078:A 38 
*END

*D_NET *341 0.00152101
*CONN
*I *6080:A I *D sky130_fd_sc_hd__clkbuf_1
*I *6079:X O *D sky130_fd_sc_hd__mux2_1
*CAP
1 *6080:A 0.000250354
2 *6079:X 5.44451e-05
3 *341:8 0.000304799
4 *6080:A *643:12 0.000483632
5 *341:8 *351:119 2.79004e-05
6 *232:192 *341:8 4.334e-05
7 *247:6 *6080:A 0.00035654
*RES
1 *6079:X *341:8 39.2014 
2 *341:8 *6080:A 46.1407 
*END

*D_NET *342 0.00208461
*CONN
*I *6082:A I *D sky130_fd_sc_hd__clkbuf_1
*I *6081:X O *D sky130_fd_sc_hd__mux2_1
*CAP
1 *6082:A 0
2 *6081:X 0.000537709
3 *342:10 0.000537709
4 *342:10 *382:49 0.00052972
5 *342:10 *479:218 0.000125342
6 *342:10 *483:42 0
7 *342:10 *484:19 0.000166532
8 *85:8 *342:10 0.000187598
*RES
1 *6081:X *342:10 48.585 
2 *342:10 *6082:A 38 
*END

*D_NET *343 0.00160848
*CONN
*I *6084:A I *D sky130_fd_sc_hd__clkbuf_1
*I *6083:X O *D sky130_fd_sc_hd__mux2_1
*CAP
1 *6084:A 3.80977e-05
2 *6083:X 0.000340206
3 *343:8 0.000378304
4 *343:8 *6373:CLK 7.03421e-05
5 *343:8 *351:111 0.000366684
6 *5962:A1 *343:8 0.000221184
7 *6083:S *343:8 0
8 *263:14 *6084:A 2.64616e-05
9 *263:14 *343:8 0.0001672
10 *339:71 *343:8 0
*RES
1 *6083:X *343:8 45.8921 
2 *343:8 *6084:A 38.6214 
*END

*D_NET *344 0.000362996
*CONN
*I *6086:A I *D sky130_fd_sc_hd__clkbuf_1
*I *6085:X O *D sky130_fd_sc_hd__mux2_1
*CAP
1 *6086:A 0
2 *6085:X 0.000107725
3 *344:10 0.000107725
4 *230:81 *344:10 4.83778e-05
5 *233:62 *344:10 6.68793e-05
6 *339:37 *344:10 3.22879e-05
*RES
1 *6085:X *344:10 40.5271 
2 *344:10 *6086:A 38 
*END

*D_NET *345 0.00317152
*CONN
*I *6088:A I *D sky130_fd_sc_hd__clkbuf_1
*I *6087:X O *D sky130_fd_sc_hd__mux2_1
*CAP
1 *6088:A 0.000599244
2 *6087:X 0.000402017
3 *345:12 0.00100126
4 *6088:A *492:16 0.000250951
5 *345:12 *479:188 0.000530627
6 *345:12 *492:8 0
7 *345:12 *509:10 0.000163352
8 *80:12 *6088:A 0.000224064
*RES
1 *6087:X *345:12 47.57 
2 *345:12 *6088:A 46.6171 
*END

*D_NET *346 0.0012439
*CONN
*I *6090:A I *D sky130_fd_sc_hd__clkbuf_1
*I *6089:X O *D sky130_fd_sc_hd__mux2_1
*CAP
1 *6090:A 0
2 *6089:X 0.000432839
3 *346:10 0.000432839
4 *346:10 *6376:CLK 5.12254e-05
5 *346:10 *482:42 6.6869e-05
6 *346:10 *482:59 0.000216785
7 *81:8 *346:10 4.334e-05
*RES
1 *6089:X *346:10 45.2914 
2 *346:10 *6090:A 38 
*END

*D_NET *347 0.000928718
*CONN
*I *6092:A I *D sky130_fd_sc_hd__clkbuf_1
*I *6091:X O *D sky130_fd_sc_hd__mux2_1
*CAP
1 *6092:A 0
2 *6091:X 0.000358927
3 *347:10 0.000358927
4 *347:10 *359:10 0.000138718
5 *347:10 *489:53 6.68793e-05
6 *347:10 *511:10 5.26733e-06
*RES
1 *6091:X *347:10 43.3857 
2 *347:10 *6092:A 38 
*END

*D_NET *348 0.002629
*CONN
*I *6132:A I *D sky130_fd_sc_hd__nor2_1
*I *6095:A I *D sky130_fd_sc_hd__nor2_1
*I *6203:A I *D sky130_fd_sc_hd__nor2_1
*I *6093:X O *D sky130_fd_sc_hd__or2_1
*CAP
1 *6132:A 0.000148578
2 *6095:A 0
3 *6203:A 0.000114824
4 *6093:X 0
5 *348:27 0.000289392
6 *348:10 0.000526041
7 *348:6 0.000270403
8 *6132:A *371:8 1.14452e-05
9 *6203:A *6150:B 9.41492e-05
10 *6203:A *427:12 1.21972e-05
11 *348:10 *349:10 0.000108681
12 *348:10 *371:8 8.85189e-05
13 *348:27 *6150:A 8.90445e-05
14 *348:27 *6150:B 8.43466e-05
15 *348:27 *351:12 0.000106619
16 *348:27 *381:8 5.45887e-05
17 *348:27 *469:8 9.24795e-06
18 *6093:B *6132:A 0
19 *6132:B *6132:A 1.73222e-05
20 *182:56 *6132:A 0
21 *182:75 *6132:A 1.01436e-05
22 *203:184 *6132:A 3.26321e-05
23 *203:184 *348:10 9.27814e-05
24 *211:50 *6132:A 5.67058e-05
25 *212:14 *6132:A 3.72639e-05
26 *212:14 *348:10 0.000196469
27 *212:22 *348:27 4.34669e-05
28 *213:29 *6203:A 1.37232e-05
29 *292:10 *348:27 2.472e-05
30 *307:6 *6132:A 2.93845e-05
31 *307:17 *6132:A 5.65874e-05
32 *307:32 *6132:A 9.72057e-06
*RES
1 *6093:X *348:6 38 
2 *348:6 *348:10 19.0186 
3 *348:10 *6203:A 24.9471 
4 *348:10 *348:27 36.0693 
5 *348:27 *6095:A 23 
6 *348:6 *6132:A 41.77 
*END

*D_NET *349 0.00239669
*CONN
*I *6150:B I *D sky130_fd_sc_hd__nor2_1
*I *6304:B I *D sky130_fd_sc_hd__nor2_1
*I *6095:B I *D sky130_fd_sc_hd__nor2_1
*I *6094:X O *D sky130_fd_sc_hd__or2_1
*CAP
1 *6150:B 7.78425e-05
2 *6304:B 0
3 *6095:B 0.000195455
4 *6094:X 0.000301179
5 *349:27 7.78425e-05
6 *349:10 0.000496634
7 *6095:B *6151:B1 7.53384e-06
8 *6095:B *350:14 0
9 *6095:B *427:12 0.000215791
10 *6150:B *351:31 0
11 *6150:B *427:12 2.64616e-05
12 *6150:B *469:8 2.79662e-05
13 *5905:A1 *6095:B 2.93747e-05
14 *6203:A *6150:B 9.41492e-05
15 *203:175 *6095:B 1.14452e-05
16 *203:184 *6095:B 0.000245827
17 *203:184 *349:10 0.000151898
18 *212:14 *349:10 1.88972e-05
19 *212:22 *6095:B 0.000109606
20 *212:22 *349:10 6.07611e-06
21 *216:116 *6095:B 1.55097e-05
22 *279:16 *349:10 9.41704e-05
23 *348:10 *349:10 0.000108681
24 *348:27 *6150:B 8.43466e-05
*RES
1 *6094:X *349:10 43.7379 
2 *349:10 *6095:B 43.8829 
3 *349:10 *349:27 15 
4 *349:27 *6304:B 23 
5 *349:27 *6150:B 25.5686 
*END

*D_NET *350 0.00128903
*CONN
*I *6096:B1 I *D sky130_fd_sc_hd__o211a_4
*I *6095:Y O *D sky130_fd_sc_hd__nor2_1
*CAP
1 *6096:B1 0
2 *6095:Y 0.000341627
3 *350:14 0.000341627
4 *350:14 *6151:B1 0.000268899
5 *350:14 *382:6 5.50106e-05
6 *350:14 *382:14 0
7 *6095:B *350:14 0
8 *203:101 *350:14 6.60662e-05
9 *339:12 *350:14 0.000215801
*RES
1 *6095:Y *350:14 45.5607 
2 *350:14 *6096:B1 38 
*END

*D_NET *351 0.0346582
*CONN
*I *6101:S I *D sky130_fd_sc_hd__mux2_1
*I *6103:S I *D sky130_fd_sc_hd__mux2_1
*I *6097:S I *D sky130_fd_sc_hd__mux2_1
*I *6099:S I *D sky130_fd_sc_hd__mux2_1
*I *6109:S I *D sky130_fd_sc_hd__mux2_1
*I *6105:S I *D sky130_fd_sc_hd__mux2_1
*I *6107:S I *D sky130_fd_sc_hd__mux2_1
*I *6111:S I *D sky130_fd_sc_hd__mux2_1
*I *6096:X O *D sky130_fd_sc_hd__o211a_4
*CAP
1 *6101:S 0
2 *6103:S 0.000191834
3 *6097:S 0
4 *6099:S 3.30941e-05
5 *6109:S 0
6 *6105:S 0
7 *6107:S 2.95011e-05
8 *6111:S 8.62769e-05
9 *6096:X 0
10 *351:133 0.000746682
11 *351:119 0.00223013
12 *351:111 0.00240128
13 *351:109 0.00139153
14 *351:101 0.000632444
15 *351:99 0.00252644
16 *351:79 0.00281378
17 *351:75 0.00151616
18 *351:52 0.00257871
19 *351:31 0.00244745
20 *351:12 0.000957852
21 *351:4 0.00193964
22 *6099:S *6099:A0 4.17736e-05
23 *6103:S *507:12 0
24 *6107:S *748:6 5.50106e-05
25 *6111:S *362:22 0.000139357
26 *6111:S *401:62 0.000185195
27 *351:12 *362:22 3.70187e-05
28 *351:12 *427:12 0
29 *351:12 *428:52 0
30 *351:12 *489:53 0.000188142
31 *351:31 *469:8 6.46983e-05
32 *351:31 *479:196 8.93326e-05
33 *351:31 *492:8 0
34 *351:31 *493:10 0.000183894
35 *351:31 *509:10 0
36 *351:31 *636:53 0.000128921
37 *351:52 *479:188 0
38 *351:75 *5970:A0 5.71628e-05
39 *351:75 *6105:A1 0.000179627
40 *351:75 *508:35 1.16872e-05
41 *351:75 *620:14 2.46922e-05
42 *351:75 *777:8 4.6318e-06
43 *351:79 *6101:A0 1.76557e-05
44 *351:79 *6102:A 6.44998e-05
45 *351:79 *746:31 5.70419e-05
46 *351:99 *5952:A2 0.000533918
47 *351:99 *6381:CLK 0.00023234
48 *351:99 *486:38 0.000109813
49 *351:99 *486:42 0.000168256
50 *351:99 *528:10 9.5877e-05
51 *351:99 *618:22 8.89615e-06
52 *351:99 *746:31 7.43025e-06
53 *351:111 *6373:CLK 3.68344e-05
54 *351:111 *352:10 0.000354778
55 *351:111 *678:8 0
56 *351:111 *688:8 0
57 *351:111 *724:179 0.00014933
58 *351:119 *353:10 0
59 *351:119 *470:52 0.000139647
60 *351:119 *529:10 0.000110922
61 *351:119 *617:12 0
62 *351:119 *678:8 0.000111852
63 *351:119 *735:170 0.000336358
64 *351:133 *6099:A0 5.67058e-05
65 *351:133 *353:10 6.17437e-06
66 *351:133 *470:34 0.000534291
67 *351:133 *669:14 0
68 *351:133 *735:129 0.00106501
69 *351:133 *735:192 0.000167954
70 *5952:S0 *351:99 0.00010018
71 *5980:S *351:52 2.11066e-05
72 *6058:C1 *351:31 0.000185095
73 *6096:C1 *351:31 0
74 *6150:B *351:31 0
75 *6354:D *351:99 5.10613e-05
76 *6381:D *351:99 4.9054e-06
77 *78:8 *351:111 8.78535e-05
78 *190:59 *351:12 0.000161121
79 *203:54 *351:12 0
80 *203:64 *351:12 8.62876e-05
81 *212:22 *351:12 0
82 *215:146 *351:31 7.8128e-05
83 *215:155 *351:31 0.000118807
84 *215:166 *351:31 8.67156e-05
85 *215:170 *351:31 6.16439e-05
86 *215:213 *351:31 0.000181013
87 *230:196 *351:119 0.000138727
88 *230:224 *6103:S 0
89 *230:224 *351:109 0
90 *230:224 *351:111 0
91 *231:18 *351:119 0
92 *231:18 *351:133 2.33476e-05
93 *231:22 *351:111 0
94 *231:22 *351:119 0
95 *232:81 *351:75 5.12328e-05
96 *232:85 *351:75 1.70886e-05
97 *232:192 *351:111 0.000221172
98 *232:192 *351:119 2.96154e-05
99 *232:240 *351:109 0.000215589
100 *232:278 *351:52 0.000336545
101 *237:163 *351:111 0
102 *237:175 *351:111 0
103 *244:8 *351:119 0.000302339
104 *245:14 *351:119 0.000153324
105 *253:10 *351:99 4.14986e-05
106 *260:8 *6103:S 0.000255292
107 *262:8 *6103:S 0.000110024
108 *262:8 *351:109 0.000111138
109 *284:16 *351:133 6.88568e-05
110 *292:10 *351:12 0.000619619
111 *329:10 *351:31 0.00105221
112 *329:85 *6103:S 9.53554e-05
113 *331:8 *351:119 4.48671e-05
114 *339:12 *351:31 0.000765702
115 *339:71 *351:111 0
116 *339:75 *351:111 0
117 *341:8 *351:119 2.79004e-05
118 *343:8 *351:111 0.000366684
119 *348:27 *351:12 0.000106619
*RES
1 *6096:X *351:4 23 
2 *351:4 *351:12 35.4036 
3 *351:12 *6111:S 40.5479 
4 *351:4 *351:31 45.9886 
5 *351:31 *6107:S 38.6214 
6 *351:31 *351:52 34.9835 
7 *351:52 *6105:S 23 
8 *351:52 *351:75 49.3368 
9 *351:75 *351:79 5.99679 
10 *351:79 *351:99 38.3421 
11 *351:99 *351:101 15 
12 *351:101 *351:109 37.395 
13 *351:109 *351:111 21.6257 
14 *351:111 *351:119 45.0357 
15 *351:119 *351:133 38.0942 
16 *351:133 *6109:S 38 
17 *351:119 *6099:S 23.6214 
18 *351:111 *6097:S 38 
19 *351:101 *6103:S 44.4836 
20 *351:79 *6101:S 23 
*END

*D_NET *352 0.00141605
*CONN
*I *6098:A I *D sky130_fd_sc_hd__clkbuf_1
*I *6097:X O *D sky130_fd_sc_hd__mux2_1
*CAP
1 *6098:A 0
2 *6097:X 0.000297758
3 *352:10 0.000297758
4 *352:10 *6402:CLK 4.27353e-05
5 *352:10 *724:179 0.000409789
6 *352:10 *724:188 1.32314e-05
7 *351:111 *352:10 0.000354778
*RES
1 *6097:X *352:10 45.25 
2 *352:10 *6098:A 38 
*END

*D_NET *353 0.000880724
*CONN
*I *6100:A I *D sky130_fd_sc_hd__clkbuf_1
*I *6099:X O *D sky130_fd_sc_hd__mux2_1
*CAP
1 *6100:A 0
2 *6099:X 0.000258384
3 *353:10 0.000258384
4 *353:10 *735:129 9.8971e-06
5 *231:18 *353:10 0.000347884
6 *351:119 *353:10 0
7 *351:133 *353:10 6.17437e-06
*RES
1 *6099:X *353:10 43.3443 
2 *353:10 *6100:A 38 
*END

*D_NET *354 0.000195059
*CONN
*I *6102:A I *D sky130_fd_sc_hd__clkbuf_1
*I *6101:X O *D sky130_fd_sc_hd__mux2_1
*CAP
1 *6102:A 6.52793e-05
2 *6101:X 6.52793e-05
3 *351:79 *6102:A 6.44998e-05
*RES
1 *6101:X *6102:A 47.4707 
*END

*D_NET *355 0.000930085
*CONN
*I *6104:A I *D sky130_fd_sc_hd__clkbuf_1
*I *6103:X O *D sky130_fd_sc_hd__mux2_1
*CAP
1 *6104:A 0
2 *6103:X 0.00029008
3 *355:8 0.00029008
4 *86:10 *355:8 5.01247e-05
5 *233:171 *355:8 0
6 *233:306 *355:8 9.8459e-05
7 *329:85 *355:8 0.000201341
*RES
1 *6103:X *355:8 45.8921 
2 *355:8 *6104:A 38 
*END

*D_NET *356 0.000781312
*CONN
*I *6106:A I *D sky130_fd_sc_hd__clkbuf_1
*I *6105:X O *D sky130_fd_sc_hd__mux2_1
*CAP
1 *6106:A 0
2 *6105:X 0.000327742
3 *356:10 0.000327742
4 *356:10 *6382:CLK 0
5 *356:10 *508:12 0
6 *356:10 *620:14 0
7 *5980:S *356:10 4.06849e-05
8 *87:8 *356:10 8.51432e-05
9 *276:12 *356:10 0
*RES
1 *6105:X *356:10 44.1729 
2 *356:10 *6106:A 38 
*END

*D_NET *357 0.000147136
*CONN
*I *6108:A I *D sky130_fd_sc_hd__clkbuf_1
*I *6107:X O *D sky130_fd_sc_hd__mux2_1
*CAP
1 *6108:A 7.35678e-05
2 *6107:X 7.35678e-05
*RES
1 *6107:X *6108:A 47.4707 
*END

*D_NET *358 0.00132078
*CONN
*I *6110:A I *D sky130_fd_sc_hd__clkbuf_1
*I *6109:X O *D sky130_fd_sc_hd__mux2_1
*CAP
1 *6110:A 0.000265779
2 *6109:X 0.000213126
3 *358:8 0.000478905
4 *358:8 *510:14 7.89973e-05
5 *358:8 *622:30 4.51599e-05
6 *358:8 *724:120 0
7 *358:8 *735:117 0
8 *358:8 *735:192 0
9 *230:155 *6110:A 0.00023881
*RES
1 *6109:X *358:8 42.0186 
2 *358:8 *6110:A 43.2821 
*END

*D_NET *359 0.00122168
*CONN
*I *6112:A I *D sky130_fd_sc_hd__clkbuf_1
*I *6111:X O *D sky130_fd_sc_hd__mux2_1
*CAP
1 *6112:A 3.95982e-05
2 *6111:X 0.000259642
3 *359:10 0.00029924
4 *6112:A *411:77 9.67842e-05
5 *359:10 *401:62 7.88828e-05
6 *359:10 *428:52 0.000181422
7 *359:10 *489:53 7.23925e-05
8 *6377:D *6112:A 5.50049e-05
9 *347:10 *359:10 0.000138718
*RES
1 *6111:X *359:10 44.2971 
2 *359:10 *6112:A 39.0979 
*END

*D_NET *360 0.00332259
*CONN
*I *6114:B I *D sky130_fd_sc_hd__nor2_1
*I *6150:A I *D sky130_fd_sc_hd__nor2_1
*I *6233:B I *D sky130_fd_sc_hd__nor2_1
*I *6113:X O *D sky130_fd_sc_hd__or2_1
*CAP
1 *6114:B 7.50845e-05
2 *6150:A 0.000259136
3 *6233:B 0
4 *6113:X 0
5 *360:25 0.000765117
6 *360:12 0.00026736
7 *360:4 0.000698257
8 *6150:A *469:8 2.93747e-05
9 *360:12 *401:12 0.000136955
10 *6287:A1 *360:12 8.1796e-05
11 *182:56 *360:25 0.000193292
12 *190:192 *360:12 0
13 *212:14 *6114:B 3.16765e-05
14 *212:14 *6150:A 0.00026025
15 *212:22 *6150:A 6.07611e-06
16 *213:29 *360:12 0.00014196
17 *292:10 *6114:B 1.53384e-05
18 *292:10 *6150:A 0
19 *307:6 *360:25 0.000189234
20 *307:17 *360:25 8.264e-05
21 *348:27 *6150:A 8.90445e-05
*RES
1 *6113:X *360:4 23 
2 *360:4 *360:12 36.2971 
3 *360:12 *6233:B 23 
4 *360:4 *360:25 21.9807 
5 *360:25 *6150:A 43.6964 
6 *360:25 *6114:B 39.6157 
*END

*D_NET *361 0.000975659
*CONN
*I *6115:B1 I *D sky130_fd_sc_hd__o211a_4
*I *6114:Y O *D sky130_fd_sc_hd__nor2_1
*CAP
1 *6115:B1 0
2 *6114:Y 0.000356513
3 *361:8 0.000356513
4 *361:8 *362:8 5.3304e-05
5 *6115:C1 *361:8 5.41385e-05
6 *203:129 *361:8 5.50106e-05
7 *307:17 *361:8 0.00010018
*RES
1 *6114:Y *361:8 28.8829 
2 *361:8 *6115:B1 23 
*END

*D_NET *362 0.0382403
*CONN
*I *6126:S I *D sky130_fd_sc_hd__mux2_1
*I *6122:S I *D sky130_fd_sc_hd__mux2_1
*I *6120:S I *D sky130_fd_sc_hd__mux2_1
*I *6128:S I *D sky130_fd_sc_hd__mux2_1
*I *6124:S I *D sky130_fd_sc_hd__mux2_1
*I *6118:S I *D sky130_fd_sc_hd__mux2_1
*I *6116:S I *D sky130_fd_sc_hd__mux2_1
*I *6130:S I *D sky130_fd_sc_hd__mux2_1
*I *6115:X O *D sky130_fd_sc_hd__o211a_4
*CAP
1 *6126:S 4.62025e-05
2 *6122:S 0.000131758
3 *6120:S 0
4 *6128:S 0
5 *6124:S 0
6 *6118:S 7.68648e-05
7 *6116:S 0
8 *6130:S 9.04266e-05
9 *6115:X 3.6708e-05
10 *362:109 0.000986457
11 *362:101 0.00111821
12 *362:99 0.00150498
13 *362:95 0.00268714
14 *362:67 0.000356353
15 *362:61 0.00156465
16 *362:59 0.00193932
17 *362:51 0.00164172
18 *362:45 0.00144695
19 *362:37 0.00361084
20 *362:22 0.00125239
21 *362:12 0.00364632
22 *362:8 0.000659315
23 *6118:S *735:105 5.50106e-05
24 *6122:S *499:10 3.70187e-05
25 *6122:S *746:45 0
26 *6126:S *768:42 0
27 *6130:S *6130:A1 0.000187129
28 *6130:S *503:29 2.4754e-05
29 *362:12 *5997:A3 9.21347e-06
30 *362:12 *511:10 3.83778e-05
31 *362:12 *519:10 6.02277e-06
32 *362:12 *636:53 0.00160689
33 *362:22 *5994:A2 0.000432289
34 *362:22 *6543:A 2.76611e-06
35 *362:22 *428:52 0
36 *362:22 *428:65 0.000142233
37 *362:22 *489:53 6.85357e-05
38 *362:22 *575:16 0.000131286
39 *362:22 *615:18 0.000409151
40 *362:22 *636:84 0
41 *362:22 *636:90 0
42 *362:22 *790:46 5.77379e-05
43 *362:37 *382:141 0.000175903
44 *362:37 *401:62 0.000941669
45 *362:37 *495:68 1.5769e-05
46 *362:37 *772:10 0.000269301
47 *362:45 *372:30 0.000408744
48 *362:45 *768:44 0
49 *362:51 *6124:A1 0.000564969
50 *362:51 *6128:A0 2.4754e-05
51 *362:51 *6128:A1 9.84851e-05
52 *362:51 *369:8 0.000140259
53 *362:51 *372:30 0
54 *362:51 *372:36 0
55 *362:51 *500:10 8.06039e-05
56 *362:51 *768:44 0.000924014
57 *362:59 *6124:A1 1.01436e-05
58 *362:59 *500:10 6.07611e-06
59 *362:59 *500:28 9.84851e-05
60 *362:59 *769:6 0.00012359
61 *362:61 *735:105 0.000137651
62 *362:67 *481:29 6.43253e-05
63 *362:67 *724:107 6.10346e-05
64 *362:67 *735:113 0.000291646
65 *362:95 *372:24 0
66 *362:95 *372:30 0
67 *362:95 *581:10 0.000345295
68 *362:95 *768:42 0
69 *362:95 *783:8 8.62876e-05
70 *362:99 *6126:A0 0.000272383
71 *362:109 *6120:A1 9.58714e-05
72 *362:109 *432:8 0
73 *362:109 *498:8 0.000166513
74 *362:109 *587:27 0.000103154
75 *362:109 *727:10 0.000114092
76 *362:109 *746:45 0
77 *5941:S *362:67 0.000237948
78 *5972:S *362:51 0
79 *5995:S *362:22 2.31209e-05
80 *6111:S *362:22 0.000139357
81 *101:8 *362:45 0.000110487
82 *101:8 *362:95 7.6144e-05
83 *230:16 *362:22 0.000357538
84 *233:14 *362:22 7.7377e-05
85 *233:321 *362:51 0.000136486
86 *237:78 *6130:S 0.00031495
87 *237:112 *362:51 0
88 *239:168 *6130:S 2.63049e-05
89 *241:14 *362:67 0.000218477
90 *254:10 *6122:S 0.000107548
91 *254:10 *362:109 0.000748446
92 *265:12 *362:59 0
93 *270:10 *6126:S 0
94 *270:10 *362:95 0
95 *271:10 *362:51 2.5343e-05
96 *292:10 *362:12 0.00181346
97 *292:10 *362:22 2.01814e-05
98 *292:18 *362:22 0.00090325
99 *294:10 *362:22 0.000106583
100 *295:28 *362:59 0.000178287
101 *295:28 *362:61 0.000447085
102 *295:30 *6118:S 2.18409e-05
103 *295:30 *362:61 0.000389481
104 *339:12 *362:12 4.42688e-05
105 *351:12 *362:22 3.70187e-05
106 *361:8 *362:8 5.3304e-05
*RES
1 *6115:X *362:8 38.6214 
2 *362:8 *362:12 39.4429 
3 *362:12 *362:22 44.725 
4 *362:22 *6130:S 41.9771 
5 *362:12 *362:37 42.7779 
6 *362:37 *362:45 28.3607 
7 *362:45 *362:51 36.7914 
8 *362:51 *362:59 27.6875 
9 *362:59 *362:61 22.7754 
10 *362:61 *362:67 39.3007 
11 *362:67 *6116:S 23 
12 *362:61 *6118:S 24.595 
13 *362:51 *6124:S 38 
14 *362:45 *6128:S 23 
15 *362:37 *362:95 21.2736 
16 *362:95 *362:99 39.4429 
17 *362:99 *362:101 15 
18 *362:101 *362:109 38.6971 
19 *362:109 *6120:S 23 
20 *362:101 *6122:S 41.3143 
21 *362:95 *6126:S 38.8493 
*END

*D_NET *363 0.00101826
*CONN
*I *6117:A I *D sky130_fd_sc_hd__clkbuf_1
*I *6116:X O *D sky130_fd_sc_hd__mux2_1
*CAP
1 *6117:A 0
2 *6116:X 0.000322186
3 *363:10 0.000322186
4 *363:10 *497:27 2.54193e-05
5 *226:183 *363:10 0
6 *227:14 *363:10 0.000348465
*RES
1 *6116:X *363:10 43.8207 
2 *363:10 *6117:A 38 
*END

*D_NET *364 0.000254145
*CONN
*I *6119:A I *D sky130_fd_sc_hd__clkbuf_1
*I *6118:X O *D sky130_fd_sc_hd__mux2_1
*CAP
1 *6119:A 0
2 *6118:X 6.99663e-05
3 *364:8 6.99663e-05
4 *227:14 *364:8 4.48568e-05
5 *241:14 *364:8 6.93553e-05
*RES
1 *6118:X *364:8 39.9057 
2 *364:8 *6119:A 38 
*END

*D_NET *365 0.000392762
*CONN
*I *6121:A I *D sky130_fd_sc_hd__clkbuf_1
*I *6120:X O *D sky130_fd_sc_hd__mux2_1
*CAP
1 *6121:A 0.000185303
2 *6120:X 0.000185303
3 *6121:A *6120:A1 2.21565e-05
*RES
1 *6120:X *6121:A 48.9 
*END

*D_NET *366 0.000389085
*CONN
*I *6123:A I *D sky130_fd_sc_hd__clkbuf_1
*I *6122:X O *D sky130_fd_sc_hd__mux2_1
*CAP
1 *6123:A 0
2 *6122:X 0.000131512
3 *366:10 0.000131512
4 *366:10 *6122:A1 5.67058e-05
5 *366:10 *499:10 0
6 *366:10 *746:45 6.93553e-05
7 *254:10 *366:10 0
*RES
1 *6122:X *366:10 40.5271 
2 *366:10 *6123:A 38 
*END

*D_NET *367 0.00135913
*CONN
*I *6125:A I *D sky130_fd_sc_hd__clkbuf_1
*I *6124:X O *D sky130_fd_sc_hd__mux2_1
*CAP
1 *6125:A 0
2 *6124:X 0.000342597
3 *367:10 0.000342597
4 *367:10 *6124:A1 0.000373937
5 *367:10 *494:99 0
6 *95:8 *367:10 6.93984e-05
7 *265:12 *367:10 0
8 *295:28 *367:10 0.000230604
*RES
1 *6124:X *367:10 45.6021 
2 *367:10 *6125:A 38 
*END

*D_NET *368 0.000784242
*CONN
*I *6127:A I *D sky130_fd_sc_hd__clkbuf_1
*I *6126:X O *D sky130_fd_sc_hd__mux2_1
*CAP
1 *6127:A 0
2 *6126:X 0.00012676
3 *368:8 0.00012676
4 *368:8 *768:42 0.000176883
5 *368:8 *779:156 0.000353839
*RES
1 *6126:X *368:8 42.7229 
2 *368:8 *6127:A 38 
*END

*D_NET *369 0.00103767
*CONN
*I *6129:A I *D sky130_fd_sc_hd__clkbuf_1
*I *6128:X O *D sky130_fd_sc_hd__mux2_1
*CAP
1 *6129:A 0
2 *6128:X 0.000371674
3 *369:8 0.000371674
4 *369:8 *6128:A0 7.92721e-05
5 *369:8 *6128:A1 4.05745e-05
6 *369:8 *6135:A 0
7 *369:8 *6512:A 4.84129e-06
8 *369:8 *625:66 2.93747e-05
9 *362:51 *369:8 0.000140259
*RES
1 *6128:X *369:8 29.7114 
2 *369:8 *6129:A 23 
*END

*D_NET *370 0.00253944
*CONN
*I *6131:A I *D sky130_fd_sc_hd__clkbuf_1
*I *6130:X O *D sky130_fd_sc_hd__mux2_1
*CAP
1 *6131:A 0.000303789
2 *6130:X 0.000305348
3 *370:12 0.000609137
4 *6131:A *6393:CLK 0.00060364
5 *6131:A *503:6 9.91798e-05
6 *370:12 *6037:A1 0
7 *370:12 *503:29 0.000163361
8 *370:12 *636:90 3.89785e-06
9 *98:10 *6131:A 3.34247e-05
10 *237:80 *6131:A 0.000280918
11 *239:168 *370:12 0.000136743
12 *290:8 *370:12 0
*RES
1 *6130:X *370:12 42.93 
2 *370:12 *6131:A 47.2179 
*END

*D_NET *371 0.00119036
*CONN
*I *6133:B1 I *D sky130_fd_sc_hd__o211a_4
*I *6132:Y O *D sky130_fd_sc_hd__nor2_1
*CAP
1 *6133:B1 0.000352478
2 *6132:Y 4.19535e-05
3 *371:8 0.000394432
4 *6133:B1 *372:10 0.000133734
5 *6132:A *371:8 1.14452e-05
6 *212:14 *371:8 8.85189e-05
7 *279:16 *6133:B1 7.9284e-05
8 *348:10 *371:8 8.85189e-05
*RES
1 *6132:Y *371:8 39.2014 
2 *371:8 *6133:B1 44.235 
*END

*D_NET *372 0.0278019
*CONN
*I *6144:S I *D sky130_fd_sc_hd__mux2_1
*I *6140:S I *D sky130_fd_sc_hd__mux2_1
*I *6138:S I *D sky130_fd_sc_hd__mux2_1
*I *6146:S I *D sky130_fd_sc_hd__mux2_1
*I *6142:S I *D sky130_fd_sc_hd__mux2_1
*I *6148:S I *D sky130_fd_sc_hd__mux2_1
*I *6134:S I *D sky130_fd_sc_hd__mux2_1
*I *6136:S I *D sky130_fd_sc_hd__mux2_1
*I *6133:X O *D sky130_fd_sc_hd__o211a_4
*CAP
1 *6144:S 0
2 *6140:S 0
3 *6138:S 8.53003e-05
4 *6146:S 0
5 *6142:S 4.22989e-05
6 *6148:S 0
7 *6134:S 9.10745e-05
8 *6136:S 0
9 *6133:X 0.000669781
10 *372:128 0.000950012
11 *372:88 0.000995938
12 *372:74 0.00121793
13 *372:72 0.00088462
14 *372:64 0.000986118
15 *372:42 0.000334789
16 *372:36 0.000871364
17 *372:30 0.00174194
18 *372:24 0.00196755
19 *372:20 0.00274796
20 *372:16 0.00102174
21 *372:10 0.000760565
22 *6134:S *687:6 2.4754e-05
23 *6134:S *724:64 0.000272383
24 *6138:S *6138:A1 5.56356e-05
25 *6138:S *746:85 4.00259e-06
26 *6138:S *771:6 2.1819e-05
27 *372:10 *6399:CLK 0.000127821
28 *372:10 *492:76 0.000228909
29 *372:16 *565:10 7.30978e-05
30 *372:16 *779:79 0.000141879
31 *372:16 *779:81 9.168e-05
32 *372:20 *6145:A 0
33 *372:20 *723:6 0.000250617
34 *372:24 *479:14 2.24608e-05
35 *372:30 *760:12 7.75329e-06
36 *372:36 *479:116 0
37 *372:36 *494:10 0.000355029
38 *372:42 *401:99 0.000166504
39 *372:42 *411:109 4.99753e-06
40 *372:42 *724:64 0.000813576
41 *372:42 *735:46 6.07611e-06
42 *372:42 *735:57 0.000303927
43 *372:64 *6146:A0 0.000297404
44 *372:72 *6146:A0 0.00010018
45 *372:72 *6619:A 5.67058e-05
46 *372:72 *488:8 6.92438e-05
47 *372:72 *488:14 2.20561e-05
48 *372:72 *559:10 4.39607e-05
49 *372:88 *6201:A1 4.43717e-05
50 *372:88 *6543:A 0.000267173
51 *372:88 *428:65 0
52 *372:88 *636:111 0.000141397
53 *372:88 *682:8 0.000109305
54 *372:128 *401:87 0.000164943
55 *372:128 *603:12 1.01436e-05
56 *5990:A1 *372:36 0.000327011
57 *5995:A1 *372:88 0.000370239
58 *6133:A2 *372:10 0.000139352
59 *6133:B1 *372:10 0.000133734
60 *6392:D *372:64 0.000401843
61 *6399:D *372:10 1.64354e-05
62 *58:8 *372:72 0
63 *97:8 *372:30 0.000143024
64 *125:10 *372:24 8.93766e-05
65 *125:10 *372:30 8.20948e-05
66 *190:109 *372:10 4.95081e-05
67 *190:120 *372:10 1.56665e-05
68 *225:160 *372:72 0.000782831
69 *230:55 *372:64 0.000588984
70 *233:31 *372:72 0.000788866
71 *233:321 *372:30 0
72 *233:321 *372:64 0.00023005
73 *233:321 *372:72 2.4754e-05
74 *237:112 *372:36 0.000112665
75 *237:118 *6134:S 0.000344286
76 *237:118 *372:36 0.00108277
77 *270:10 *372:24 0.000337286
78 *270:18 *372:30 0
79 *270:18 *372:36 0
80 *279:16 *372:10 0.00102886
81 *282:8 *372:30 8.85189e-05
82 *286:20 *6134:S 1.21972e-05
83 *286:20 *372:36 1.21972e-05
84 *291:10 *372:88 5.50106e-05
85 *295:8 *372:88 8.85189e-05
86 *295:14 *372:74 7.73854e-05
87 *295:14 *372:88 0.00023483
88 *309:14 *372:72 6.60455e-05
89 *309:82 *372:128 0
90 *362:45 *372:30 0.000408744
91 *362:51 *372:30 0
92 *362:51 *372:36 0
93 *362:95 *372:24 0
94 *362:95 *372:30 0
*RES
1 *6133:X *372:10 39.9857 
2 *372:10 *372:16 32.9621 
3 *372:16 *372:20 15.8879 
4 *372:20 *372:24 32.0479 
5 *372:24 *372:30 21.1079 
6 *372:30 *372:36 30.0179 
7 *372:36 *372:42 41.0614 
8 *372:42 *6136:S 23 
9 *372:36 *6134:S 27.4536 
10 *372:30 *372:64 26.1443 
11 *372:64 *372:72 49.9064 
12 *372:72 *372:74 2.52714 
13 *372:74 *372:88 49.2229 
14 *372:88 *6148:S 23 
15 *372:74 *6142:S 23.8493 
16 *372:64 *6146:S 23 
17 *372:24 *6138:S 39.595 
18 *372:20 *372:128 46.7993 
19 *372:128 *6140:S 23 
20 *372:16 *6144:S 23 
*END

*D_NET *373 0.00238774
*CONN
*I *6135:A I *D sky130_fd_sc_hd__clkbuf_1
*I *6134:X O *D sky130_fd_sc_hd__mux2_1
*CAP
1 *6135:A 0.000303321
2 *6134:X 0.000370909
3 *373:8 0.00067423
4 *6135:A *6187:S 0.000127821
5 *6135:A *6512:A 8.638e-05
6 *6135:A *401:93 0.0002263
7 *6135:A *402:10 3.46673e-05
8 *6135:A *495:8 0.000355029
9 *373:8 *6187:A1 0
10 *373:8 *401:99 0.000209084
11 *373:8 *652:12 0
12 *373:8 *724:68 0
13 *369:8 *6135:A 0
*RES
1 *6134:X *373:8 46.2443 
2 *373:8 *6135:A 46.6171 
*END

*D_NET *374 0.00125161
*CONN
*I *6137:A I *D sky130_fd_sc_hd__clkbuf_1
*I *6136:X O *D sky130_fd_sc_hd__mux2_1
*CAP
1 *6137:A 0
2 *6136:X 0.000429529
3 *374:10 0.000429529
4 *374:10 *403:10 1.01436e-05
5 *374:10 *494:16 6.67196e-05
6 *374:10 *494:18 6.1764e-05
7 *100:8 *374:10 6.93984e-05
8 *281:12 *374:10 0
9 *295:28 *374:10 0.000184527
*RES
1 *6136:X *374:10 45.1257 
2 *374:10 *6137:A 38 
*END

*D_NET *375 0.000180717
*CONN
*I *6139:A I *D sky130_fd_sc_hd__clkbuf_1
*I *6138:X O *D sky130_fd_sc_hd__mux2_1
*CAP
1 *6139:A 5.51441e-05
2 *6138:X 5.51441e-05
3 *6139:A *746:85 1.37232e-05
4 *6139:A *746:93 5.67058e-05
*RES
1 *6138:X *6139:A 47.4707 
*END

*D_NET *376 0.000249722
*CONN
*I *6141:A I *D sky130_fd_sc_hd__clkbuf_1
*I *6140:X O *D sky130_fd_sc_hd__mux2_1
*CAP
1 *6141:A 0.000124861
2 *6140:X 0.000124861
*RES
1 *6140:X *6141:A 48.4236 
*END

*D_NET *377 0.000324666
*CONN
*I *6143:A I *D sky130_fd_sc_hd__clkbuf_1
*I *6142:X O *D sky130_fd_sc_hd__mux2_1
*CAP
1 *6143:A 7.13233e-05
2 *6142:X 6.66531e-05
3 *377:8 0.000137976
4 *6143:A *6196:A 0
5 *377:8 *658:26 4.334e-05
6 *127:10 *6143:A 5.37348e-06
*RES
1 *6142:X *377:8 39.2014 
2 *377:8 *6143:A 39.4707 
*END

*D_NET *378 0.000165073
*CONN
*I *6145:A I *D sky130_fd_sc_hd__clkbuf_1
*I *6144:X O *D sky130_fd_sc_hd__mux2_1
*CAP
1 *6145:A 8.25367e-05
2 *6144:X 8.25367e-05
3 *372:20 *6145:A 0
*RES
1 *6144:X *6145:A 47.4707 
*END

*D_NET *379 0.000713125
*CONN
*I *6147:A I *D sky130_fd_sc_hd__clkbuf_1
*I *6146:X O *D sky130_fd_sc_hd__mux2_1
*CAP
1 *6147:A 0
2 *6146:X 0.00030654
3 *379:10 0.00030654
4 *105:8 *379:10 4.334e-05
5 *233:31 *379:10 5.67058e-05
6 *233:35 *379:10 0
7 *237:84 *379:10 0
*RES
1 *6146:X *379:10 43.3443 
2 *379:10 *6147:A 38 
*END

*D_NET *380 0.00219668
*CONN
*I *6149:A I *D sky130_fd_sc_hd__clkbuf_1
*I *6148:X O *D sky130_fd_sc_hd__mux2_1
*CAP
1 *6149:A 0.000217571
2 *6148:X 0.000290594
3 *380:8 0.000508166
4 *6149:A *6569:A 5.3304e-05
5 *380:8 *6569:A 0.000139647
6 *380:8 *401:22 1.02029e-05
7 *380:8 *575:8 0.00041384
8 *226:85 *380:8 0.000186813
9 *226:279 *380:8 0.000376544
*RES
1 *6148:X *380:8 45.8921 
2 *380:8 *6149:A 41.48 
*END

*D_NET *381 0.0015613
*CONN
*I *6151:B1 I *D sky130_fd_sc_hd__o211a_4
*I *6150:Y O *D sky130_fd_sc_hd__nor2_1
*CAP
1 *6151:B1 0.000286261
2 *6150:Y 6.17921e-05
3 *381:8 0.000348053
4 *6151:B1 *382:6 4.6595e-05
5 *6151:B1 *382:14 3.65917e-05
6 *5905:A1 *6151:B1 0
7 *6095:B *6151:B1 7.53384e-06
8 *190:76 *6151:B1 5.3304e-05
9 *212:22 *381:8 0.000113153
10 *216:116 *6151:B1 0.000284534
11 *348:27 *381:8 5.45887e-05
12 *350:14 *6151:B1 0.000268899
*RES
1 *6150:Y *381:8 39.5536 
2 *381:8 *6151:B1 45.3121 
*END

*D_NET *382 0.0363873
*CONN
*I *6166:S I *D sky130_fd_sc_hd__mux2_1
*I *6162:S I *D sky130_fd_sc_hd__mux2_1
*I *6158:S I *D sky130_fd_sc_hd__mux2_1
*I *6152:S I *D sky130_fd_sc_hd__mux2_1
*I *6154:S I *D sky130_fd_sc_hd__mux2_1
*I *6164:S I *D sky130_fd_sc_hd__mux2_1
*I *6156:S I *D sky130_fd_sc_hd__mux2_1
*I *6160:S I *D sky130_fd_sc_hd__mux2_1
*I *6151:X O *D sky130_fd_sc_hd__o211a_4
*CAP
1 *6166:S 0
2 *6162:S 0
3 *6158:S 0.000257861
4 *6152:S 0
5 *6154:S 0
6 *6164:S 0
7 *6156:S 0
8 *6160:S 0.000264349
9 *6151:X 7.69575e-05
10 *382:151 0.000337205
11 *382:141 0.00117378
12 *382:96 0.00156316
13 *382:80 0.00284689
14 *382:74 0.00231065
15 *382:68 0.00453094
16 *382:53 0.00332341
17 *382:49 0.00129672
18 *382:24 0.00260918
19 *382:16 0.00112536
20 *382:14 0.00149931
21 *382:6 0.00241284
22 *6158:S *6158:A0 5.41385e-05
23 *6158:S *6158:A1 3.70094e-05
24 *6160:S *6160:A1 5.50106e-05
25 *6160:S *516:16 0.000103349
26 *6160:S *634:6 1.40958e-05
27 *382:14 *470:96 0.000240592
28 *382:14 *605:10 6.48142e-05
29 *382:14 *779:73 0.000170827
30 *382:14 *779:79 0.000232833
31 *382:24 *6572:A 5.50049e-05
32 *382:24 *516:16 2.76611e-06
33 *382:24 *740:10 0.00014196
34 *382:49 *6374:CLK 1.46462e-05
35 *382:49 *6600:A 7.51453e-06
36 *382:49 *483:8 0.00032834
37 *382:49 *483:12 0.000178371
38 *382:49 *483:53 5.79161e-05
39 *382:49 *677:6 0.00018688
40 *382:49 *746:37 0.00014196
41 *382:49 *746:43 6.68919e-05
42 *382:68 *479:238 0
43 *382:74 *6333:CLK 8.92944e-05
44 *382:74 *6639:A 0.000275482
45 *382:74 *616:10 8.4047e-05
46 *382:74 *639:8 8.62876e-05
47 *382:74 *712:96 0.000344758
48 *382:80 *609:28 0
49 *382:80 *712:83 0.000634306
50 *382:80 *712:96 0.00013318
51 *382:80 *735:162 0
52 *382:96 *6165:A 2.34437e-05
53 *382:96 *6403:CLK 0.00010018
54 *382:96 *609:8 0.000114083
55 *382:96 *609:28 0
56 *382:96 *712:83 8.33469e-05
57 *382:96 *742:6 0.000803793
58 *382:141 *401:62 0.00017761
59 *382:141 *519:10 3.3746e-05
60 *382:141 *636:65 0.000238194
61 *382:141 *658:26 0
62 *382:151 *5997:A2 0.000364133
63 *382:151 *6166:A0 8.88148e-05
64 *382:151 *511:10 4.86681e-05
65 *382:151 *636:73 0.000156143
66 *5964:S *382:74 0
67 *6151:B1 *382:6 4.6595e-05
68 *6151:B1 *382:14 3.65917e-05
69 *6403:D *382:96 9.95543e-06
70 *16:5 *382:53 0.000137788
71 *16:5 *382:68 4.16933e-05
72 *36:8 *382:80 0.000114083
73 *120:8 *382:141 0
74 *190:70 *382:141 1.12487e-05
75 *190:76 *382:14 6.84057e-05
76 *203:75 *382:141 6.16531e-05
77 *203:94 *382:14 9.48207e-06
78 *203:101 *382:141 9.94675e-05
79 *215:10 *382:141 0
80 *215:109 *382:141 0
81 *216:116 *382:14 5.8058e-05
82 *230:89 *6160:S 9.67842e-05
83 *230:109 *382:53 6.58373e-05
84 *230:109 *382:68 2.43903e-05
85 *231:12 *382:96 5.83407e-05
86 *233:66 *6160:S 1.01436e-05
87 *233:264 *382:74 0
88 *233:274 *382:74 0
89 *233:274 *382:80 4.21594e-06
90 *235:10 *382:74 0.000134276
91 *237:84 *382:14 0.000359254
92 *240:8 *382:74 0.000171906
93 *264:8 *382:74 4.334e-05
94 *270:10 *6160:S 0.00019182
95 *270:10 *382:24 0.000153687
96 *278:12 *382:14 0.000779648
97 *292:10 *382:151 1.35646e-05
98 *292:18 *382:151 1.73115e-05
99 *339:12 *382:141 0.000282649
100 *339:37 *382:24 0.000593652
101 *339:50 *382:24 0.000267837
102 *342:10 *382:49 0.00052972
103 *350:14 *382:6 5.50106e-05
104 *350:14 *382:14 0
105 *362:37 *382:141 0.000175903
*RES
1 *6151:X *382:6 24.5743 
2 *382:6 *382:14 47.1693 
3 *382:14 *382:16 15 
4 *382:16 *382:24 37.6407 
5 *382:24 *6160:S 45.0221 
6 *382:24 *382:49 40.2507 
7 *382:49 *382:53 16.9057 
8 *382:53 *6156:S 38 
9 *382:53 *382:68 23.942 
10 *382:68 *382:74 24.4532 
11 *382:74 *382:80 29.0829 
12 *382:80 *382:96 42.985 
13 *382:96 *6164:S 23 
14 *382:80 *6154:S 38 
15 *382:74 *6152:S 38 
16 *382:68 *6158:S 42.7332 
17 *382:16 *6162:S 23 
18 *382:6 *382:141 48.0421 
19 *382:141 *382:151 37.3743 
20 *382:151 *6166:S 23 
*END

*D_NET *383 0.000496195
*CONN
*I *6153:A I *D sky130_fd_sc_hd__clkbuf_1
*I *6152:X O *D sky130_fd_sc_hd__mux2_1
*CAP
1 *6153:A 0
2 *6152:X 0.000200731
3 *383:10 0.000200731
4 *383:10 *724:206 5.37348e-06
5 *107:10 *383:10 8.93599e-05
*RES
1 *6152:X *383:10 27.4743 
2 *383:10 *6153:A 23 
*END

*D_NET *384 0.000401079
*CONN
*I *6155:A I *D sky130_fd_sc_hd__clkbuf_1
*I *6154:X O *D sky130_fd_sc_hd__mux2_1
*CAP
1 *6155:A 0.000147264
2 *6154:X 0.000147264
3 *6155:A *609:28 0.00010655
*RES
1 *6154:X *6155:A 49.3764 
*END

*D_NET *385 0.00207702
*CONN
*I *6157:A I *D sky130_fd_sc_hd__clkbuf_1
*I *6156:X O *D sky130_fd_sc_hd__mux2_1
*CAP
1 *6157:A 0.000252982
2 *6156:X 0.000150824
3 *385:8 0.000403807
4 *6157:A *6404:CLK 0.000221174
5 *6157:A *668:10 4.08641e-05
6 *385:8 *6156:A0 7.39944e-05
7 *385:8 *6156:A1 0.000228001
8 *109:8 *6157:A 9.28842e-05
9 *230:109 *6157:A 8.79775e-05
10 *298:73 *6157:A 0
11 *339:63 *385:8 0.00052451
*RES
1 *6156:X *385:8 43.8621 
2 *385:8 *6157:A 44.4836 
*END

*D_NET *386 0.000894494
*CONN
*I *6159:A I *D sky130_fd_sc_hd__clkbuf_1
*I *6158:X O *D sky130_fd_sc_hd__mux2_1
*CAP
1 *6159:A 0
2 *6158:X 0.000347765
3 *386:10 0.000347765
4 *386:10 *619:16 0.000166513
5 *261:8 *386:10 3.24514e-05
*RES
1 *6158:X *386:10 43.7379 
2 *386:10 *6159:A 38 
*END

*D_NET *387 0.000715195
*CONN
*I *6161:A I *D sky130_fd_sc_hd__clkbuf_1
*I *6160:X O *D sky130_fd_sc_hd__mux2_1
*CAP
1 *6161:A 0.00015548
2 *6160:X 5.94782e-05
3 *387:8 0.000214958
4 *6161:A *6406:CLK 0.000181336
5 *387:8 *516:16 8.62876e-05
6 *387:8 *768:38 0
7 *111:12 *6161:A 1.76557e-05
*RES
1 *6160:X *387:8 39.2014 
2 *387:8 *6161:A 40.9 
*END

*D_NET *388 0.000210976
*CONN
*I *6163:A I *D sky130_fd_sc_hd__clkbuf_1
*I *6162:X O *D sky130_fd_sc_hd__mux2_1
*CAP
1 *6163:A 8.96547e-05
2 *6162:X 8.96547e-05
3 *6163:A *779:62 2.02517e-05
4 *339:37 *6163:A 1.14154e-05
*RES
1 *6162:X *6163:A 47.9471 
*END

*D_NET *389 0.000153808
*CONN
*I *6165:A I *D sky130_fd_sc_hd__clkbuf_1
*I *6164:X O *D sky130_fd_sc_hd__mux2_1
*CAP
1 *6165:A 5.36675e-05
2 *6164:X 5.36675e-05
3 *231:12 *6165:A 2.30292e-05
4 *382:96 *6165:A 2.34437e-05
*RES
1 *6164:X *6165:A 47.4707 
*END

*D_NET *390 0.00216466
*CONN
*I *6167:A I *D sky130_fd_sc_hd__clkbuf_1
*I *6166:X O *D sky130_fd_sc_hd__mux2_1
*CAP
1 *6167:A 0.000400356
2 *6166:X 0.000354779
3 *390:12 0.000755136
4 *6167:A *5997:A1 3.08848e-05
5 *390:12 *5997:A3 3.03886e-05
6 *390:12 *6166:A0 0.000139352
7 *390:12 *6320:A1 0.000181125
8 *390:12 *489:66 3.22879e-05
9 *390:12 *636:73 0.000140259
10 *390:12 *636:80 5.3304e-05
11 *114:12 *6167:A 4.67926e-05
12 *114:12 *390:12 0
*RES
1 *6166:X *390:12 44.96 
2 *390:12 *6167:A 43.7586 
*END

*D_NET *391 0.03526
*CONN
*I *6175:S I *D sky130_fd_sc_hd__mux2_1
*I *6179:S I *D sky130_fd_sc_hd__mux2_1
*I *6173:S I *D sky130_fd_sc_hd__mux2_1
*I *6177:S I *D sky130_fd_sc_hd__mux2_1
*I *6181:S I *D sky130_fd_sc_hd__mux2_1
*I *6171:S I *D sky130_fd_sc_hd__mux2_1
*I *6169:S I *D sky130_fd_sc_hd__mux2_1
*I *6183:S I *D sky130_fd_sc_hd__mux2_1
*I *6168:X O *D sky130_fd_sc_hd__o2111a_4
*CAP
1 *6175:S 0
2 *6179:S 0
3 *6173:S 0
4 *6177:S 0
5 *6181:S 4.01155e-05
6 *6171:S 0
7 *6169:S 0
8 *6183:S 2.1727e-05
9 *6168:X 0.000388089
10 *391:151 0.00123947
11 *391:143 0.0018315
12 *391:122 0.000833758
13 *391:114 0.00273249
14 *391:79 0.000251704
15 *391:73 0.00135065
16 *391:59 0.00261049
17 *391:47 0.00215063
18 *391:45 0.00127577
19 *391:30 0.00190242
20 *391:22 0.0013935
21 *391:20 0.000869801
22 *391:8 0.00363929
23 *6183:S *636:130 4.00259e-06
24 *391:8 *6228:A2 0.000216721
25 *391:8 *420:10 0.000128583
26 *391:8 *420:27 6.3614e-05
27 *391:8 *424:8 0
28 *391:20 *6228:A2 5.09072e-05
29 *391:20 *6534:A 9.84794e-05
30 *391:20 *424:8 0
31 *391:20 *479:61 0
32 *391:20 *487:40 0.000223466
33 *391:20 *487:53 0
34 *391:20 *602:29 0.000269781
35 *391:20 *680:10 0
36 *391:20 *820:10 0.000145583
37 *391:20 *820:16 0.000244791
38 *391:20 *825:8 3.7122e-06
39 *391:22 *479:57 0.000209729
40 *391:22 *487:40 0
41 *391:22 *602:8 0
42 *391:22 *673:10 3.83778e-05
43 *391:30 *6183:A1 9.84851e-05
44 *391:30 *6470:RESET_B 0.000423372
45 *391:30 *399:10 0.000267167
46 *391:30 *479:57 0.000459657
47 *391:30 *487:10 0
48 *391:30 *487:25 0
49 *391:30 *602:8 0
50 *391:30 *667:6 2.4754e-05
51 *391:30 *709:185 0.000608663
52 *391:30 *709:187 0.000320911
53 *391:30 *711:123 0
54 *391:30 *712:39 0.000213397
55 *391:30 *712:49 0
56 *391:45 *399:10 9.67719e-05
57 *391:45 *411:26 0
58 *391:45 *480:16 0
59 *391:45 *599:16 0.000170909
60 *391:45 *607:12 0.000107548
61 *391:45 *636:138 0
62 *391:45 *667:6 7.88828e-05
63 *391:45 *749:10 0
64 *391:47 *6178:A 5.67058e-05
65 *391:47 *599:16 3.22879e-05
66 *391:47 *749:10 0.000120042
67 *391:47 *764:6 0.00010018
68 *391:47 *768:107 2.18506e-05
69 *391:59 *6244:A 0.000163744
70 *391:59 *590:28 0.000282272
71 *391:59 *606:12 6.08081e-05
72 *391:59 *625:45 8.62783e-05
73 *391:59 *764:6 0.000243083
74 *391:59 *768:95 5.29672e-05
75 *391:59 *768:119 1.03836e-05
76 *391:59 *768:136 2.42041e-05
77 *391:73 *6171:A1 1.41077e-05
78 *391:73 *6182:A 0
79 *391:73 *6625:A 0
80 *391:73 *393:10 3.46673e-05
81 *391:73 *590:28 0.000307353
82 *391:73 *625:32 8.62783e-05
83 *391:73 *625:45 0.000134896
84 *391:73 *628:6 5.70419e-05
85 *391:79 *393:10 0
86 *391:79 *735:35 2.22079e-05
87 *391:79 *735:46 0.000123977
88 *391:114 *5904:A 2.93747e-05
89 *391:114 *6327:CLK 0.000189282
90 *391:114 *719:6 0.000304582
91 *391:114 *779:91 2.43944e-05
92 *391:122 *428:16 2.02517e-05
93 *391:122 *470:18 6.88819e-05
94 *391:122 *581:26 0
95 *391:122 *605:10 8.62876e-05
96 *391:143 *5975:A1 4.94722e-06
97 *391:143 *5975:A2 7.02666e-06
98 *391:143 *428:16 0.000484539
99 *391:143 *581:26 0.000228903
100 *391:143 *779:91 0
101 *391:151 *6325:CLK 3.16784e-05
102 *391:151 *495:90 0.000197404
103 *391:151 *495:107 0.000818619
104 *391:151 *595:16 1.01436e-05
105 *391:151 *778:10 0.000141879
106 *6416:D *391:59 9.18194e-05
107 *30:8 *391:151 0
108 *116:8 *391:79 5.15848e-05
109 *122:8 *391:45 0.000110913
110 *132:10 *391:73 9.67842e-05
111 *141:8 *391:20 0.00014411
112 *148:10 *391:59 0.000139352
113 *152:10 *391:30 0.000170899
114 *200:29 *391:8 0.000163343
115 *203:10 *391:8 8.26672e-05
116 *203:14 *391:8 3.72639e-05
117 *215:10 *391:114 4.20739e-05
118 *222:8 *391:143 8.85189e-05
119 *225:37 *391:47 0.000906685
120 *225:37 *391:59 0.000617571
121 *225:58 *391:59 0.000182832
122 *226:227 *391:143 0.000238089
123 *226:227 *391:151 3.44001e-05
124 *233:35 *391:143 0.000136486
125 *237:84 *391:122 0.000141386
*RES
1 *6168:X *391:8 47.6529 
2 *391:8 *391:20 48.7464 
3 *391:20 *391:22 2.96214 
4 *391:22 *391:30 48.64 
5 *391:30 *6183:S 23.4971 
6 *391:30 *391:45 42.6357 
7 *391:45 *391:47 18.2493 
8 *391:47 *391:59 42.7364 
9 *391:59 *391:73 35.6936 
10 *391:73 *391:79 35.7793 
11 *391:79 *6169:S 23 
12 *391:73 *6171:S 23 
13 *391:59 *6181:S 38.8493 
14 *391:47 *6177:S 23 
15 *391:22 *6173:S 38 
16 *391:8 *391:114 47.5421 
17 *391:114 *391:122 34.8679 
18 *391:122 *6179:S 23 
19 *391:122 *391:143 43.34 
20 *391:143 *391:151 48.7257 
21 *391:151 *6175:S 23 
*END

*D_NET *392 0.00130263
*CONN
*I *6170:A I *D sky130_fd_sc_hd__clkbuf_1
*I *6169:X O *D sky130_fd_sc_hd__mux2_1
*CAP
1 *6170:A 0
2 *6169:X 0.000441631
3 *392:10 0.000441631
4 *392:10 *411:121 5.62433e-05
5 *392:10 *412:10 0.000249909
6 *131:8 *392:10 0
7 *226:154 *392:10 0.000113211
8 *281:12 *392:10 0
*RES
1 *6169:X *392:10 46.0786 
2 *392:10 *6170:A 38 
*END

*D_NET *393 0.0012452
*CONN
*I *6172:A I *D sky130_fd_sc_hd__clkbuf_1
*I *6171:X O *D sky130_fd_sc_hd__mux2_1
*CAP
1 *6172:A 0
2 *6171:X 0.000465786
3 *393:10 0.000465786
4 *393:10 *6171:A1 9.84851e-05
5 *393:10 *628:6 0.00013961
6 *116:8 *393:10 4.08641e-05
7 *391:73 *393:10 3.46673e-05
8 *391:79 *393:10 0
*RES
1 *6171:X *393:10 45.2914 
2 *393:10 *6172:A 38 
*END

*D_NET *394 0.000992867
*CONN
*I *6174:A I *D sky130_fd_sc_hd__clkbuf_1
*I *6173:X O *D sky130_fd_sc_hd__mux2_1
*CAP
1 *6174:A 3.57843e-05
2 *6173:X 0.000260737
3 *394:8 0.000296521
4 *6174:A *709:185 7.88926e-05
5 *394:8 *709:177 0
6 *394:8 *709:211 0
7 *394:8 *712:39 0
8 *117:10 *394:8 0.000167443
9 *229:6 *6174:A 9.84794e-05
10 *229:35 *6174:A 5.50106e-05
*RES
1 *6173:X *394:8 43.075 
2 *394:8 *6174:A 39.5743 
*END

*D_NET *395 0.000820289
*CONN
*I *6176:A I *D sky130_fd_sc_hd__clkbuf_1
*I *6175:X O *D sky130_fd_sc_hd__mux2_1
*CAP
1 *6176:A 0
2 *6175:X 0.000324274
3 *395:8 0.000324274
4 *395:8 *6211:A0 1.76557e-05
5 *395:8 *6211:A1 0.000126847
6 *118:10 *395:8 2.7237e-05
*RES
1 *6175:X *395:8 29.235 
2 *395:8 *6176:A 23 
*END

*D_NET *396 0.000180717
*CONN
*I *6178:A I *D sky130_fd_sc_hd__clkbuf_1
*I *6177:X O *D sky130_fd_sc_hd__mux2_1
*CAP
1 *6178:A 5.51441e-05
2 *6177:X 5.51441e-05
3 *6178:A *768:107 1.37232e-05
4 *391:47 *6178:A 5.67058e-05
*RES
1 *6177:X *6178:A 47.4707 
*END

*D_NET *397 0.0020704
*CONN
*I *6180:A I *D sky130_fd_sc_hd__clkbuf_1
*I *6179:X O *D sky130_fd_sc_hd__mux2_1
*CAP
1 *6180:A 0.000286715
2 *6179:X 0.00028007
3 *397:10 0.000566785
4 *6180:A *411:77 0.000217836
5 *6180:A *411:92 0.000135016
6 *397:10 *6327:CLK 0.000166513
7 *397:10 *428:16 5.50106e-05
8 *397:10 *470:18 0
9 *5975:S0 *397:10 0.000144802
10 *225:160 *397:10 4.334e-05
11 *309:14 *397:10 0.000174314
*RES
1 *6179:X *397:10 45.4571 
2 *397:10 *6180:A 43.7793 
*END

*D_NET *398 0.00082992
*CONN
*I *6182:A I *D sky130_fd_sc_hd__clkbuf_1
*I *6181:X O *D sky130_fd_sc_hd__mux2_1
*CAP
1 *6182:A 0.000245845
2 *6181:X 5.69925e-05
3 *398:8 0.000302837
4 *398:8 *590:28 0
5 *398:8 *598:27 8.85189e-05
6 *216:54 *6182:A 0.000135726
7 *391:73 *6182:A 0
*RES
1 *6181:X *398:8 39.2014 
2 *398:8 *6182:A 42.9507 
*END

*D_NET *399 0.00175935
*CONN
*I *6184:A I *D sky130_fd_sc_hd__clkbuf_1
*I *6183:X O *D sky130_fd_sc_hd__mux2_1
*CAP
1 *6184:A 0.000152757
2 *6183:X 0.00035787
3 *399:10 0.000510627
4 *6184:A *480:37 0.000277383
5 *399:10 *636:138 9.67719e-05
6 *391:30 *399:10 0.000267167
7 *391:45 *399:10 9.67719e-05
*RES
1 *6183:X *399:10 45.0221 
2 *399:10 *6184:A 41.8529 
*END

*D_NET *400 0.000630631
*CONN
*I *6186:B1 I *D sky130_fd_sc_hd__o211a_4
*I *6185:X O *D sky130_fd_sc_hd__and4b_1
*CAP
1 *6186:B1 0
2 *6185:X 0.000207508
3 *400:18 0.000207508
4 *400:18 *401:73 0.000171954
5 *6186:C1 *400:18 2.02517e-05
6 *182:91 *400:18 2.19998e-05
7 *182:102 *400:18 1.40996e-06
*RES
1 *6185:X *400:18 28.4479 
2 *400:18 *6186:B1 23 
*END

*D_NET *401 0.0369255
*CONN
*I *6197:S I *D sky130_fd_sc_hd__mux2_1
*I *6193:S I *D sky130_fd_sc_hd__mux2_1
*I *6191:S I *D sky130_fd_sc_hd__mux2_1
*I *6187:S I *D sky130_fd_sc_hd__mux2_1
*I *6189:S I *D sky130_fd_sc_hd__mux2_1
*I *6199:S I *D sky130_fd_sc_hd__mux2_1
*I *6201:S I *D sky130_fd_sc_hd__mux2_1
*I *6195:S I *D sky130_fd_sc_hd__mux2_1
*I *6186:X O *D sky130_fd_sc_hd__o211a_4
*CAP
1 *6197:S 0
2 *6193:S 0.000126175
3 *6191:S 0.000102289
4 *6187:S 0.000286628
5 *6189:S 0
6 *6199:S 0
7 *6201:S 1.96641e-05
8 *6195:S 0
9 *6186:X 0
10 *401:99 0.000411737
11 *401:93 0.0014442
12 *401:87 0.00225386
13 *401:83 0.00329131
14 *401:79 0.00187542
15 *401:73 0.00195191
16 *401:62 0.00131337
17 *401:36 0.00166778
18 *401:22 0.00259496
19 *401:12 0.00337901
20 *401:6 0.002994
21 *6187:S *6187:A0 5.70419e-05
22 *6191:S *498:24 0.000135037
23 *6191:S *733:6 4.67488e-05
24 *6191:S *746:85 8.06804e-06
25 *6193:S *6193:A0 2.54193e-05
26 *6193:S *6194:A 4.00259e-06
27 *6193:S *555:14 1.37232e-05
28 *6201:S *6201:A1 5.90675e-06
29 *401:12 *411:10 0.000125013
30 *401:12 *411:20 0.00014376
31 *401:12 *811:38 0.000148412
32 *401:22 *6201:A1 4.67488e-05
33 *401:22 *6569:A 0.000132665
34 *401:22 *6585:A 0.000339617
35 *401:22 *411:20 6.17809e-05
36 *401:22 *575:8 0.000313333
37 *401:22 *586:10 0.000105165
38 *401:36 *5994:A2 1.16872e-05
39 *401:36 *6037:A1 0.000486246
40 *401:36 *6201:A0 2.81406e-06
41 *401:36 *6201:A1 8.218e-05
42 *401:36 *503:16 0.000103637
43 *401:36 *768:69 0.000426933
44 *401:62 *6200:A 2.30292e-05
45 *401:62 *6628:A 5.3304e-05
46 *401:62 *631:6 0.00030171
47 *401:62 *772:10 9.84794e-05
48 *401:79 *573:18 0.000138718
49 *401:79 *779:79 4.58924e-05
50 *401:83 *6033:A0 2.79045e-05
51 *401:83 *6194:A 5.83407e-05
52 *401:83 *779:141 0.000148543
53 *401:83 *779:156 3.93271e-05
54 *401:87 *404:10 0
55 *401:87 *411:98 0
56 *401:87 *495:88 0.000632089
57 *401:87 *603:12 0
58 *401:87 *750:10 0
59 *401:87 *757:79 0.000148402
60 *401:87 *778:10 0.000125025
61 *401:93 *411:109 0.000173739
62 *401:93 *495:32 0.000117926
63 *401:93 *495:41 4.40835e-05
64 *401:93 *495:56 7.37963e-05
65 *401:93 *495:88 0.000187996
66 *401:93 *498:24 0.000159657
67 *401:93 *746:72 7.86084e-05
68 *401:99 *411:109 0.000446614
69 *401:99 *724:64 1.12487e-05
70 *401:99 *724:68 0
71 *5903:B *401:12 0.000194318
72 *6022:A2 *401:73 3.16784e-05
73 *6022:C1 *401:73 1.76557e-05
74 *6034:A *401:83 2.30292e-05
75 *6037:S *401:36 5.41385e-05
76 *6111:S *401:62 0.000185195
77 *6135:A *6187:S 0.000127821
78 *6135:A *401:93 0.0002263
79 *6287:A2 *401:12 0
80 *30:8 *401:87 0
81 *102:8 *401:87 0
82 *180:10 *401:62 1.76557e-05
83 *182:44 *401:12 2.68751e-05
84 *182:44 *401:73 0.000117235
85 *182:46 *401:12 0.000124102
86 *182:56 *401:12 6.38845e-05
87 *190:179 *401:12 0
88 *190:192 *401:12 0
89 *203:50 *401:12 0
90 *213:8 *401:12 0.000110922
91 *215:174 *401:73 0.000564577
92 *215:176 *401:73 0.000221992
93 *216:14 *401:12 0.000628148
94 *216:14 *401:22 0.000701263
95 *216:27 *401:22 0.000186064
96 *216:116 *401:12 3.97399e-05
97 *225:21 *401:22 0.000267207
98 *225:160 *401:36 8.82627e-05
99 *226:83 *6201:S 4.00259e-06
100 *226:83 *401:22 2.09226e-05
101 *226:279 *401:22 0.000108197
102 *233:14 *401:36 4.96717e-05
103 *237:84 *401:36 0
104 *287:8 *401:36 2.80394e-05
105 *297:10 *401:73 1.83667e-05
106 *308:6 *401:73 0.000122226
107 *309:10 *401:73 0.000129152
108 *309:31 *401:36 0.000136687
109 *309:82 *401:87 0
110 *309:125 *401:73 0.000333349
111 *314:10 *401:36 0
112 *317:10 *401:36 0.0002263
113 *359:10 *401:62 7.88828e-05
114 *360:12 *401:12 0.000136955
115 *362:37 *401:62 0.000941669
116 *372:42 *401:99 0.000166504
117 *372:128 *401:87 0.000164943
118 *373:8 *401:99 0.000209084
119 *380:8 *401:22 1.02029e-05
120 *382:141 *401:62 0.00017761
121 *400:18 *401:73 0.000171954
*RES
1 *6186:X *401:6 38 
2 *401:6 *401:12 28.3786 
3 *401:12 *401:22 37.91 
4 *401:22 *401:36 44.5593 
5 *401:36 *6195:S 38 
6 *401:22 *6201:S 23.4971 
7 *401:12 *401:62 46.9207 
8 *401:62 *6199:S 23 
9 *401:6 *401:73 42.4257 
10 *401:73 *401:79 31.9057 
11 *401:79 *401:83 23.8629 
12 *401:83 *401:87 42.6121 
13 *401:87 *401:93 30.7014 
14 *401:93 *401:99 42.1179 
15 *401:99 *6189:S 23 
16 *401:93 *6187:S 28.4271 
17 *401:87 *6191:S 40.5686 
18 *401:83 *6193:S 25.5686 
19 *401:79 *6197:S 23 
*END

*D_NET *402 0.00140461
*CONN
*I *6188:A I *D sky130_fd_sc_hd__clkbuf_1
*I *6187:X O *D sky130_fd_sc_hd__mux2_1
*CAP
1 *6188:A 0
2 *6187:X 0.000537973
3 *402:10 0.000537973
4 *402:10 *6418:CLK 6.07611e-06
5 *402:10 *6512:A 9.67842e-05
6 *402:10 *495:8 0.000130353
7 *402:10 *495:10 6.07826e-05
8 *6135:A *402:10 3.46673e-05
9 *99:8 *402:10 0
10 *270:18 *402:10 0
*RES
1 *6187:X *402:10 46.2443 
2 *402:10 *6188:A 38 
*END

*D_NET *403 0.000829689
*CONN
*I *6190:A I *D sky130_fd_sc_hd__clkbuf_1
*I *6189:X O *D sky130_fd_sc_hd__mux2_1
*CAP
1 *6190:A 1.60486e-05
2 *6189:X 0.000275834
3 *403:10 0.000291883
4 *403:10 *494:10 3.71198e-05
5 *124:12 *6190:A 0.00010018
6 *239:180 *6190:A 9.84794e-05
7 *281:12 *403:10 0
8 *374:10 *403:10 1.01436e-05
*RES
1 *6189:X *403:10 41.9564 
2 *403:10 *6190:A 39.0979 
*END

*D_NET *404 0.000941778
*CONN
*I *6192:A I *D sky130_fd_sc_hd__clkbuf_1
*I *6191:X O *D sky130_fd_sc_hd__mux2_1
*CAP
1 *6192:A 0
2 *6191:X 0.000312113
3 *404:10 0.000312113
4 *404:10 *746:85 0.000317553
5 *270:10 *404:10 0
6 *401:87 *404:10 0
*RES
1 *6191:X *404:10 43.3857 
2 *404:10 *6192:A 38 
*END

*D_NET *405 0.000259818
*CONN
*I *6194:A I *D sky130_fd_sc_hd__clkbuf_1
*I *6193:X O *D sky130_fd_sc_hd__mux2_1
*CAP
1 *6194:A 9.87372e-05
2 *6193:X 9.87372e-05
3 *6193:S *6194:A 4.00259e-06
4 *401:83 *6194:A 5.83407e-05
*RES
1 *6193:X *6194:A 48.4236 
*END

*D_NET *406 0.000962678
*CONN
*I *6196:A I *D sky130_fd_sc_hd__clkbuf_1
*I *6195:X O *D sky130_fd_sc_hd__mux2_1
*CAP
1 *6196:A 0.000156712
2 *6195:X 0.000153783
3 *406:10 0.000310495
4 *406:10 *6142:A0 0.000139357
5 *406:10 *6142:A1 8.85189e-05
6 *406:10 *488:14 4.08537e-05
7 *6143:A *6196:A 0
8 *127:10 *6196:A 7.29586e-05
*RES
1 *6195:X *406:10 40.7757 
2 *406:10 *6196:A 40.9 
*END

*D_NET *407 0.00016682
*CONN
*I *6198:A I *D sky130_fd_sc_hd__clkbuf_1
*I *6197:X O *D sky130_fd_sc_hd__mux2_1
*CAP
1 *6198:A 7.65485e-05
2 *6197:X 7.65485e-05
3 *6198:A *779:134 1.37232e-05
*RES
1 *6197:X *6198:A 47.4707 
*END

*D_NET *408 0.000183405
*CONN
*I *6200:A I *D sky130_fd_sc_hd__clkbuf_1
*I *6199:X O *D sky130_fd_sc_hd__mux2_1
*CAP
1 *6200:A 8.01877e-05
2 *6199:X 8.01877e-05
3 *401:62 *6200:A 2.30292e-05
*RES
1 *6199:X *6200:A 47.4707 
*END

*D_NET *409 0.00111913
*CONN
*I *6202:A I *D sky130_fd_sc_hd__clkbuf_1
*I *6201:X O *D sky130_fd_sc_hd__mux2_1
*CAP
1 *6202:A 0.000220454
2 *6201:X 0.000134584
3 *409:10 0.000355039
4 *6202:A *6425:CLK 7.24365e-05
5 *6202:A *791:10 5.37348e-06
6 *6425:D *6202:A 0.00017248
7 *106:8 *409:10 7.99395e-05
8 *216:27 *409:10 4.94412e-05
9 *226:83 *409:10 2.93845e-05
*RES
1 *6201:X *409:10 40.8793 
2 *409:10 *6202:A 42.9093 
*END

*D_NET *410 0.00152103
*CONN
*I *6204:B1 I *D sky130_fd_sc_hd__o211a_4
*I *6203:Y O *D sky130_fd_sc_hd__nor2_1
*CAP
1 *6204:B1 1.08768e-05
2 *6203:Y 0.000229366
3 *410:8 0.000240242
4 *410:8 *428:52 0.000194318
5 *190:42 *6204:B1 5.50049e-05
6 *190:42 *410:8 0.000114083
7 *190:166 *410:8 0.000246757
8 *190:179 *410:8 0.000165593
9 *203:175 *410:8 0.00010404
10 *203:184 *410:8 7.45278e-05
11 *215:24 *6204:B1 5.67058e-05
12 *215:28 *410:8 2.95125e-05
*RES
1 *6203:Y *410:8 45.54 
2 *410:8 *6204:B1 38.6214 
*END

*D_NET *411 0.033019
*CONN
*I *6205:S I *D sky130_fd_sc_hd__mux2_1
*I *6207:S I *D sky130_fd_sc_hd__mux2_1
*I *6217:S I *D sky130_fd_sc_hd__mux2_1
*I *6211:S I *D sky130_fd_sc_hd__mux2_1
*I *6215:S I *D sky130_fd_sc_hd__mux2_1
*I *6209:S I *D sky130_fd_sc_hd__mux2_1
*I *6219:S I *D sky130_fd_sc_hd__mux2_1
*I *6213:S I *D sky130_fd_sc_hd__mux2_1
*I *6204:X O *D sky130_fd_sc_hd__o211a_4
*CAP
1 *6205:S 3.90141e-05
2 *6207:S 0
3 *6217:S 0
4 *6211:S 0
5 *6215:S 0
6 *6209:S 3.83603e-05
7 *6219:S 4.01155e-05
8 *6213:S 0
9 *6204:X 0.000280862
10 *411:143 0.000899137
11 *411:125 0.000918693
12 *411:121 0.000786706
13 *411:111 0.000806163
14 *411:109 0.00186806
15 *411:107 0.00216955
16 *411:98 0.00047487
17 *411:92 0.00234127
18 *411:77 0.00273362
19 *411:42 0.00120531
20 *411:30 0.00136076
21 *411:26 0.00177677
22 *411:20 0.00283143
23 *411:10 0.00258121
24 *6205:S *640:6 4.5051e-05
25 *6205:S *658:22 4.96717e-05
26 *6209:S *6210:A 0
27 *6209:S *480:89 4.00259e-06
28 *411:10 *816:27 0
29 *411:20 *6441:CLK 2.32101e-05
30 *411:20 *6585:A 3.33462e-05
31 *411:20 *480:89 0.000123934
32 *411:20 *586:10 0.000103019
33 *411:20 *602:29 0.000163352
34 *411:20 *746:117 4.58259e-05
35 *411:20 *746:145 0.000123006
36 *411:20 *816:27 0
37 *411:26 *6470:RESET_B 0
38 *411:26 *6497:A 0.000105347
39 *411:26 *419:10 0
40 *411:26 *479:51 8.29273e-05
41 *411:26 *480:50 0
42 *411:26 *487:10 7.03869e-05
43 *411:26 *636:138 0.000619178
44 *411:26 *680:10 0
45 *411:26 *709:185 0
46 *411:26 *709:187 0
47 *411:26 *725:12 4.08537e-05
48 *411:26 *746:117 2.54193e-05
49 *411:26 *746:127 3.70553e-06
50 *411:26 *793:8 0.000160182
51 *411:30 *636:138 3.22879e-05
52 *411:42 *6213:A0 0.00010018
53 *411:42 *6329:CLK 6.62667e-05
54 *411:42 *6563:A 1.94812e-05
55 *411:42 *488:39 0
56 *411:42 *591:14 2.04188e-05
57 *411:77 *6215:A0 5.41288e-05
58 *411:77 *519:10 0.000148698
59 *411:92 *6215:A0 5.69999e-05
60 *411:92 *6246:A 0.000226306
61 *411:92 *6431:CLK 9.84851e-05
62 *411:92 *597:8 4.9662e-05
63 *411:98 *415:8 0
64 *411:109 *6418:CLK 0
65 *411:109 *6525:A 0
66 *411:109 *494:10 0
67 *411:109 *494:16 0
68 *411:109 *494:18 0
69 *411:109 *495:10 0
70 *411:109 *495:32 0
71 *411:109 *495:88 7.80251e-05
72 *411:109 *570:16 7.76364e-06
73 *411:109 *735:46 0.000191166
74 *411:109 *735:57 0.000620197
75 *411:109 *746:72 0.000443553
76 *411:121 *6427:CLK 1.01436e-05
77 *411:121 *412:10 0.000473058
78 *411:121 *494:18 0.000150977
79 *411:121 *494:20 0.000237534
80 *411:121 *494:22 0.00081114
81 *411:121 *640:6 7.53384e-06
82 *411:121 *658:22 0.000115872
83 *411:121 *782:8 0
84 *411:125 *6328:CLK 8.6949e-05
85 *411:125 *413:14 5.41288e-05
86 *411:143 *6328:CLK 0.000762558
87 *411:143 *413:14 0.000151601
88 *411:143 *418:10 0
89 *411:143 *590:10 5.70419e-05
90 *411:143 *598:10 1.32314e-05
91 *411:143 *625:32 0
92 *411:143 *674:8 0
93 *411:143 *735:18 0
94 *5917:A *411:92 0.000308039
95 *6112:A *411:77 9.67842e-05
96 *6180:A *411:77 0.000217836
97 *6180:A *411:92 0.000135016
98 *6329:D *411:42 0.000318154
99 *6377:D *411:77 0.000163943
100 *6431:D *411:92 2.85405e-05
101 *6441:D *411:20 1.52322e-05
102 *29:8 *411:20 0
103 *53:12 *411:109 0
104 *125:10 *411:92 4.93341e-05
105 *134:10 *411:98 0.000108681
106 *149:10 *411:92 5.25848e-05
107 *203:50 *411:10 9.84851e-05
108 *225:12 *411:20 1.70989e-05
109 *225:37 *411:42 0
110 *225:170 *411:109 0.000193407
111 *226:12 *411:26 8.40391e-05
112 *230:8 *411:26 0
113 *270:10 *411:98 0
114 *281:12 *411:121 0
115 *372:42 *411:109 4.99753e-06
116 *391:45 *411:26 0
117 *392:10 *411:121 5.62433e-05
118 *401:12 *411:10 0.000125013
119 *401:12 *411:20 0.00014376
120 *401:22 *411:20 6.17809e-05
121 *401:87 *411:98 0
122 *401:93 *411:109 0.000173739
123 *401:99 *411:109 0.000446614
*RES
1 *6204:X *411:10 44.1729 
2 *411:10 *411:20 37.3921 
3 *411:20 *411:26 48.3086 
4 *411:26 *411:30 17.0507 
5 *411:30 *411:42 48.85 
6 *411:42 *6213:S 23 
7 *411:30 *6219:S 23.8493 
8 *411:20 *6209:S 23.8493 
9 *411:10 *411:77 37.4336 
10 *411:77 *6215:S 23 
11 *411:77 *411:92 28.3371 
12 *411:92 *411:98 38.2443 
13 *411:98 *6211:S 23 
14 *411:92 *411:107 19.9093 
15 *411:107 *411:109 39.585 
16 *411:109 *411:111 15 
17 *411:111 *411:121 35.3414 
18 *411:121 *411:125 16.0979 
19 *411:125 *411:143 48.4564 
20 *411:143 *6217:S 23 
21 *411:125 *6207:S 23 
22 *411:111 *6205:S 24.0979 
*END

*D_NET *412 0.00163296
*CONN
*I *6206:A I *D sky130_fd_sc_hd__clkbuf_1
*I *6205:X O *D sky130_fd_sc_hd__mux2_1
*CAP
1 *6206:A 8.12929e-05
2 *6205:X 0.000279974
3 *412:10 0.000361267
4 *6206:A *6445:CLK 0.000184527
5 *412:10 *658:22 2.92911e-06
6 *281:12 *412:10 0
7 *392:10 *412:10 0.000249909
8 *411:121 *412:10 0.000473058
*RES
1 *6205:X *412:10 44.6493 
2 *412:10 *6206:A 40.0507 
*END

*D_NET *413 0.00147336
*CONN
*I *6208:A I *D sky130_fd_sc_hd__clkbuf_1
*I *6207:X O *D sky130_fd_sc_hd__mux2_1
*CAP
1 *6208:A 0
2 *6207:X 0.000531897
3 *413:14 0.000531897
4 *413:14 *6328:CLK 1.40958e-05
5 *413:14 *494:22 3.48091e-05
6 *413:14 *735:27 2.75145e-05
7 *413:14 *735:35 3.62745e-05
8 *6411:D *413:14 7.10068e-06
9 *132:10 *413:14 8.4047e-05
10 *411:125 *413:14 5.41288e-05
11 *411:143 *413:14 0.000151601
*RES
1 *6207:X *413:14 46.8864 
2 *413:14 *6208:A 38 
*END

*D_NET *414 0.000183065
*CONN
*I *6210:A I *D sky130_fd_sc_hd__clkbuf_1
*I *6209:X O *D sky130_fd_sc_hd__mux2_1
*CAP
1 *6210:A 7.11375e-05
2 *6209:X 7.11375e-05
3 *6210:A *6412:CLK 4.07902e-05
4 *6209:S *6210:A 0
*RES
1 *6209:X *6210:A 47.6157 
*END

*D_NET *415 0.00127192
*CONN
*I *6212:A I *D sky130_fd_sc_hd__clkbuf_1
*I *6211:X O *D sky130_fd_sc_hd__mux2_1
*CAP
1 *6212:A 0.000137656
2 *6211:X 0.000198427
3 *415:8 0.000336083
4 *6212:A *428:32 0.000272377
5 *134:10 *6212:A 3.22879e-05
6 *134:10 *415:8 0
7 *270:10 *415:8 0.000295087
8 *411:98 *415:8 0
*RES
1 *6211:X *415:8 42.0186 
2 *415:8 *6212:A 41.8529 
*END

*D_NET *416 0.000469651
*CONN
*I *6214:A I *D sky130_fd_sc_hd__clkbuf_1
*I *6213:X O *D sky130_fd_sc_hd__mux2_1
*CAP
1 *6214:A 0.000102945
2 *6213:X 8.17907e-05
3 *416:8 0.000184735
4 *6214:A *6430:CLK 0
5 *416:8 *641:10 0
6 *135:12 *6214:A 0.00010018
*RES
1 *6213:X *416:8 39.2014 
2 *416:8 *6214:A 40.4236 
*END

*D_NET *417 0.000701173
*CONN
*I *6216:A I *D sky130_fd_sc_hd__clkbuf_1
*I *6215:X O *D sky130_fd_sc_hd__mux2_1
*CAP
1 *6216:A 0.000167693
2 *6215:X 6.14794e-05
3 *417:8 0.000229172
4 *6216:A *638:10 0.00010018
5 *417:8 *658:26 8.85189e-05
6 *136:10 *6216:A 5.41288e-05
7 *309:14 *417:8 0
*RES
1 *6215:X *417:8 39.2014 
2 *417:8 *6216:A 41.8529 
*END

*D_NET *418 0.000824717
*CONN
*I *6218:A I *D sky130_fd_sc_hd__clkbuf_1
*I *6217:X O *D sky130_fd_sc_hd__mux2_1
*CAP
1 *6218:A 0
2 *6217:X 0.000391774
3 *418:10 0.000391774
4 *418:10 *598:10 0
5 *418:10 *674:8 0
6 *137:12 *418:10 4.117e-05
7 *411:143 *418:10 0
*RES
1 *6217:X *418:10 44.6493 
2 *418:10 *6218:A 38 
*END

*D_NET *419 0.000780647
*CONN
*I *6220:A I *D sky130_fd_sc_hd__clkbuf_1
*I *6219:X O *D sky130_fd_sc_hd__mux2_1
*CAP
1 *6220:A 0
2 *6219:X 0.000387286
3 *419:10 0.000387286
4 *419:10 *480:50 6.07611e-06
5 *411:26 *419:10 0
*RES
1 *6219:X *419:10 43.7379 
2 *419:10 *6220:A 38 
*END

*D_NET *420 0.0155352
*CONN
*I *6282:S I *D sky130_fd_sc_hd__mux2_1
*I *6278:B I *D sky130_fd_sc_hd__xor2_1
*I *6279:S I *D sky130_fd_sc_hd__mux2_1
*I *6222:S I *D sky130_fd_sc_hd__mux2_1
*I *6285:S I *D sky130_fd_sc_hd__mux2_1
*I *6225:S I *D sky130_fd_sc_hd__mux2_1
*I *6231:S I *D sky130_fd_sc_hd__mux2_1
*I *6229:S I *D sky130_fd_sc_hd__mux2_1
*I *6228:A2 I *D sky130_fd_sc_hd__o21ba_1
*I *6221:X O *D sky130_fd_sc_hd__o21a_4
*CAP
1 *6282:S 0
2 *6278:B 0
3 *6279:S 0
4 *6222:S 0.000846674
5 *6285:S 0
6 *6225:S 0
7 *6231:S 0
8 *6229:S 0.000338523
9 *6228:A2 0.000164501
10 *6221:X 0.000118201
11 *420:87 0.00104687
12 *420:85 0.000618279
13 *420:51 0.00102297
14 *420:47 0.00114027
15 *420:39 0.00101558
16 *420:31 0.00116593
17 *420:27 0.000904172
18 *420:25 0.000876699
19 *420:10 0.000443314
20 *6222:S *6222:A0 0.00022295
21 *6222:S *6280:A 9.84794e-05
22 *6222:S *810:55 0.000114431
23 *6228:A2 *680:10 0.000268221
24 *6229:S *698:8 1.83564e-05
25 *6229:S *710:16 0
26 *6229:S *710:30 0.000224669
27 *6229:S *710:32 9.63918e-05
28 *420:10 *680:10 1.01436e-05
29 *420:27 *5870:D 1.86869e-05
30 *420:27 *6282:A0 1.44813e-05
31 *420:27 *456:12 6.67764e-05
32 *420:27 *812:38 0
33 *420:27 *812:46 0
34 *420:31 *6282:A0 1.47563e-05
35 *420:31 *456:12 1.14452e-05
36 *420:31 *457:8 0
37 *420:31 *812:36 0
38 *420:31 *812:38 0
39 *420:39 *6507:A 0.000410712
40 *420:39 *6508:A 6.91235e-05
41 *420:39 *490:6 0.000170375
42 *420:39 *491:10 9.84794e-05
43 *420:47 *422:6 0.000364094
44 *420:47 *458:10 0.000166532
45 *420:47 *812:10 4.07715e-05
46 *420:51 *490:12 0
47 *420:51 *710:16 0
48 *420:51 *714:10 4.58924e-05
49 *420:85 *6478:RESET_B 0
50 *420:85 *457:8 0
51 *420:85 *491:10 0.000212723
52 *420:85 *810:75 0
53 *420:85 *812:36 0
54 *420:87 *710:183 7.36613e-05
55 *5871:B *420:51 0
56 *6168:A1 *420:27 0.000136007
57 *6229:A1 *6229:S 0
58 *6279:A1 *6222:S 3.53115e-05
59 *6279:A1 *420:87 9.84794e-05
60 *163:10 *420:85 0.000114083
61 *181:12 *6229:S 7.66188e-05
62 *181:12 *420:51 7.55729e-05
63 *182:26 *420:85 8.88385e-05
64 *182:26 *420:87 9.84851e-05
65 *183:8 *420:27 0.000410369
66 *183:18 *420:27 0.000194318
67 *184:12 *6229:S 6.07611e-06
68 *184:12 *420:51 6.42902e-05
69 *188:8 *6229:S 0
70 *189:10 *420:27 7.75329e-06
71 *190:8 *420:10 0.000140259
72 *190:14 *420:10 3.04021e-05
73 *190:21 *420:10 9.84851e-05
74 *190:233 *420:27 0.000137788
75 *192:12 *420:31 0
76 *193:10 *420:27 0
77 *198:16 *420:47 0
78 *203:10 *420:27 0.000158229
79 *203:14 *420:27 0.000163352
80 *203:36 *420:10 0.000228909
81 *215:72 *420:25 0.000177604
82 *391:8 *6228:A2 0.000216721
83 *391:8 *420:10 0.000128583
84 *391:8 *420:27 6.3614e-05
85 *391:20 *6228:A2 5.09072e-05
*RES
1 *6221:X *420:10 42.4329 
2 *420:10 *6228:A2 41.6664 
3 *420:10 *420:25 32.0507 
4 *420:25 *420:27 18.8086 
5 *420:27 *420:31 3.58357 
6 *420:31 *420:39 27.6979 
7 *420:39 *420:47 40.6057 
8 *420:47 *420:51 28.8786 
9 *420:51 *6229:S 46.9486 
10 *420:51 *6231:S 38 
11 *420:47 *6225:S 23 
12 *420:39 *6285:S 23 
13 *420:31 *420:85 24.3629 
14 *420:85 *420:87 4.43286 
15 *420:87 *6222:S 38.3286 
16 *420:87 *6279:S 23 
17 *420:85 *6278:B 23 
18 *420:27 *6282:S 38 
*END

*D_NET *421 0.000249722
*CONN
*I *6223:A I *D sky130_fd_sc_hd__clkbuf_1
*I *6222:X O *D sky130_fd_sc_hd__mux2_1
*CAP
1 *6223:A 0.000124861
2 *6222:X 0.000124861
*RES
1 *6222:X *6223:A 48.4236 
*END

*D_NET *422 0.00183005
*CONN
*I *6225:A1 I *D sky130_fd_sc_hd__mux2_1
*I *6224:Y O *D sky130_fd_sc_hd__nand2_1
*CAP
1 *6225:A1 0
2 *6224:Y 0.000595938
3 *422:6 0.000595938
4 *422:6 *6225:A0 0.000274078
5 *420:47 *422:6 0.000364094
*RES
1 *6224:Y *422:6 35.5321 
2 *422:6 *6225:A1 23 
*END

*D_NET *423 0.000619559
*CONN
*I *6226:A I *D sky130_fd_sc_hd__clkbuf_1
*I *6225:X O *D sky130_fd_sc_hd__mux2_1
*CAP
1 *6226:A 0
2 *6225:X 0.00026054
3 *423:8 0.00026054
4 *6260:A *423:8 9.84794e-05
*RES
1 *6225:X *423:8 27.8057 
2 *423:8 *6226:A 23 
*END

*D_NET *424 0.000506385
*CONN
*I *6228:B1_N I *D sky130_fd_sc_hd__o21ba_1
*I *6227:X O *D sky130_fd_sc_hd__o211a_1
*CAP
1 *6228:B1_N 0.000171402
2 *6227:X 8.17907e-05
3 *424:8 0.000253193
4 *424:8 *479:61 0
5 *391:8 *424:8 0
6 *391:20 *424:8 0
*RES
1 *6227:X *424:8 39.2014 
2 *424:8 *6228:B1_N 40.9 
*END

*D_NET *425 0.000572974
*CONN
*I *6230:A I *D sky130_fd_sc_hd__clkbuf_1
*I *6229:X O *D sky130_fd_sc_hd__mux2_1
*CAP
1 *6230:A 0.000150296
2 *6229:X 0.000150296
3 *6230:A *6461:RESET_B 0.000272383
*RES
1 *6229:X *6230:A 49.8529 
*END

*D_NET *426 0.00108151
*CONN
*I *6232:A I *D sky130_fd_sc_hd__clkbuf_1
*I *6231:X O *D sky130_fd_sc_hd__mux2_1
*CAP
1 *6232:A 0.000227375
2 *6231:X 6.4099e-05
3 *426:8 0.000291474
4 *6232:A *5868:A 5.50106e-05
5 *6232:A *6451:D 0.000355029
6 *426:8 *710:30 0
7 *426:8 *813:10 8.85189e-05
*RES
1 *6231:X *426:8 39.2014 
2 *426:8 *6232:A 43.2821 
*END

*D_NET *427 0.00171021
*CONN
*I *6234:B1 I *D sky130_fd_sc_hd__o211a_4
*I *6233:Y O *D sky130_fd_sc_hd__nor2_1
*CAP
1 *6234:B1 0
2 *6233:Y 0.000438663
3 *427:12 0.000438663
4 *427:12 *469:8 5.3304e-05
5 *6095:B *427:12 0.000215791
6 *6150:B *427:12 2.64616e-05
7 *6203:A *427:12 1.21972e-05
8 *6203:B *427:12 5.50106e-05
9 *6287:A1 *427:12 5.50049e-05
10 *190:59 *427:12 4.21594e-06
11 *203:175 *427:12 0.00010404
12 *212:22 *427:12 0.000265999
13 *213:29 *427:12 2.32004e-05
14 *279:22 *427:12 1.76557e-05
15 *351:12 *427:12 0
*RES
1 *6233:Y *427:12 47.8807 
2 *427:12 *6234:B1 38 
*END

*D_NET *428 0.0335882
*CONN
*I *6247:S I *D sky130_fd_sc_hd__mux2_1
*I *6237:S I *D sky130_fd_sc_hd__mux2_1
*I *6235:S I *D sky130_fd_sc_hd__mux2_1
*I *6243:S I *D sky130_fd_sc_hd__mux2_1
*I *6249:S I *D sky130_fd_sc_hd__mux2_1
*I *6239:S I *D sky130_fd_sc_hd__mux2_1
*I *6245:S I *D sky130_fd_sc_hd__mux2_1
*I *6241:S I *D sky130_fd_sc_hd__mux2_1
*I *6234:X O *D sky130_fd_sc_hd__o211a_4
*CAP
1 *6247:S 1.74641e-05
2 *6237:S 0
3 *6235:S 0
4 *6243:S 0.000277509
5 *6249:S 0
6 *6239:S 0
7 *6245:S 0
8 *6241:S 0.000697598
9 *6234:X 0
10 *428:134 0.00032997
11 *428:121 0.00162882
12 *428:117 0.00171204
13 *428:105 0.00130449
14 *428:84 0.00188583
15 *428:75 0.00164066
16 *428:65 0.00191956
17 *428:52 0.00187106
18 *428:32 0.00136207
19 *428:16 0.00187928
20 *428:4 0.0020725
21 *6241:S *6241:A0 9.88574e-06
22 *6241:S *595:16 3.78725e-05
23 *6241:S *757:97 0.000224005
24 *6241:S *778:10 5.83407e-05
25 *6243:S *5966:A0 0.000137651
26 *6243:S *6416:CLK 0.000193388
27 *6243:S *6519:A 4.2573e-05
28 *6243:S *433:8 1.22803e-05
29 *6243:S *679:8 4.08641e-05
30 *6243:S *768:136 0.000244517
31 *6247:S *582:25 1.37232e-05
32 *428:16 *6179:A0 2.32004e-05
33 *428:16 *6179:A1 0.000181125
34 *428:16 *6245:A1 0.000206582
35 *428:16 *470:10 0.000647961
36 *428:16 *581:26 0.000479428
37 *428:16 *765:6 9.84794e-05
38 *428:16 *779:109 0.000516489
39 *428:32 *434:10 0.000292846
40 *428:32 *581:10 0.000248563
41 *428:32 *595:16 3.45717e-05
42 *428:32 *768:42 0.000345286
43 *428:52 *6562:A 0
44 *428:52 *489:53 0
45 *428:52 *730:8 2.5415e-05
46 *428:65 *6201:A1 0
47 *428:65 *6562:A 0
48 *428:65 *431:10 0
49 *428:65 *489:53 5.50049e-05
50 *428:65 *503:16 5.38942e-05
51 *428:65 *578:10 0
52 *428:65 *615:18 0.000409151
53 *428:65 *682:8 2.35119e-05
54 *428:65 *746:99 0.000120867
55 *428:65 *790:33 6.00922e-06
56 *428:75 *5994:A2 0
57 *428:75 *6249:A0 0.00010018
58 *428:75 *6543:A 1.74959e-05
59 *428:75 *488:39 0.000212423
60 *428:75 *636:111 0
61 *428:75 *636:117 0
62 *428:75 *682:8 0.000113275
63 *428:84 *6249:A0 0.000650416
64 *428:105 *6247:A1 0.000216471
65 *428:105 *435:10 0.000181131
66 *428:105 *625:51 0.000373694
67 *428:105 *766:6 2.4754e-05
68 *428:117 *582:25 0.000230435
69 *428:117 *598:27 0
70 *428:117 *606:20 0
71 *428:117 *625:45 0
72 *428:117 *766:6 3.17516e-05
73 *428:121 *724:41 2.9938e-05
74 *428:121 *724:43 0.000169224
75 *428:134 *724:41 6.99492e-05
76 *428:134 *735:92 3.72639e-05
77 *6212:A *428:32 0.000272377
78 *6234:C1 *428:16 8.68028e-05
79 *6444:D *428:32 1.24376e-05
80 *16:15 *428:32 1.34354e-05
81 *90:8 *428:52 4.334e-05
82 *146:8 *428:65 0
83 *151:10 *428:75 0.000172687
84 *190:59 *428:16 0.000178517
85 *190:70 *428:16 0.000336468
86 *203:54 *428:52 0.000163361
87 *203:64 *428:16 0.00030894
88 *203:175 *428:52 5.24393e-05
89 *215:28 *428:52 7.76364e-06
90 *216:14 *428:52 0
91 *216:44 *6243:S 0
92 *216:44 *428:105 0
93 *225:62 *428:105 3.71369e-05
94 *225:79 *428:105 0.000206495
95 *225:164 *6241:S 0.00024543
96 *225:164 *428:32 0.000559265
97 *225:181 *6241:S 0.00026808
98 *226:93 *428:75 7.42621e-05
99 *226:93 *428:84 0.000186205
100 *226:154 *428:121 0.0013974
101 *232:12 *428:65 0.000427667
102 *241:14 *428:134 0.00035793
103 *265:8 *6243:S 0.000181925
104 *281:12 *428:117 0
105 *289:10 *428:75 0
106 *291:10 *428:75 0.000161121
107 *294:10 *428:65 0.000894549
108 *294:10 *428:75 7.37814e-06
109 *295:8 *428:75 1.62751e-05
110 *351:12 *428:52 0
111 *359:10 *428:52 0.000181422
112 *362:22 *428:52 0
113 *362:22 *428:65 0.000142233
114 *372:88 *428:65 0
115 *391:122 *428:16 2.02517e-05
116 *391:143 *428:16 0.000484539
117 *397:10 *428:16 5.50106e-05
118 *410:8 *428:52 0.000194318
*RES
1 *6234:X *428:4 23 
2 *428:4 *428:16 32.77 
3 *428:16 *428:32 49.9582 
4 *428:32 *6241:S 38.1732 
5 *428:16 *6245:S 23 
6 *428:4 *428:52 47.0479 
7 *428:52 *6239:S 23 
8 *428:52 *428:65 40.0746 
9 *428:65 *428:75 33.4046 
10 *428:75 *6249:S 23 
11 *428:75 *428:84 30.8671 
12 *428:84 *6243:S 45.83 
13 *428:84 *428:105 31.9857 
14 *428:105 *428:117 37.6436 
15 *428:117 *428:121 28.275 
16 *428:121 *6235:S 23 
17 *428:121 *428:134 37.3536 
18 *428:134 *6237:S 23 
19 *428:105 *6247:S 23.4971 
*END

*D_NET *429 0.00169489
*CONN
*I *6236:A I *D sky130_fd_sc_hd__clkbuf_1
*I *6235:X O *D sky130_fd_sc_hd__mux2_1
*CAP
1 *6236:A 0.000226666
2 *6235:X 0.00036031
3 *429:10 0.000586976
4 *6236:A *5924:A1 5.50106e-05
5 *6236:A *576:27 0.000348088
6 *429:10 *481:52 0
7 *429:10 *481:56 0
8 *429:10 *724:43 0.00010018
9 *429:10 *735:105 0
10 *227:8 *6236:A 1.76557e-05
*RES
1 *6235:X *429:10 43.8207 
2 *429:10 *6236:A 43.8829 
*END

*D_NET *430 0.000508169
*CONN
*I *6238:A I *D sky130_fd_sc_hd__clkbuf_1
*I *6237:X O *D sky130_fd_sc_hd__mux2_1
*CAP
1 *6238:A 0
2 *6237:X 0.000184602
3 *430:10 0.000184602
4 *430:10 *5939:A0 1.84414e-05
5 *430:10 *481:56 2.04774e-05
6 *430:10 *735:105 0
7 *145:8 *430:10 4.334e-05
8 *241:10 *430:10 5.67058e-05
*RES
1 *6237:X *430:10 41.48 
2 *430:10 *6238:A 38 
*END

*D_NET *431 0.000923114
*CONN
*I *6240:A I *D sky130_fd_sc_hd__clkbuf_1
*I *6239:X O *D sky130_fd_sc_hd__mux2_1
*CAP
1 *6240:A 0.000153235
2 *6239:X 0.000251931
3 *431:10 0.000405166
4 *431:10 *6562:A 8.4047e-05
5 *431:10 *578:10 1.01436e-05
6 *431:10 *746:109 1.85916e-05
7 *226:279 *6240:A 0
8 *428:65 *431:10 0
*RES
1 *6239:X *431:10 41.2521 
2 *431:10 *6240:A 40.7757 
*END

*D_NET *432 0.00193776
*CONN
*I *6242:A I *D sky130_fd_sc_hd__clkbuf_1
*I *6241:X O *D sky130_fd_sc_hd__mux2_1
*CAP
1 *6242:A 0.000421248
2 *6241:X 0.000171716
3 *432:8 0.000592963
4 *6242:A *5957:A0 0.000182826
5 *6242:A *579:14 0.000383463
6 *432:8 *587:27 8.62876e-05
7 *432:8 *746:45 9.92573e-05
8 *362:109 *432:8 0
*RES
1 *6241:X *432:8 42.0186 
2 *432:8 *6242:A 46.1614 
*END

*D_NET *433 0.00138882
*CONN
*I *6244:A I *D sky130_fd_sc_hd__clkbuf_1
*I *6243:X O *D sky130_fd_sc_hd__mux2_1
*CAP
1 *6244:A 0.000146795
2 *6243:X 7.93454e-05
3 *433:8 0.000226141
4 *6244:A *768:119 0.00030974
5 *6244:A *768:136 0.000169595
6 *433:8 *6416:CLK 0.000140949
7 *6243:S *433:8 1.22803e-05
8 *216:44 *433:8 1.83564e-05
9 *216:54 *433:8 6.6869e-05
10 *225:58 *6244:A 5.50049e-05
11 *391:59 *6244:A 0.000163744
*RES
1 *6243:X *433:8 40.2579 
2 *433:8 *6244:A 43.3857 
*END

*D_NET *434 0.0023781
*CONN
*I *6246:A I *D sky130_fd_sc_hd__clkbuf_1
*I *6245:X O *D sky130_fd_sc_hd__mux2_1
*CAP
1 *6246:A 0.000102686
2 *6245:X 0.000454156
3 *434:10 0.000556841
4 *434:10 *495:107 0.000247678
5 *434:10 *581:26 0.000221084
6 *434:10 *768:42 6.1732e-05
7 *16:15 *434:10 4.60263e-05
8 *149:10 *434:10 0.000168744
9 *230:66 *434:10 0
10 *411:92 *6246:A 0.000226306
11 *428:32 *434:10 0.000292846
*RES
1 *6245:X *434:10 48.4193 
2 *434:10 *6246:A 40.5271 
*END

*D_NET *435 0.00117913
*CONN
*I *6248:A I *D sky130_fd_sc_hd__clkbuf_1
*I *6247:X O *D sky130_fd_sc_hd__mux2_1
*CAP
1 *6248:A 0.000225878
2 *6247:X 0.000215347
3 *435:10 0.000441225
4 *6248:A *6445:CLK 4.06849e-05
5 *150:8 *6248:A 3.6485e-05
6 *225:79 *435:10 3.83778e-05
7 *428:105 *435:10 0.000181131
*RES
1 *6247:X *435:10 41.2521 
2 *435:10 *6248:A 41.7286 
*END

*D_NET *436 0.000447803
*CONN
*I *6250:A I *D sky130_fd_sc_hd__clkbuf_1
*I *6249:X O *D sky130_fd_sc_hd__mux2_1
*CAP
1 *6250:A 9.63631e-05
2 *6249:X 9.63631e-05
3 *151:10 *6250:A 7.05498e-05
4 *226:93 *6250:A 0.000184527
*RES
1 *6249:X *6250:A 48.9 
*END

*D_NET *437 0.0029668
*CONN
*I *6267:B I *D sky130_fd_sc_hd__and2_1
*I *6258:C I *D sky130_fd_sc_hd__or3_1
*I *6253:B I *D sky130_fd_sc_hd__or2_1
*I *6276:D I *D sky130_fd_sc_hd__or4_1
*I *6252:Y O *D sky130_fd_sc_hd__nand2_1
*CAP
1 *6267:B 0.000111794
2 *6258:C 0.000389752
3 *6253:B 8.15563e-05
4 *6276:D 4.99921e-05
5 *6252:Y 0
6 *437:12 0.00036729
7 *437:6 0.000625493
8 *437:4 0.000111794
9 *6253:B *454:10 0.000141052
10 *6258:C *447:8 8.06039e-05
11 *6258:C *711:109 0
12 *6267:B *680:18 0
13 *6276:D *454:10 4.05745e-05
14 *437:12 *453:10 8.62783e-05
15 *437:12 *711:109 0
16 *6258:B *6258:C 0
17 *225:262 *6267:B 3.91386e-05
18 *226:18 *6267:B 5.47454e-05
19 *226:28 *6267:B 9.67842e-05
20 *226:28 *437:12 6.85339e-05
21 *230:271 *6253:B 0.000154046
22 *230:281 *6267:B 0.00018613
23 *230:281 *437:12 0.000188926
24 *230:301 *6258:C 0
25 *237:24 *6258:C 0
26 *237:24 *437:12 1.02387e-05
27 *239:10 *6253:B 8.48502e-06
28 *239:10 *6276:D 2.02872e-05
29 *239:16 *6276:D 5.3304e-05
*RES
1 *6252:Y *437:4 23 
2 *437:4 *437:6 15 
3 *437:6 *437:12 19.2879 
4 *437:12 *6276:D 24.0979 
5 *437:12 *6253:B 25.5479 
6 *437:6 *6258:C 45.0014 
7 *437:4 *6267:B 26.3971 
*END

*D_NET *438 0.00144038
*CONN
*I *6255:A I *D sky130_fd_sc_hd__and2_1
*I *6257:B I *D sky130_fd_sc_hd__xnor2_1
*I *6253:X O *D sky130_fd_sc_hd__or2_1
*CAP
1 *6255:A 5.16307e-05
2 *6257:B 0
3 *6253:X 7.77122e-05
4 *438:20 0.000278215
5 *438:10 0.000329846
6 *438:8 7.77122e-05
7 *6255:A *6255:B 5.50106e-05
8 *438:8 *439:10 0.000140958
9 *438:8 *711:135 5.26204e-05
10 *210:12 *438:8 7.75329e-06
11 *225:262 *438:20 0.000140958
12 *226:28 *438:20 4.48671e-05
13 *287:24 *6255:A 1.41129e-05
14 *287:24 *438:20 0.000168985
*RES
1 *6253:X *438:8 40.2579 
2 *438:8 *438:10 15 
3 *438:10 *438:20 36.235 
4 *438:20 *6257:B 23 
5 *438:10 *6255:A 24.0979 
*END

*D_NET *439 0.00134172
*CONN
*I *6255:B I *D sky130_fd_sc_hd__and2_1
*I *6254:X O *D sky130_fd_sc_hd__a31o_1
*CAP
1 *6255:B 5.77766e-05
2 *6254:X 0.000239177
3 *439:10 0.000296954
4 *439:10 *711:115 5.50106e-05
5 *439:10 *711:135 0
6 *6253:A *439:10 9.21347e-06
7 *6254:A3 *439:10 9.8139e-05
8 *6255:A *6255:B 5.50106e-05
9 *210:12 *439:10 8.92841e-05
10 *225:247 *439:10 5.67058e-05
11 *230:301 *439:10 0.000104133
12 *287:24 *6255:B 0.000139357
13 *438:8 *439:10 0.000140958
*RES
1 *6254:X *439:10 44.0486 
2 *439:10 *6255:B 39.5743 
*END

*D_NET *440 0.00120128
*CONN
*I *6256:A I *D sky130_fd_sc_hd__clkbuf_1
*I *6255:X O *D sky130_fd_sc_hd__and2_1
*CAP
1 *6256:A 0.00034229
2 *6255:X 6.95826e-05
3 *440:8 0.000411872
4 *210:12 *440:8 2.79004e-05
5 *230:263 *6256:A 0.000349633
*RES
1 *6255:X *440:8 39.2014 
2 *440:8 *6256:A 45.8093 
*END

*D_NET *441 0.000304105
*CONN
*I *6259:B I *D sky130_fd_sc_hd__xnor2_1
*I *6258:X O *D sky130_fd_sc_hd__or3_1
*CAP
1 *6259:B 0
2 *6258:X 8.15735e-05
3 *441:8 8.15735e-05
4 *441:8 *713:8 0
5 *155:8 *441:8 0
6 *230:301 *441:8 0.000140958
*RES
1 *6258:X *441:8 39.9057 
2 *441:8 *6259:B 38 
*END

*D_NET *442 0.0016233
*CONN
*I *6261:A0 I *D sky130_fd_sc_hd__mux2_1
*I *6260:Y O *D sky130_fd_sc_hd__inv_2
*CAP
1 *6261:A0 0
2 *6260:Y 0.000544867
3 *442:10 0.000544867
4 *6260:A *442:10 1.83327e-05
5 *239:96 *442:10 0.000515229
*RES
1 *6260:Y *442:10 48.3157 
2 *442:10 *6261:A0 38 
*END

*D_NET *443 0.000279088
*CONN
*I *6262:A I *D sky130_fd_sc_hd__clkbuf_1
*I *6261:X O *D sky130_fd_sc_hd__mux2_1
*CAP
1 *6262:A 9.87301e-05
2 *6261:X 9.87301e-05
3 *6262:A *814:16 8.16277e-05
*RES
1 *6261:X *6262:A 48.4236 
*END

*D_NET *444 0.00113789
*CONN
*I *6264:B I *D sky130_fd_sc_hd__xnor2_1
*I *6263:Y O *D sky130_fd_sc_hd__nor2_1
*CAP
1 *6264:B 0
2 *6263:Y 0.000283321
3 *444:10 0.000283321
4 *444:10 *6264:A 0.000247239
5 *444:10 *450:8 0.000189669
6 *6271:A2 *444:10 3.52912e-05
7 *226:28 *444:10 7.53384e-06
8 *226:30 *444:10 8.1796e-05
9 *226:43 *444:10 9.72057e-06
*RES
1 *6263:Y *444:10 29.38 
2 *444:10 *6264:B 23 
*END

*D_NET *445 0.00556696
*CONN
*I *6265:A0 I *D sky130_fd_sc_hd__mux2_1
*I *6264:Y O *D sky130_fd_sc_hd__xnor2_1
*CAP
1 *6265:A0 0.000104592
2 *6264:Y 0.000207706
3 *445:16 0.00176293
4 *445:8 0.00186605
5 *445:8 *450:8 0.00032297
6 *445:16 *5895:A 0
7 *445:16 *6459:CLK 0
8 *445:16 *487:73 0
9 *445:16 *490:35 0.000377181
10 *445:16 *490:62 0.000167443
11 *445:16 *794:34 0
12 *6265:S *6265:A0 0.000102389
13 *143:10 *445:16 0.000114083
14 *207:14 *6265:A0 8.06804e-06
15 *207:14 *445:16 0.000127477
16 *208:14 *6265:A0 5.3304e-05
17 *209:16 *445:16 3.36312e-06
18 *239:88 *6265:A0 0.000315092
19 *239:88 *445:16 3.43144e-05
*RES
1 *6264:Y *445:8 41.48 
2 *445:8 *445:16 48.785 
3 *445:16 *6265:A0 26.48 
*END

*D_NET *446 0.000655108
*CONN
*I *6266:A I *D sky130_fd_sc_hd__clkbuf_1
*I *6265:X O *D sky130_fd_sc_hd__mux2_1
*CAP
1 *6266:A 0
2 *6265:X 0.000268766
3 *446:8 0.000268766
4 *446:8 *6265:A1 3.91386e-05
5 *6265:S *446:8 4.00259e-06
6 *239:67 *446:8 7.44354e-05
*RES
1 *6265:X *446:8 28.2821 
2 *446:8 *6266:A 23 
*END

*D_NET *447 0.000319687
*CONN
*I *6268:B I *D sky130_fd_sc_hd__xnor2_1
*I *6267:X O *D sky130_fd_sc_hd__and2_1
*CAP
1 *6268:B 0
2 *6267:X 8.61017e-05
3 *447:8 8.61017e-05
4 *447:8 *709:10 0
5 *6258:C *447:8 8.06039e-05
6 *237:24 *447:8 6.68793e-05
*RES
1 *6267:X *447:8 40.2579 
2 *447:8 *6268:B 38 
*END

*D_NET *448 0.00155008
*CONN
*I *6269:A0 I *D sky130_fd_sc_hd__mux2_1
*I *6268:Y O *D sky130_fd_sc_hd__xnor2_1
*CAP
1 *6269:A0 0.0001281
2 *6268:Y 0.000362014
3 *448:10 0.000490114
4 *6269:A0 *680:18 2.25419e-05
5 *6269:A0 *680:26 0.000138444
6 *448:10 *711:109 5.14746e-06
7 *230:281 *6269:A0 1.94693e-05
8 *237:14 *448:10 0.000102093
9 *237:24 *448:10 0.000186287
10 *239:30 *6269:A0 9.58714e-05
*RES
1 *6268:Y *448:10 43.51 
2 *448:10 *6269:A0 41.0036 
*END

*D_NET *449 0.000849265
*CONN
*I *6270:A I *D sky130_fd_sc_hd__clkbuf_1
*I *6269:X O *D sky130_fd_sc_hd__mux2_1
*CAP
1 *6270:A 5.42375e-05
2 *6269:X 0.00024905
3 *449:8 0.000303288
4 *6270:A *6513:A 0.000146822
5 *449:8 *709:10 6.05076e-05
6 *449:8 *709:17 3.53605e-05
*RES
1 *6269:X *449:8 43.075 
2 *449:8 *6270:A 39.5743 
*END

*D_NET *450 0.00121165
*CONN
*I *6272:B I *D sky130_fd_sc_hd__xor2_1
*I *6271:X O *D sky130_fd_sc_hd__a31o_1
*CAP
1 *6272:B 0
2 *6271:X 0.000263748
3 *450:8 0.000263748
4 *450:8 *6264:A 2.46906e-05
5 *450:8 *451:10 0.000146822
6 *444:10 *450:8 0.000189669
7 *445:8 *450:8 0.00032297
*RES
1 *6271:X *450:8 30.7886 
2 *450:8 *6272:B 23 
*END

*D_NET *451 0.00126435
*CONN
*I *6273:A0 I *D sky130_fd_sc_hd__mux2_1
*I *6272:X O *D sky130_fd_sc_hd__xor2_1
*CAP
1 *6273:A0 0
2 *6272:X 0.000444747
3 *451:10 0.000444747
4 *451:10 *709:38 0.000171906
5 *239:41 *451:10 4.58924e-05
6 *239:54 *451:10 1.02387e-05
7 *450:8 *451:10 0.000146822
*RES
1 *6272:X *451:10 45.1671 
2 *451:10 *6273:A0 38 
*END

*D_NET *452 0.000452336
*CONN
*I *6274:A I *D sky130_fd_sc_hd__clkbuf_1
*I *6273:X O *D sky130_fd_sc_hd__mux2_1
*CAP
1 *6274:A 0.000226168
2 *6273:X 0.000226168
*RES
1 *6273:X *6274:A 49.9979 
*END

*D_NET *453 0.00110903
*CONN
*I *6276:B I *D sky130_fd_sc_hd__or4_1
*I *6275:Y O *D sky130_fd_sc_hd__inv_2
*CAP
1 *6276:B 0
2 *6275:Y 0.000294821
3 *453:10 0.000294821
4 *225:262 *453:10 3.71198e-05
5 *226:28 *453:10 0.000215782
6 *287:24 *453:10 0.000180212
7 *437:12 *453:10 8.62783e-05
*RES
1 *6275:Y *453:10 43.0129 
2 *453:10 *6276:B 38 
*END

*D_NET *454 0.00265316
*CONN
*I *6277:B I *D sky130_fd_sc_hd__xnor2_1
*I *6276:X O *D sky130_fd_sc_hd__or4_1
*CAP
1 *6277:B 0.000266906
2 *6276:X 0.000701337
3 *454:10 0.000968243
4 *454:10 *6469:RESET_B 7.91596e-05
5 *454:10 *709:25 1.04148e-05
6 *6253:B *454:10 0.000141052
7 *6276:D *454:10 4.05745e-05
8 *239:16 *454:10 9.50292e-05
9 *287:24 *6277:B 0.000350438
*RES
1 *6276:X *454:10 48.0257 
2 *454:10 *6277:B 44.815 
*END

*D_NET *455 0.000270041
*CONN
*I *6280:A I *D sky130_fd_sc_hd__clkbuf_1
*I *6279:X O *D sky130_fd_sc_hd__mux2_1
*CAP
1 *6280:A 6.72182e-05
2 *6279:X 6.72182e-05
3 *6280:A *810:55 3.71251e-05
4 *6222:S *6280:A 9.84794e-05
*RES
1 *6279:X *6280:A 47.9471 
*END

*D_NET *456 0.00189724
*CONN
*I *6282:A1 I *D sky130_fd_sc_hd__mux2_1
*I *6281:Y O *D sky130_fd_sc_hd__nor2_1
*CAP
1 *6282:A1 0
2 *6281:Y 0.000378183
3 *456:12 0.000378183
4 *456:12 *5878:B1 0.000227208
5 *456:12 *6282:A0 0.00014411
6 *456:12 *811:78 5.50106e-05
7 *5874:B *456:12 9.67842e-05
8 *5878:A1 *456:12 5.46873e-05
9 *186:41 *456:12 0.000181125
10 *193:16 *456:12 0.000303724
11 *420:27 *456:12 6.67764e-05
12 *420:31 *456:12 1.14452e-05
*RES
1 *6281:Y *456:12 47.6943 
2 *456:12 *6282:A1 38 
*END

*D_NET *457 0.000950587
*CONN
*I *6283:A I *D sky130_fd_sc_hd__clkbuf_1
*I *6282:X O *D sky130_fd_sc_hd__mux2_1
*CAP
1 *6283:A 7.34042e-05
2 *6282:X 0.000232136
3 *457:8 0.00030554
4 *6283:A *812:36 0.000100733
5 *457:8 *491:10 0
6 *163:10 *6283:A 5.41288e-05
7 *192:12 *457:8 0.000184644
8 *420:31 *457:8 0
9 *420:85 *457:8 0
*RES
1 *6282:X *457:8 43.075 
2 *457:8 *6283:A 40.0507 
*END

*D_NET *458 0.00139082
*CONN
*I *6285:A1 I *D sky130_fd_sc_hd__mux2_1
*I *6284:Y O *D sky130_fd_sc_hd__inv_2
*CAP
1 *6285:A1 0
2 *6284:Y 0.000322667
3 *458:10 0.000322667
4 *458:10 *5874:A 0.000296035
5 *458:10 *707:8 0.000271476
6 *458:10 *812:10 1.14452e-05
7 *198:16 *458:10 0
8 *420:47 *458:10 0.000166532
*RES
1 *6284:Y *458:10 45.0221 
2 *458:10 *6285:A1 38 
*END

*D_NET *459 0.000150052
*CONN
*I *6286:A I *D sky130_fd_sc_hd__clkbuf_1
*I *6285:X O *D sky130_fd_sc_hd__mux2_1
*CAP
1 *6286:A 6.35112e-05
2 *6285:X 6.35112e-05
3 *6286:A *490:6 2.30292e-05
*RES
1 *6285:X *6286:A 47.3879 
*END

*D_NET *460 0.0316889
*CONN
*I *6298:S I *D sky130_fd_sc_hd__mux2_1
*I *6292:S I *D sky130_fd_sc_hd__mux2_1
*I *6294:S I *D sky130_fd_sc_hd__mux2_1
*I *6288:S I *D sky130_fd_sc_hd__mux2_1
*I *6300:S I *D sky130_fd_sc_hd__mux2_1
*I *6290:S I *D sky130_fd_sc_hd__mux2_1
*I *6296:S I *D sky130_fd_sc_hd__mux2_1
*I *6302:S I *D sky130_fd_sc_hd__mux2_1
*I *6287:X O *D sky130_fd_sc_hd__o211a_4
*CAP
1 *6298:S 0.000238271
2 *6292:S 0
3 *6294:S 7.81758e-05
4 *6288:S 8.87963e-05
5 *6300:S 0.000223731
6 *6290:S 0.000309244
7 *6296:S 4.8194e-05
8 *6302:S 2.34823e-05
9 *6287:X 0
10 *460:80 0.00148731
11 *460:78 0.00202178
12 *460:76 0.00239071
13 *460:66 0.00158845
14 *460:60 0.00157845
15 *460:43 0.00186232
16 *460:37 0.00149559
17 *460:31 0.00240188
18 *460:14 0.00137985
19 *460:8 0.00220584
20 *460:6 0.00200774
21 *6288:S *6480:CLK 1.76557e-05
22 *6288:S *724:143 2.93845e-05
23 *6290:S *6650:A 1.17152e-05
24 *6290:S *537:12 0.000143655
25 *6290:S *542:12 4.43717e-05
26 *6290:S *625:122 0.000357921
27 *6290:S *653:8 3.21223e-05
28 *6294:S *531:16 0
29 *6296:S *6296:A0 1.1258e-05
30 *6298:S *466:8 0
31 *6298:S *549:12 1.00286e-05
32 *6298:S *549:29 9.10243e-05
33 *6300:S *659:10 0.000123784
34 *460:8 *6018:A1 0
35 *460:8 *6478:RESET_B 0
36 *460:8 *468:10 0
37 *460:8 *551:12 0
38 *460:8 *810:79 0
39 *460:8 *810:119 0
40 *460:8 *811:20 6.0093e-05
41 *460:8 *811:32 3.72639e-05
42 *460:8 *811:38 0
43 *460:8 *812:36 0
44 *460:8 *812:38 0
45 *460:8 *812:46 0
46 *460:14 *644:6 5.29672e-05
47 *460:31 *6055:A0 0.000355822
48 *460:31 *6055:A1 0
49 *460:31 *541:12 0
50 *460:31 *549:29 7.17439e-05
51 *460:31 *636:38 0.000453711
52 *460:31 *636:47 0.000124979
53 *460:31 *644:6 0.000221406
54 *460:31 *694:6 0.000527118
55 *460:37 *6014:A1 0.000393293
56 *460:37 *779:20 0.00100794
57 *460:37 *779:22 9.84851e-05
58 *460:43 *6296:A0 1.9955e-05
59 *460:43 *6296:A1 5.3304e-05
60 *460:43 *465:8 3.53698e-05
61 *460:43 *532:14 0.000428374
62 *460:43 *548:16 3.09013e-05
63 *460:43 *768:16 0
64 *460:43 *768:18 0
65 *460:60 *6296:A0 2.34132e-05
66 *460:60 *6356:CLK 0.000321897
67 *460:60 *484:69 2.35118e-06
68 *460:60 *532:25 8.36198e-05
69 *460:60 *548:29 0.000105637
70 *460:66 *530:16 0
71 *460:66 *746:12 0.000167548
72 *460:66 *746:14 1.83564e-05
73 *460:76 *6063:A1 0.00035556
74 *460:76 *757:154 1.14452e-05
75 *460:76 *757:169 0.000363877
76 *460:76 *759:6 0.000288134
77 *460:76 *779:12 0.000199409
78 *460:76 *779:20 0
79 *460:78 *6522:A 0.000429704
80 *460:78 *528:26 6.00655e-05
81 *460:78 *544:10 0.000209101
82 *460:78 *724:151 0.000420815
83 *460:78 *757:154 0.000431852
84 *460:80 *6650:A 1.94522e-05
85 *460:80 *526:22 3.45333e-05
86 *460:80 *534:31 0.00024563
87 *460:80 *542:12 3.3746e-05
88 *460:80 *544:10 3.39192e-05
89 *460:80 *550:10 4.90891e-05
90 *460:80 *724:122 0
91 *460:80 *786:10 0
92 *5978:S0 *460:31 0.000194318
93 *6014:S *460:31 0
94 *6055:S *460:31 0.000160508
95 *6056:A *460:31 7.14265e-05
96 *6185:D *460:8 4.24417e-05
97 *6287:A2 *460:8 0
98 *6287:B1 *460:8 0
99 *6358:D *460:60 6.19985e-05
100 *59:10 *460:78 8.16253e-05
101 *72:12 *460:31 7.53384e-06
102 *161:10 *460:8 0
103 *168:8 *460:76 0
104 *185:8 *460:8 0.000320642
105 *199:40 *460:8 2.54046e-05
106 *232:141 *6294:S 0.0001096
107 *232:157 *460:78 0
108 *232:157 *460:80 0
109 *232:167 *6290:S 0
110 *284:16 *6290:S 0
111 *298:37 *460:31 7.57176e-05
112 *306:12 *460:8 3.56537e-05
113 *319:105 *460:78 0
114 *326:8 *460:80 8.85189e-05
115 *329:70 *460:76 0.000228909
*RES
1 *6287:X *460:6 38 
2 *460:6 *460:8 38.8807 
3 *460:8 *460:14 18.0243 
4 *460:14 *6302:S 23.4971 
5 *460:14 *460:31 44.0621 
6 *460:31 *460:37 46.3436 
7 *460:37 *460:43 24.3629 
8 *460:43 *6296:S 24.2014 
9 *460:43 *460:60 49.4507 
10 *460:60 *460:66 35.075 
11 *460:66 *460:76 43.6064 
12 *460:76 *460:78 22.6821 
13 *460:78 *460:80 18.8086 
14 *460:80 *6290:S 46.0579 
15 *460:80 *6300:S 41.3764 
16 *460:78 *6288:S 40.0921 
17 *460:76 *6294:S 40.0921 
18 *460:66 *6292:S 23 
19 *460:31 *6298:S 42.7229 
*END

*D_NET *461 0.000657701
*CONN
*I *6289:A I *D sky130_fd_sc_hd__clkbuf_1
*I *6288:X O *D sky130_fd_sc_hd__mux2_1
*CAP
1 *6289:A 0
2 *6288:X 0.000180728
3 *461:10 0.000180728
4 *461:10 *6480:CLK 0.000141052
5 *461:10 *544:10 0
6 *461:10 *786:10 0.000111852
7 *165:8 *461:10 4.334e-05
8 *298:77 *461:10 0
*RES
1 *6288:X *461:10 41.48 
2 *461:10 *6289:A 38 
*END

*D_NET *462 0.00118268
*CONN
*I *6291:A I *D sky130_fd_sc_hd__clkbuf_1
*I *6290:X O *D sky130_fd_sc_hd__mux2_1
*CAP
1 *6291:A 0.000238193
2 *6290:X 4.99582e-05
3 *462:8 0.000288151
4 *6291:A *6006:A0 0.000309734
5 *462:8 *537:8 2.79004e-05
6 *462:8 *625:122 4.334e-05
7 *233:191 *6291:A 0
8 *298:94 *6291:A 0.000225399
*RES
1 *6290:X *462:8 39.2014 
2 *462:8 *6291:A 43.9036 
*END

*D_NET *463 0.00021757
*CONN
*I *6293:A I *D sky130_fd_sc_hd__clkbuf_1
*I *6292:X O *D sky130_fd_sc_hd__mux2_1
*CAP
1 *6293:A 4.22568e-05
2 *6292:X 4.22568e-05
3 *6293:A *779:20 0.000133057
*RES
1 *6292:X *6293:A 47.4707 
*END

*D_NET *464 0.000352606
*CONN
*I *6295:A I *D sky130_fd_sc_hd__clkbuf_1
*I *6294:X O *D sky130_fd_sc_hd__mux2_1
*CAP
1 *6295:A 8.49061e-05
2 *6294:X 8.49061e-05
3 *232:141 *6295:A 0.000182793
*RES
1 *6294:X *6295:A 48.4236 
*END

*D_NET *465 0.00109866
*CONN
*I *6297:A I *D sky130_fd_sc_hd__clkbuf_1
*I *6296:X O *D sky130_fd_sc_hd__mux2_1
*CAP
1 *6297:A 9.77724e-05
2 *6296:X 0.000220673
3 *465:8 0.000318446
4 *465:8 *532:14 0.00029801
5 *319:59 *6297:A 0.000128391
6 *460:43 *465:8 3.53698e-05
*RES
1 *6296:X *465:8 43.075 
2 *465:8 *6297:A 40.5271 
*END

*D_NET *466 0.00102564
*CONN
*I *6299:A I *D sky130_fd_sc_hd__clkbuf_1
*I *6298:X O *D sky130_fd_sc_hd__mux2_1
*CAP
1 *6299:A 0.000271653
2 *6298:X 8.32369e-05
3 *466:8 0.00035489
4 *6299:A *493:60 0.000315857
5 *466:8 *6485:CLK 0
6 *6298:S *466:8 0
*RES
1 *6298:X *466:8 39.2014 
2 *466:8 *6299:A 44.2557 
*END

*D_NET *467 0.000820907
*CONN
*I *6301:A I *D sky130_fd_sc_hd__clkbuf_1
*I *6300:X O *D sky130_fd_sc_hd__mux2_1
*CAP
1 *6301:A 0
2 *6300:X 0.00025456
3 *467:10 0.00025456
4 *467:10 *6650:A 4.23714e-05
5 *467:10 *550:10 1.02387e-05
6 *467:10 *659:10 6.32895e-05
7 *467:10 *724:122 0.000166513
8 *298:94 *467:10 2.93747e-05
*RES
1 *6300:X *467:10 42.785 
2 *467:10 *6301:A 38 
*END

*D_NET *468 0.000989299
*CONN
*I *6303:A I *D sky130_fd_sc_hd__clkbuf_1
*I *6302:X O *D sky130_fd_sc_hd__mux2_1
*CAP
1 *6303:A 7.47266e-05
2 *6302:X 0.000345223
3 *468:10 0.00041995
4 *468:10 *491:89 0
5 *6019:A *6303:A 3.45967e-05
6 *50:12 *6303:A 5.67058e-05
7 *172:8 *468:10 0
8 *306:12 *468:10 5.80963e-05
9 *460:8 *468:10 0
*RES
1 *6302:X *468:10 43.5929 
2 *468:10 *6303:A 39.9471 
*END

*D_NET *469 0.00254128
*CONN
*I *6305:B1 I *D sky130_fd_sc_hd__o211a_4
*I *6304:Y O *D sky130_fd_sc_hd__nor2_1
*CAP
1 *6305:B1 0.00016769
2 *6304:Y 0.000558636
3 *469:8 0.000726326
4 *6096:A1 *469:8 5.3304e-05
5 *6096:A2 *469:8 2.02872e-05
6 *6096:C1 *469:8 2.30292e-05
7 *6150:A *469:8 2.93747e-05
8 *6150:B *469:8 2.79662e-05
9 *190:70 *6305:B1 0.00026599
10 *190:94 *6305:B1 0.000136486
11 *215:109 *6305:B1 3.92407e-05
12 *215:118 *6305:B1 0.000178773
13 *215:133 *6305:B1 0.000176541
14 *215:133 *469:8 1.03836e-05
15 *348:27 *469:8 9.24795e-06
16 *351:31 *469:8 6.46983e-05
17 *427:12 *469:8 5.3304e-05
*RES
1 *6304:Y *469:8 46.2443 
2 *469:8 *6305:B1 43.4271 
*END

*D_NET *470 0.0457138
*CONN
*I *6312:S I *D sky130_fd_sc_hd__mux2_1
*I *6310:S I *D sky130_fd_sc_hd__mux2_1
*I *6314:S I *D sky130_fd_sc_hd__mux2_1
*I *6316:S I *D sky130_fd_sc_hd__mux2_1
*I *6320:S I *D sky130_fd_sc_hd__mux2_1
*I *6318:S I *D sky130_fd_sc_hd__mux2_1
*I *6308:S I *D sky130_fd_sc_hd__mux2_1
*I *6306:S I *D sky130_fd_sc_hd__mux2_1
*I *6305:X O *D sky130_fd_sc_hd__o211a_4
*CAP
1 *6312:S 0
2 *6310:S 0
3 *6314:S 2.34823e-05
4 *6316:S 2.34823e-05
5 *6320:S 0
6 *6318:S 1.17411e-05
7 *6308:S 0.000210865
8 *6306:S 9.37852e-05
9 *6305:X 0.000440045
10 *470:151 0.000146432
11 *470:145 0.00201736
12 *470:128 0.00187093
13 *470:126 0.00185921
14 *470:109 0.0027407
15 *470:100 0.0009721
16 *470:96 0.0015709
17 *470:56 0.00125926
18 *470:52 0.00212812
19 *470:40 0.00090181
20 *470:34 0.00244466
21 *470:18 0.00328813
22 *470:12 0.00246204
23 *470:10 0.000440045
24 *6306:S *471:12 0.000223698
25 *6306:S *504:31 9.00923e-05
26 *6306:S *724:219 5.50106e-05
27 *6308:S *6099:A0 0.000164732
28 *6308:S *472:10 5.41385e-05
29 *6308:S *735:133 0.000262097
30 *6308:S *752:14 9.75779e-05
31 *6318:S *482:104 0
32 *470:18 *6320:A1 5.70419e-05
33 *470:18 *605:10 6.6869e-05
34 *470:34 *477:8 3.17098e-05
35 *470:34 *625:192 3.6061e-05
36 *470:34 *669:14 0
37 *470:34 *735:129 2.24903e-05
38 *470:40 *622:30 9.62666e-05
39 *470:52 *6099:A0 0.00044458
40 *470:52 *482:93 0.000123944
41 *470:52 *482:104 0.000158932
42 *470:52 *622:30 7.67714e-06
43 *470:52 *735:133 0.000447976
44 *470:56 *6371:CLK 0.000589807
45 *470:56 *6403:CLK 0.000272321
46 *470:56 *504:12 3.47879e-05
47 *470:56 *521:33 0
48 *470:56 *608:12 0.000108681
49 *470:56 *617:12 0
50 *470:96 *476:8 0
51 *470:96 *492:68 0
52 *470:96 *509:27 0.000185183
53 *470:96 *605:10 0.000111148
54 *470:96 *779:43 0.000282617
55 *470:96 *779:54 9.33491e-05
56 *470:96 *779:62 0.000215867
57 *470:100 *743:6 7.44257e-05
58 *470:109 *6609:A 0.000185428
59 *470:109 *508:35 0.000421716
60 *470:109 *743:6 0.00021693
61 *470:109 *756:6 2.32101e-05
62 *470:126 *756:6 0.000218483
63 *470:126 *757:50 0.000113169
64 *470:145 *6065:A0 0.000358425
65 *470:145 *6341:CLK 0.000140259
66 *470:145 *6613:A 9.5877e-05
67 *470:145 *539:8 1.41077e-05
68 *470:145 *539:27 0.00036993
69 *470:145 *757:182 0.000182832
70 *470:145 *781:6 0.000139437
71 *470:151 *619:29 4.21594e-06
72 *470:151 *757:196 0
73 *5975:S0 *470:18 0.000148412
74 *5979:S1 *470:96 0
75 *6065:S *470:145 0.000110235
76 *6087:S *470:96 2.72055e-05
77 *6305:A2 *470:10 3.91386e-05
78 *6341:D *470:145 1.64354e-05
79 *6490:D *470:126 8.15899e-06
80 *16:5 *470:126 0.000161121
81 *104:8 *470:96 5.56203e-05
82 *128:8 *470:96 0.000114083
83 *190:70 *470:10 2.18409e-05
84 *203:75 *470:10 0.000181125
85 *203:79 *470:10 0.000278627
86 *225:160 *470:18 0.000483688
87 *230:183 *470:34 0.000110155
88 *231:18 *470:52 0
89 *232:47 *470:34 0.00352273
90 *232:192 *470:56 0
91 *237:84 *470:18 0
92 *237:84 *470:34 2.11157e-05
93 *237:138 *470:34 1.94522e-05
94 *245:14 *470:56 0
95 *249:18 *470:34 0.00282942
96 *252:10 *470:126 0.000163361
97 *277:10 *470:96 2.3087e-05
98 *278:12 *470:96 0.00119049
99 *279:8 *470:96 6.0093e-05
100 *298:67 *470:145 0.000482844
101 *309:14 *470:18 0
102 *309:14 *470:96 0
103 *329:81 *470:145 0.000344503
104 *339:31 *470:96 0.000115293
105 *339:75 *470:56 0.00138511
106 *339:91 *470:56 0.000370869
107 *351:119 *470:52 0.000139647
108 *351:133 *470:34 0.000534291
109 *382:14 *470:96 0.000240592
110 *391:122 *470:18 6.88819e-05
111 *397:10 *470:18 0
112 *428:16 *470:10 0.000647961
*RES
1 *6305:X *470:10 35.0971 
2 *470:10 *470:12 15 
3 *470:12 *470:18 36.5636 
4 *470:18 *470:34 43.8214 
5 *470:34 *470:40 17.5479 
6 *470:40 *470:52 45.7843 
7 *470:52 *470:56 46.1336 
8 *470:56 *6306:S 41.0243 
9 *470:52 *6308:S 29.38 
10 *470:40 *6318:S 23.4971 
11 *470:18 *6320:S 23 
12 *470:12 *470:96 39.9993 
13 *470:96 *470:100 16.5743 
14 *470:100 *6316:S 23.4971 
15 *470:100 *470:109 15.8671 
16 *470:109 *6314:S 23.4971 
17 *470:109 *470:126 43.3993 
18 *470:126 *470:128 15 
19 *470:128 *6310:S 23 
20 *470:128 *470:145 41.47 
21 *470:145 *470:151 32.2579 
22 *470:151 *6312:S 23 
*END

*D_NET *471 0.00239715
*CONN
*I *6307:A I *D sky130_fd_sc_hd__clkbuf_1
*I *6306:X O *D sky130_fd_sc_hd__mux2_1
*CAP
1 *6307:A 0
2 *6306:X 0.000943902
3 *471:12 0.000943902
4 *471:12 *6306:A0 1.28176e-05
5 *471:12 *6488:CLK 1.32939e-05
6 *471:12 *504:31 7.38898e-05
7 *6306:S *471:12 0.000223698
8 *173:8 *471:12 0.00018565
*RES
1 *6306:X *471:12 37.9764 
2 *471:12 *6307:A 23 
*END

*D_NET *472 0.000563596
*CONN
*I *6309:A I *D sky130_fd_sc_hd__clkbuf_1
*I *6308:X O *D sky130_fd_sc_hd__mux2_1
*CAP
1 *6309:A 0
2 *6308:X 0.000169827
3 *472:10 0.000169827
4 *472:10 *505:23 6.48142e-05
5 *472:10 *609:28 7.81176e-05
6 *472:10 *735:162 2.68708e-05
7 *6308:S *472:10 5.41385e-05
*RES
1 *6308:X *472:10 41.3557 
2 *472:10 *6309:A 38 
*END

*D_NET *473 0.000906273
*CONN
*I *6311:A I *D sky130_fd_sc_hd__clkbuf_1
*I *6310:X O *D sky130_fd_sc_hd__mux2_1
*CAP
1 *6311:A 5.74494e-05
2 *6310:X 0.000231877
3 *473:8 0.000289327
4 *5952:S1 *473:8 4.6318e-06
5 *230:98 *6311:A 0.000141954
6 *232:118 *473:8 0
7 *233:150 *473:8 0.000181034
*RES
1 *6310:X *473:8 43.075 
2 *473:8 *6311:A 39.5743 
*END

*D_NET *474 0.000865347
*CONN
*I *6313:A I *D sky130_fd_sc_hd__clkbuf_1
*I *6312:X O *D sky130_fd_sc_hd__mux2_1
*CAP
1 *6313:A 0
2 *6312:X 0.000190117
3 *474:8 0.000190117
4 *474:8 *670:10 3.71369e-05
5 *474:8 *757:24 0.000447976
*RES
1 *6312:X *474:8 28.7586 
2 *474:8 *6313:A 23 
*END

*D_NET *475 0.000354308
*CONN
*I *6315:A I *D sky130_fd_sc_hd__clkbuf_1
*I *6314:X O *D sky130_fd_sc_hd__mux2_1
*CAP
1 *6315:A 0
2 *6314:X 0.000108781
3 *475:10 0.000108781
4 *475:10 *508:35 2.30292e-05
5 *475:10 *768:26 7.03766e-05
6 *177:8 *475:10 4.334e-05
*RES
1 *6314:X *475:10 40.5271 
2 *475:10 *6315:A 38 
*END

*D_NET *476 0.00120471
*CONN
*I *6317:A I *D sky130_fd_sc_hd__clkbuf_1
*I *6316:X O *D sky130_fd_sc_hd__mux2_1
*CAP
1 *6317:A 4.72816e-05
2 *6316:X 0.000189348
3 *476:8 0.00023663
4 *6317:A *6107:A1 0.000181125
5 *6317:A *509:27 0.000182832
6 *476:8 *779:54 1.58805e-05
7 *5979:S1 *476:8 0.000351617
8 *470:96 *476:8 0
*RES
1 *6316:X *476:8 42.7229 
2 *476:8 *6317:A 40.0507 
*END

*D_NET *477 0.00125129
*CONN
*I *6319:A I *D sky130_fd_sc_hd__clkbuf_1
*I *6318:X O *D sky130_fd_sc_hd__mux2_1
*CAP
1 *6319:A 0.000409364
2 *6318:X 6.37875e-05
3 *477:8 0.000473152
4 *6319:A *614:35 8.34313e-05
5 *230:140 *477:8 3.10276e-05
6 *233:212 *6319:A 0.000148678
7 *237:138 *477:8 1.01436e-05
8 *470:34 *477:8 3.17098e-05
*RES
1 *6318:X *477:8 39.2014 
2 *477:8 *6319:A 44.1107 
*END

*D_NET *478 0.0015019
*CONN
*I *6321:A I *D sky130_fd_sc_hd__clkbuf_1
*I *6320:X O *D sky130_fd_sc_hd__mux2_1
*CAP
1 *6321:A 0
2 *6320:X 0.000520853
3 *478:10 0.000520853
4 *478:10 *6320:A1 0.000113251
5 *478:10 *658:26 0.000346945
6 *309:14 *478:10 0
*RES
1 *6320:X *478:10 47.1557 
2 *478:10 *6321:A 38 
*END

*D_NET *479 0.0489577
*CONN
*I *6500:A I *D sky130_fd_sc_hd__clkbuf_8
*I *6501:A I *D sky130_fd_sc_hd__clkbuf_8
*I *6503:A I *D sky130_fd_sc_hd__clkbuf_8
*I *6502:A I *D sky130_fd_sc_hd__clkbuf_8
*I *6510:A I *D sky130_fd_sc_hd__clkbuf_8
*I *6509:A I *D sky130_fd_sc_hd__clkbuf_8
*I *6512:A I *D sky130_fd_sc_hd__clkbuf_8
*I *6511:A I *D sky130_fd_sc_hd__clkbuf_8
*I *6499:A I *D sky130_fd_sc_hd__clkbuf_8
*I *6498:A I *D sky130_fd_sc_hd__clkbuf_8
*I *6506:A I *D sky130_fd_sc_hd__clkbuf_8
*I *6505:A I *D sky130_fd_sc_hd__clkbuf_8
*I *6504:A I *D sky130_fd_sc_hd__clkbuf_8
*I *6508:A I *D sky130_fd_sc_hd__clkbuf_8
*I *6507:A I *D sky130_fd_sc_hd__clkbuf_8
*I *6497:A I *D sky130_fd_sc_hd__clkbuf_8
*I *6496:X O *D sky130_fd_sc_hd__clkbuf_16
*CAP
1 *6500:A 0
2 *6501:A 0.000151066
3 *6503:A 0
4 *6502:A 5.74222e-05
5 *6510:A 0
6 *6509:A 0
7 *6512:A 0.000406498
8 *6511:A 0
9 *6499:A 0
10 *6498:A 0
11 *6506:A 3.42813e-05
12 *6505:A 0.000525832
13 *6504:A 0
14 *6508:A 6.51243e-05
15 *6507:A 0.000104915
16 *6497:A 0.000162121
17 *6496:X 0.000147654
18 *479:238 0.00182061
19 *479:228 0.00235322
20 *479:218 0.00125437
21 *479:196 0.000188132
22 *479:188 0.0016932
23 *479:178 0.00435864
24 *479:151 0.000561487
25 *479:132 0.000807578
26 *479:130 0.00170529
27 *479:116 0.00197758
28 *479:110 0.00092488
29 *479:86 0.000576359
30 *479:61 0.00154285
31 *479:57 0.00186582
32 *479:51 0.000811955
33 *479:30 0.00217702
34 *479:26 0.00368514
35 *479:20 0.00358253
36 *479:16 0.00364776
37 *479:14 0.000147654
38 *6497:A *680:10 0.000237069
39 *6501:A *483:53 2.50227e-05
40 *6501:A *484:6 5.50049e-05
41 *6501:A *746:31 2.55642e-05
42 *6501:A *746:37 0.000196549
43 *6501:A *757:56 0.000138839
44 *6505:A *636:84 0
45 *6505:A *636:90 0
46 *6505:A *658:26 0.000177796
47 *6505:A *791:50 0
48 *6507:A *490:6 0.000355822
49 *6512:A *495:8 6.17437e-06
50 *6512:A *760:12 8.85189e-05
51 *479:51 *487:10 5.67058e-05
52 *479:51 *680:10 8.51925e-05
53 *479:51 *709:185 4.67488e-05
54 *479:51 *725:12 6.17437e-06
55 *479:57 *487:40 0
56 *479:57 *709:229 0.00023537
57 *479:57 *712:39 0.000434062
58 *479:57 *816:14 2.21344e-05
59 *479:61 *487:53 0
60 *479:61 *487:65 0.000136486
61 *479:61 *709:229 5.62433e-06
62 *479:61 *806:12 0
63 *479:61 *810:18 0
64 *479:61 *816:14 0.00012706
65 *479:86 *658:26 4.36401e-06
66 *479:116 *502:8 0.000141879
67 *479:132 *481:18 6.17437e-06
68 *479:132 *684:10 0.00017761
69 *479:151 *481:18 4.04303e-05
70 *479:151 *482:18 0.000316601
71 *479:151 *496:35 0.000299536
72 *479:178 *6413:CLK 0.00010575
73 *479:188 *493:8 0.000351513
74 *479:188 *509:10 2.64616e-05
75 *479:196 *492:8 0
76 *479:196 *509:10 6.25829e-05
77 *479:218 *483:42 0
78 *479:218 *757:56 0
79 *479:228 *483:8 0.000221233
80 *479:228 *483:53 5.3304e-05
81 *479:228 *757:56 2.89564e-05
82 *479:238 *483:53 8.03006e-05
83 *479:238 *757:56 5.16045e-05
84 *5928:A1 *479:151 6.17437e-06
85 *5928:S *479:151 2.93747e-05
86 *5941:S *479:151 6.84987e-06
87 *5990:A0 *479:116 5.50106e-05
88 *5990:A1 *479:116 0.00052972
89 *6025:S *479:130 2.11066e-05
90 *6135:A *6512:A 8.638e-05
91 *6168:C1 *479:61 0.000193398
92 *6168:D1 *479:61 0.00042871
93 *97:8 *6512:A 1.35518e-05
94 *97:8 *479:116 5.55884e-05
95 *141:8 *479:61 0
96 *183:8 *479:61 0
97 *186:10 *479:61 0.000133316
98 *186:12 *479:61 0.000207219
99 *189:10 *479:61 0
100 *190:233 *479:61 0
101 *192:12 *479:61 0.000525007
102 *197:10 *479:61 0
103 *199:10 *479:61 0.000157309
104 *200:8 *479:61 0
105 *201:10 *479:61 0
106 *202:14 *479:61 5.56203e-05
107 *215:72 *479:61 0
108 *226:227 *479:14 1.59094e-05
109 *227:14 *479:151 0
110 *229:35 *479:51 0.00061236
111 *230:16 *479:30 0
112 *230:157 *479:151 1.69668e-05
113 *232:21 *6506:A 1.94812e-05
114 *232:157 *6502:A 6.93449e-05
115 *232:157 *479:238 0.000111106
116 *232:278 *479:188 0.000394647
117 *237:78 *6505:A 6.75804e-05
118 *270:10 *479:14 7.57281e-06
119 *270:10 *479:178 0.000123091
120 *270:18 *6512:A 6.09632e-05
121 *270:18 *479:116 0.000158787
122 *271:18 *479:130 0
123 *283:10 *479:116 8.4047e-05
124 *286:20 *479:132 0.000149289
125 *287:20 *6505:A 2.68403e-05
126 *287:20 *479:30 0
127 *287:24 *6497:A 9.75779e-05
128 *290:8 *6505:A 8.71111e-05
129 *319:109 *6502:A 0.000140949
130 *319:109 *479:238 0.000235604
131 *339:50 *6501:A 0
132 *342:10 *479:218 0.000125342
133 *345:12 *479:188 0.000530627
134 *351:31 *479:196 8.93326e-05
135 *351:52 *479:188 0
136 *369:8 *6512:A 4.84129e-06
137 *372:24 *479:14 2.24608e-05
138 *372:36 *479:116 0
139 *382:68 *479:238 0
140 *391:20 *479:61 0
141 *391:22 *479:57 0.000209729
142 *391:30 *479:57 0.000459657
143 *402:10 *6512:A 9.67842e-05
144 *411:26 *6497:A 0.000105347
145 *411:26 *479:51 8.29273e-05
146 *420:39 *6507:A 0.000410712
147 *420:39 *6508:A 6.91235e-05
148 *424:8 *479:61 0
*RES
1 *6496:X *479:14 47.0414 
2 *479:14 *479:16 8 
3 *479:16 *479:20 12.3717 
4 *479:20 *479:26 4.9504 
5 *479:26 *479:30 12.2635 
6 *479:30 *6497:A 43.3546 
7 *479:30 *479:51 24.2489 
8 *479:51 *479:57 30.3804 
9 *479:57 *479:61 45.2532 
10 *479:61 *6507:A 27.93 
11 *479:61 *6508:A 24.0979 
12 *479:51 *6504:A 23 
13 *479:26 *479:86 8.32107 
14 *479:86 *6505:A 48.0671 
15 *479:86 *6506:A 38.6214 
16 *479:20 *479:110 8 
17 *479:110 *479:116 26.4654 
18 *479:116 *479:130 49.6176 
19 *479:130 *479:132 4.90929 
20 *479:132 *6498:A 23 
21 *479:132 *479:151 42.0764 
22 *479:151 *6499:A 23 
23 *479:116 *6511:A 23 
24 *479:110 *6512:A 46.0889 
25 *479:16 *479:178 13.8949 
26 *479:178 *479:188 34.099 
27 *479:188 *479:196 34.4121 
28 *479:196 *6509:A 23 
29 *479:188 *6510:A 23 
30 *479:178 *479:218 27.9358 
31 *479:218 *479:228 21.8254 
32 *479:228 *479:238 25.6595 
33 *479:238 *6502:A 39.9057 
34 *479:238 *6503:A 38 
35 *479:228 *6501:A 42.8161 
36 *479:218 *6500:A 23 
*END

*D_NET *480 0.00857917
*CONN
*I *6441:CLK I *D sky130_fd_sc_hd__dfxtp_1
*I *6324:CLK I *D sky130_fd_sc_hd__dfxtp_1
*I *6425:CLK I *D sky130_fd_sc_hd__dfxtp_1
*I *6401:CLK I *D sky130_fd_sc_hd__dfxtp_1
*I *6417:CLK I *D sky130_fd_sc_hd__dfxtp_1
*I *6433:CLK I *D sky130_fd_sc_hd__dfxtp_1
*I *6329:CLK I *D sky130_fd_sc_hd__dfxtp_1
*I *6497:X O *D sky130_fd_sc_hd__clkbuf_8
*CAP
1 *6441:CLK 1.90448e-05
2 *6324:CLK 0
3 *6425:CLK 0.000174548
4 *6401:CLK 2.62423e-05
5 *6417:CLK 0
6 *6433:CLK 2.32824e-05
7 *6329:CLK 0.000329541
8 *6497:X 0
9 *480:89 0.000346267
10 *480:79 0.000707538
11 *480:50 0.000147587
12 *480:37 0.00064379
13 *480:16 0.0013881
14 *480:14 0.000854414
15 *480:8 0.000682336
16 *480:6 0.000607477
17 *6329:CLK *591:14 0
18 *6329:CLK *599:16 6.38947e-05
19 *6441:CLK *746:117 1.94812e-05
20 *480:8 *680:10 0
21 *480:8 *791:10 0
22 *480:16 *607:12 9.70962e-05
23 *480:16 *636:156 0
24 *480:37 *5993:A0 4.00259e-06
25 *480:37 *5993:A2 0.000140259
26 *480:37 *599:6 0.000139352
27 *480:79 *594:10 0
28 *480:79 *680:10 0
29 *480:89 *594:10 0.000125904
30 *480:89 *680:10 0
31 *480:89 *746:117 0.000101003
32 *6184:A *480:37 0.000277383
33 *6202:A *6425:CLK 7.24365e-05
34 *6209:S *480:89 4.00259e-06
35 *6329:D *6329:CLK 0.000145957
36 *6433:D *6433:CLK 5.50049e-05
37 *6433:D *480:37 8.38361e-05
38 *29:8 *480:89 0.000350687
39 *106:8 *480:8 0.000106715
40 *106:8 *480:14 7.73301e-05
41 *122:8 *480:16 0
42 *216:27 *480:16 0
43 *219:10 *480:79 6.4393e-05
44 *219:10 *480:89 4.21594e-06
45 *224:10 *6329:CLK 0
46 *224:10 *480:16 0
47 *225:12 *480:8 6.07611e-06
48 *225:12 *480:79 0.00030514
49 *225:12 *480:89 0
50 *225:231 *6401:CLK 1.40958e-05
51 *226:12 *480:14 0
52 *237:66 *6401:CLK 5.3304e-05
53 *239:154 *6401:CLK 6.17437e-06
54 *239:154 *480:14 2.91902e-05
55 *239:154 *480:16 6.25829e-05
56 *391:45 *480:16 0
57 *411:20 *6441:CLK 2.32101e-05
58 *411:20 *480:89 0.000123934
59 *411:26 *480:50 0
60 *411:42 *6329:CLK 6.62667e-05
61 *419:10 *480:50 6.07611e-06
*RES
1 *6497:X *480:6 38 
2 *480:6 *480:8 5.075 
3 *480:8 *480:14 4.43286 
4 *480:14 *480:16 11.4136 
5 *480:16 *6329:CLK 44.3179 
6 *480:16 *480:37 25.8129 
7 *480:37 *6433:CLK 23.6214 
8 *480:37 *480:50 32.61 
9 *480:50 *6417:CLK 23 
10 *480:14 *6401:CLK 38.6214 
11 *480:8 *6425:CLK 40.9 
12 *480:6 *480:79 23.2443 
13 *480:79 *480:89 38.4514 
14 *480:89 *6324:CLK 23 
15 *480:79 *6441:CLK 23.6214 
*END

*D_NET *481 0.00950403
*CONN
*I *6387:CLK I *D sky130_fd_sc_hd__dfxtp_1
*I *6347:CLK I *D sky130_fd_sc_hd__dfxtp_1
*I *6439:CLK I *D sky130_fd_sc_hd__dfxtp_1
*I *6440:CLK I *D sky130_fd_sc_hd__dfxtp_1
*I *6323:CLK I *D sky130_fd_sc_hd__dfxtp_1
*I *6322:CLK I *D sky130_fd_sc_hd__dfxtp_1
*I *6386:CLK I *D sky130_fd_sc_hd__dfxtp_1
*I *6498:X O *D sky130_fd_sc_hd__clkbuf_8
*CAP
1 *6387:CLK 0
2 *6347:CLK 0
3 *6439:CLK 3.99187e-05
4 *6440:CLK 0
5 *6323:CLK 0
6 *6322:CLK 0
7 *6386:CLK 0
8 *6498:X 5.38833e-05
9 *481:68 0.000380313
10 *481:56 0.000823101
11 *481:52 0.000935838
12 *481:41 0.000740812
13 *481:35 0.000676984
14 *481:29 0.000837386
15 *481:18 0.000164444
16 *481:6 0.000666412
17 *6439:CLK *5906:A0 5.47927e-05
18 *6439:CLK *5906:A1 7.88926e-05
19 *481:6 *496:35 0.0002246
20 *481:18 *496:35 0.000133123
21 *481:35 *553:6 1.59094e-05
22 *481:35 *553:14 0.000249781
23 *481:35 *561:25 0.000114522
24 *481:41 *553:14 0
25 *481:41 *683:8 0
26 *481:52 *584:10 0
27 *481:52 *658:22 6.70017e-05
28 *481:56 *593:31 0
29 *481:68 *585:10 0.00018282
30 *481:68 *593:31 0.000246733
31 *481:68 *720:6 9.84851e-05
32 *481:68 *735:92 2.4754e-05
33 *5939:S1 *481:56 0.000209913
34 *5941:S *481:18 0
35 *5941:S *481:29 0
36 *6322:D *481:52 0.000126403
37 *6323:D *481:68 0.000146207
38 *6347:D *481:35 0.000124708
39 *6387:D *481:35 7.73389e-05
40 *91:12 *481:18 4.41403e-05
41 *145:8 *481:56 0.000382574
42 *216:77 *481:68 0.00010018
43 *216:96 *481:56 0
44 *225:136 *481:41 0.000205687
45 *226:133 *481:52 0.000111138
46 *226:135 *481:52 0.00010403
47 *226:135 *481:56 0.000103101
48 *227:14 *481:18 0.000191148
49 *227:14 *481:29 0
50 *227:14 *481:52 0
51 *241:14 *481:29 0.000207879
52 *255:14 *481:18 2.02517e-05
53 *255:26 *481:18 5.3304e-05
54 *286:20 *481:6 0.000212162
55 *286:20 *481:18 0.000141954
56 *362:67 *481:29 6.43253e-05
57 *429:10 *481:52 0
58 *429:10 *481:56 0
59 *430:10 *481:56 2.04774e-05
60 *479:132 *481:18 6.17437e-06
61 *479:151 *481:18 4.04303e-05
*RES
1 *6498:X *481:6 25.5271 
2 *481:6 *481:18 35.3029 
3 *481:18 *6386:CLK 23 
4 *481:6 *481:29 38.2443 
5 *481:29 *481:35 9.83929 
6 *481:35 *481:41 35.7793 
7 *481:41 *6322:CLK 23 
8 *481:41 *481:52 24.7357 
9 *481:52 *481:56 26.4136 
10 *481:56 *481:68 39.715 
11 *481:68 *6323:CLK 23 
12 *481:56 *6440:CLK 23 
13 *481:52 *6439:CLK 39.5743 
14 *481:35 *6347:CLK 23 
15 *481:29 *6387:CLK 23 
*END

*D_NET *482 0.0172215
*CONN
*I *6408:CLK I *D sky130_fd_sc_hd__dfxtp_1
*I *6489:CLK I *D sky130_fd_sc_hd__dfxtp_1
*I *6371:CLK I *D sky130_fd_sc_hd__dfxtp_1
*I *6403:CLK I *D sky130_fd_sc_hd__dfxtp_1
*I *6379:CLK I *D sky130_fd_sc_hd__dfxtp_1
*I *6494:CLK I *D sky130_fd_sc_hd__dfxtp_1
*I *6481:CLK I *D sky130_fd_sc_hd__dfxtp_1
*I *6376:CLK I *D sky130_fd_sc_hd__dfxtp_1
*I *6384:CLK I *D sky130_fd_sc_hd__dfxtp_1
*I *6346:CLK I *D sky130_fd_sc_hd__dfxtp_1
*I *6499:X O *D sky130_fd_sc_hd__clkbuf_8
*CAP
1 *6408:CLK 0.000104913
2 *6489:CLK 0.000144016
3 *6371:CLK 0.000396986
4 *6403:CLK 0.000488929
5 *6379:CLK 0
6 *6494:CLK 0
7 *6481:CLK 0
8 *6376:CLK 0.000185096
9 *6384:CLK 0.000135012
10 *6346:CLK 0.000417893
11 *6499:X 0
12 *482:106 0.000885915
13 *482:104 0.000616837
14 *482:93 0.000941306
15 *482:76 0.000884245
16 *482:59 0.000632577
17 *482:42 0.00117227
18 *482:29 0.000738337
19 *482:18 0.00125994
20 *482:8 0.0011092
21 *482:4 0.000205038
22 *6346:CLK *552:8 0.000286046
23 *6371:CLK *5943:A3 0
24 *6371:CLK *513:10 0
25 *6371:CLK *609:28 4.82745e-05
26 *6403:CLK *609:28 0
27 *6403:CLK *635:8 4.334e-05
28 *6489:CLK *505:23 0.000107238
29 *6489:CLK *617:12 0.000354127
30 *482:42 *724:120 0
31 *482:59 *518:12 0.000267167
32 *482:59 *649:10 0.000138718
33 *482:59 *735:192 0.000428157
34 *482:59 *775:6 5.50106e-05
35 *482:76 *735:117 0.000354769
36 *482:93 *614:35 1.02104e-05
37 *482:93 *622:12 9.45591e-05
38 *482:93 *622:30 2.93845e-05
39 *482:93 *625:192 7.85305e-05
40 *482:104 *505:6 5.70419e-05
41 *482:104 *505:23 9.91701e-05
42 *482:104 *617:12 0.00011775
43 *482:104 *622:12 3.5638e-05
44 *482:104 *622:30 0
45 *5989:A1 *482:76 9.24795e-06
46 *5989:A1 *482:93 0.000398503
47 *6007:A *482:59 4.06849e-05
48 *6318:S *482:104 0
49 *6346:D *6346:CLK 0.000128184
50 *6376:D *6376:CLK 1.64354e-05
51 *6379:D *482:104 1.74843e-05
52 *6384:D *6384:CLK 5.92579e-05
53 *6408:D *6408:CLK 1.14154e-05
54 *6408:D *482:8 0
55 *6481:D *482:59 0.000227945
56 *6494:D *482:93 0.000275729
57 *76:8 *6371:CLK 0
58 *81:8 *482:42 0
59 *89:8 *482:29 3.56537e-05
60 *108:8 *6403:CLK 0.000171906
61 *113:8 *482:76 0
62 *174:14 *6489:CLK 5.96725e-05
63 *179:8 *482:93 0.000110922
64 *230:140 *482:76 5.67058e-05
65 *230:155 *482:76 0.000126774
66 *230:155 *482:93 1.4345e-05
67 *230:157 *482:18 4.75381e-05
68 *230:157 *482:29 7.30978e-05
69 *230:183 *6384:CLK 0.000125404
70 *230:183 *482:29 6.88819e-05
71 *230:183 *482:42 2.82275e-05
72 *231:8 *482:18 0
73 *231:8 *482:29 0
74 *231:12 *6346:CLK 8.65442e-05
75 *233:212 *482:93 0.000184259
76 *243:14 *482:93 0
77 *284:16 *482:59 1.61379e-05
78 *285:10 *482:93 1.02029e-05
79 *346:10 *6376:CLK 5.12254e-05
80 *346:10 *482:42 6.6869e-05
81 *346:10 *482:59 0.000216785
82 *382:96 *6403:CLK 0.00010018
83 *470:52 *482:93 0.000123944
84 *470:52 *482:104 0.000158932
85 *470:56 *6371:CLK 0.000589807
86 *470:56 *6403:CLK 0.000272321
87 *479:151 *482:18 0.000316601
*RES
1 *6499:X *482:4 23 
2 *482:4 *482:8 1.595 
3 *482:8 *482:18 24.0107 
4 *482:18 *6346:CLK 47.6736 
5 *482:18 *482:29 5.77929 
6 *482:29 *6384:CLK 41.48 
7 *482:29 *482:42 20.7793 
8 *482:42 *6376:CLK 26.48 
9 *482:42 *482:59 46.5507 
10 *482:59 *6481:CLK 23 
11 *482:8 *482:76 39.1971 
12 *482:76 *6494:CLK 23 
13 *482:76 *482:93 42.8843 
14 *482:93 *6379:CLK 23 
15 *482:93 *482:104 10.7921 
16 *482:104 *482:106 15 
17 *482:106 *6403:CLK 48.8957 
18 *482:106 *6371:CLK 46.2443 
19 *482:104 *6489:CLK 27.9507 
20 *482:4 *6408:CLK 25.0714 
*END

*D_NET *483 0.0120197
*CONN
*I *6338:CLK I *D sky130_fd_sc_hd__dfxtp_1
*I *6349:CLK I *D sky130_fd_sc_hd__dfxtp_1
*I *6397:CLK I *D sky130_fd_sc_hd__dfxtp_1
*I *6391:CLK I *D sky130_fd_sc_hd__dfxtp_1
*I *6413:CLK I *D sky130_fd_sc_hd__dfxtp_1
*I *6380:CLK I *D sky130_fd_sc_hd__dfxtp_1
*I *6421:CLK I *D sky130_fd_sc_hd__dfxtp_1
*I *6374:CLK I *D sky130_fd_sc_hd__dfxtp_1
*I *6500:X O *D sky130_fd_sc_hd__clkbuf_8
*CAP
1 *6338:CLK 0.000397167
2 *6349:CLK 0
3 *6397:CLK 0
4 *6391:CLK 0.000275819
5 *6413:CLK 0.00037989
6 *6380:CLK 0
7 *6421:CLK 0
8 *6374:CLK 0.000472255
9 *6500:X 0
10 *483:69 0.000790985
11 *483:65 0.000558551
12 *483:63 0.00103664
13 *483:53 0.00138456
14 *483:42 0.000172459
15 *483:31 0.000250482
16 *483:12 0.000935089
17 *483:8 0.000591562
18 *483:4 0.000580782
19 *6338:CLK *728:6 0.000387324
20 *6374:CLK *6600:A 3.56063e-05
21 *6374:CLK *516:16 5.10686e-05
22 *6391:CLK *501:10 0.00044298
23 *483:8 *746:43 0
24 *483:31 *767:8 0
25 *483:53 *746:37 2.93747e-05
26 *483:53 *746:45 0
27 *483:53 *757:56 0
28 *483:63 *5958:A2 0.000136486
29 *483:63 *499:28 7.17297e-05
30 *483:63 *563:10 0.000265509
31 *483:63 *721:8 0
32 *483:63 *746:45 0
33 *483:65 *563:10 2.93845e-05
34 *6349:D *483:63 1.64354e-05
35 *6391:D *6391:CLK 8.90341e-05
36 *6397:D *483:65 0.000102732
37 *6413:D *6413:CLK 2.93845e-05
38 *6501:A *483:53 2.50227e-05
39 *79:8 *6374:CLK 0.000129006
40 *102:8 *483:69 0
41 *216:141 *6413:CLK 1.79175e-05
42 *225:198 *483:63 2.6302e-05
43 *270:10 *6413:CLK 0.000653296
44 *270:10 *483:31 0.000379413
45 *270:10 *483:69 0.000181934
46 *309:82 *483:63 0
47 *339:50 *483:53 5.3656e-05
48 *342:10 *483:42 0
49 *382:49 *6374:CLK 1.46462e-05
50 *382:49 *483:8 0.00032834
51 *382:49 *483:12 0.000178371
52 *382:49 *483:53 5.79161e-05
53 *479:178 *6413:CLK 0.00010575
54 *479:218 *483:42 0
55 *479:228 *483:8 0.000221233
56 *479:228 *483:53 5.3304e-05
57 *479:238 *483:53 8.03006e-05
*RES
1 *6500:X *483:4 23 
2 *483:4 *483:8 7.31214 
3 *483:8 *483:12 5.40643 
4 *483:12 *6374:CLK 32.3629 
5 *483:12 *483:31 35.6964 
6 *483:31 *6421:CLK 23 
7 *483:8 *483:42 32.9621 
8 *483:42 *6380:CLK 23 
9 *483:4 *483:53 22.6021 
10 *483:53 *483:63 27.76 
11 *483:63 *483:65 7.76786 
12 *483:65 *483:69 17.61 
13 *483:69 *6413:CLK 47.6943 
14 *483:69 *6391:CLK 44.8564 
15 *483:65 *6397:CLK 23 
16 *483:63 *6349:CLK 23 
17 *483:53 *6338:CLK 46.7207 
*END

*D_NET *484 0.0179374
*CONN
*I *6356:CLK I *D sky130_fd_sc_hd__dfxtp_1
*I *6482:CLK I *D sky130_fd_sc_hd__dfxtp_1
*I *6364:CLK I *D sky130_fd_sc_hd__dfxtp_1
*I *6490:CLK I *D sky130_fd_sc_hd__dfxtp_1
*I *6340:CLK I *D sky130_fd_sc_hd__dfxtp_1
*I *6366:CLK I *D sky130_fd_sc_hd__dfxtp_1
*I *6358:CLK I *D sky130_fd_sc_hd__dfxtp_1
*I *6492:CLK I *D sky130_fd_sc_hd__dfxtp_1
*I *6372:CLK I *D sky130_fd_sc_hd__dfxtp_1
*I *6406:CLK I *D sky130_fd_sc_hd__dfxtp_1
*I *6501:X O *D sky130_fd_sc_hd__clkbuf_8
*CAP
1 *6356:CLK 0.000481755
2 *6482:CLK 0
3 *6364:CLK 0.000261441
4 *6490:CLK 0.000326291
5 *6340:CLK 0
6 *6366:CLK 0
7 *6358:CLK 0
8 *6492:CLK 0
9 *6372:CLK 0
10 *6406:CLK 0.000676406
11 *6501:X 0.000494829
12 *484:118 0.000902131
13 *484:96 0.00106577
14 *484:69 0.000737105
15 *484:56 0.00056815
16 *484:48 0.00137055
17 *484:44 0.000494943
18 *484:36 0.000907688
19 *484:34 0.00150441
20 *484:19 0.00118216
21 *484:6 0.00126936
22 *6356:CLK *746:227 0.000154612
23 *6364:CLK *530:16 0.000216721
24 *6364:CLK *538:12 0
25 *6364:CLK *746:14 0
26 *6364:CLK *773:10 6.34734e-05
27 *6406:CLK *612:10 0.000143655
28 *6490:CLK *530:16 5.94125e-05
29 *6490:CLK *746:20 0
30 *6490:CLK *773:10 0.000112906
31 *484:6 *6156:A1 0.000153155
32 *484:6 *506:10 5.50049e-05
33 *484:19 *506:10 0
34 *484:19 *757:56 0
35 *484:34 *6576:A 0
36 *484:34 *506:10 0
37 *484:34 *746:14 0
38 *484:34 *746:16 0
39 *484:34 *746:20 0
40 *484:44 *6012:A1 4.00259e-06
41 *484:44 *524:8 0.000217798
42 *484:56 *508:12 3.9721e-05
43 *484:56 *620:14 2.26371e-05
44 *484:56 *768:20 0.000218952
45 *484:56 *768:26 0.000167443
46 *484:56 *777:8 0
47 *484:69 *548:8 0.000128607
48 *484:69 *548:29 2.57686e-05
49 *484:69 *768:16 0.000133112
50 *484:69 *768:18 0.000589142
51 *484:69 *768:20 5.24393e-05
52 *484:96 *522:20 9.67842e-05
53 *484:96 *530:16 4.08561e-05
54 *484:96 *538:12 5.67058e-05
55 *484:96 *538:27 0.000153841
56 *6064:A *6364:CLK 5.3304e-05
57 *6161:A *6406:CLK 0.000181336
58 *6340:D *484:96 2.13216e-05
59 *6364:D *6364:CLK 6.97953e-05
60 *6366:D *484:44 1.64354e-05
61 *6380:D *6406:CLK 1.64354e-05
62 *6492:D *484:56 1.21842e-05
63 *6501:A *484:6 5.50049e-05
64 *45:10 *484:34 1.14452e-05
65 *45:10 *484:118 4.31366e-05
66 *85:8 *484:34 8.15327e-05
67 *111:12 *6406:CLK 0.000126474
68 *167:8 *484:118 3.81391e-05
69 *175:8 *6490:CLK 1.44546e-05
70 *177:8 *484:56 0
71 *230:89 *484:34 0
72 *232:118 *6490:CLK 0
73 *232:258 *484:56 0.000580598
74 *232:258 *484:69 0.000222113
75 *233:139 *6364:CLK 0.000186349
76 *268:12 *484:34 0
77 *268:12 *484:118 0
78 *298:50 *484:44 0.000266732
79 *298:50 *484:48 3.16784e-05
80 *298:50 *484:96 0.000190439
81 *301:10 *484:34 7.80251e-05
82 *301:10 *484:118 0
83 *324:10 *6356:CLK 0
84 *342:10 *484:19 0.000166532
85 *460:60 *6356:CLK 0.000321897
86 *460:60 *484:69 2.35118e-06
*RES
1 *6501:X *484:6 32.1971 
2 *484:6 *6406:CLK 35.5529 
3 *484:6 *484:19 17.2579 
4 *484:19 *6372:CLK 38 
5 *484:19 *484:34 17.4 
6 *484:34 *484:36 15 
7 *484:36 *484:44 10.3364 
8 *484:44 *484:48 16.0979 
9 *484:48 *484:56 27.2214 
10 *484:56 *6492:CLK 23 
11 *484:48 *484:69 30.1629 
12 *484:69 *6358:CLK 23 
13 *484:44 *6366:CLK 23 
14 *484:36 *6340:CLK 23 
15 *484:36 *484:96 25.9579 
16 *484:96 *6490:CLK 44.1314 
17 *484:96 *6364:CLK 44.9186 
18 *484:34 *484:118 8.24429 
19 *484:118 *6482:CLK 38 
20 *484:118 *6356:CLK 49.2064 
*END

*D_NET *485 0.0175129
*CONN
*I *6368:CLK I *D sky130_fd_sc_hd__dfxtp_1
*I *6402:CLK I *D sky130_fd_sc_hd__dfxtp_1
*I *6488:CLK I *D sky130_fd_sc_hd__dfxtp_1
*I *6378:CLK I *D sky130_fd_sc_hd__dfxtp_1
*I *6363:CLK I *D sky130_fd_sc_hd__dfxtp_1
*I *6355:CLK I *D sky130_fd_sc_hd__dfxtp_1
*I *6360:CLK I *D sky130_fd_sc_hd__dfxtp_1
*I *6486:CLK I *D sky130_fd_sc_hd__dfxtp_1
*I *6389:CLK I *D sky130_fd_sc_hd__dfxtp_1
*I *6344:CLK I *D sky130_fd_sc_hd__dfxtp_1
*I *6442:CLK I *D sky130_fd_sc_hd__dfxtp_1
*I *6339:CLK I *D sky130_fd_sc_hd__dfxtp_1
*I *6502:X O *D sky130_fd_sc_hd__clkbuf_8
*CAP
1 *6368:CLK 2.87323e-05
2 *6402:CLK 0.000714915
3 *6488:CLK 0.000721784
4 *6378:CLK 0
5 *6363:CLK 0.000178234
6 *6355:CLK 0.000198901
7 *6360:CLK 0
8 *6486:CLK 0
9 *6389:CLK 0.00046715
10 *6344:CLK 5.145e-05
11 *6442:CLK 0.000201912
12 *6339:CLK 0.000184848
13 *6502:X 0.000312671
14 *485:118 0.000949746
15 *485:90 0.000653199
16 *485:88 0.000504025
17 *485:86 0.00103229
18 *485:30 0.000739023
19 *485:28 0.000487685
20 *485:26 0.000755798
21 *485:20 0.000590308
22 *485:16 0.000580185
23 *485:14 0.00065408
24 *485:10 0.00048355
25 *6339:CLK *6241:A0 2.93845e-05
26 *6339:CLK *650:8 0.000136486
27 *6355:CLK *537:29 5.67058e-05
28 *6363:CLK *521:22 0.000317615
29 *6368:CLK *526:22 5.41385e-05
30 *6389:CLK *499:10 0.000112087
31 *6389:CLK *555:27 5.37348e-06
32 *6402:CLK *504:12 0.00010018
33 *6402:CLK *666:10 0.000293416
34 *6402:CLK *724:188 1.22822e-05
35 *6402:CLK *724:206 1.89493e-05
36 *6442:CLK *587:27 5.37348e-06
37 *6488:CLK *6306:A0 0.000271476
38 *6488:CLK *504:31 0.0004107
39 *485:10 *654:8 8.62876e-05
40 *485:14 *6053:A1 0.000107641
41 *485:14 *534:12 1.83667e-05
42 *485:20 *550:10 2.93845e-05
43 *485:30 *579:10 1.4471e-05
44 *485:30 *650:8 0.000169683
45 *485:86 *534:12 0.000180224
46 *485:118 *526:6 9.91895e-05
47 *6044:A *6363:CLK 5.50106e-05
48 *6054:A *485:16 0.000103593
49 *6054:A *485:86 8.45194e-05
50 *6061:S *485:90 9.98891e-05
51 *6355:D *6355:CLK 5.50106e-05
52 *6363:D *6363:CLK 7.73389e-05
53 *6378:D *6488:CLK 0.000143599
54 *6389:D *6389:CLK 0.000129006
55 *6442:D *6442:CLK 0.000272078
56 *6486:D *485:20 0.000274028
57 *16:5 *6389:CLK 0.000423559
58 *16:5 *485:28 0.000187335
59 *16:5 *485:30 0.000424786
60 *49:8 *485:28 5.80963e-05
61 *60:10 *6355:CLK 2.60152e-05
62 *65:10 *485:16 0.000249842
63 *65:10 *485:86 0.000159897
64 *230:122 *485:10 0.000269781
65 *232:157 *485:10 0
66 *232:167 *6355:CLK 0.000107651
67 *232:167 *485:90 2.70366e-05
68 *233:181 *485:10 0
69 *233:181 *485:14 0
70 *237:163 *485:90 0
71 *254:10 *6339:CLK 0
72 *254:10 *485:30 0
73 *257:12 *485:30 2.12347e-06
74 *259:6 *485:10 0.000102313
75 *298:77 *6389:CLK 0
76 *298:77 *485:30 0
77 *305:10 *6389:CLK 0
78 *305:10 *485:28 0
79 *305:10 *485:30 0
80 *319:109 *485:10 0.000379413
81 *319:124 *6368:CLK 5.41385e-05
82 *319:124 *485:90 0.000176647
83 *319:124 *485:118 8.05704e-05
84 *321:10 *6355:CLK 0.000189575
85 *321:10 *485:90 1.14452e-05
86 *329:87 *485:90 8.92841e-05
87 *329:87 *485:118 0.000123428
88 *352:10 *6402:CLK 4.27353e-05
89 *471:12 *6488:CLK 1.32939e-05
*RES
1 *6502:X *485:10 46.7829 
2 *485:10 *485:14 17.9621 
3 *485:14 *485:16 4.43286 
4 *485:16 *485:20 8.265 
5 *485:20 *485:26 18.5007 
6 *485:26 *485:28 2.61 
7 *485:28 *485:30 8.94857 
8 *485:30 *6339:CLK 41.7079 
9 *485:30 *6442:CLK 42.4329 
10 *485:28 *6344:CLK 38.6214 
11 *485:26 *6389:CLK 48.2121 
12 *485:20 *6486:CLK 23 
13 *485:16 *6360:CLK 23 
14 *485:14 *485:86 6.98071 
15 *485:86 *485:88 15 
16 *485:88 *485:90 7.89214 
17 *485:90 *6355:CLK 42.5364 
18 *485:90 *6363:CLK 42.93 
19 *485:88 *485:118 20.8414 
20 *485:118 *6378:CLK 23 
21 *485:118 *6488:CLK 36.8786 
22 *485:86 *6402:CLK 35.5529 
23 *485:10 *6368:CLK 39.0979 
*END

*D_NET *486 0.0221131
*CONN
*I *6370:CLK I *D sky130_fd_sc_hd__dfxtp_1
*I *6381:CLK I *D sky130_fd_sc_hd__dfxtp_1
*I *6354:CLK I *D sky130_fd_sc_hd__dfxtp_1
*I *6357:CLK I *D sky130_fd_sc_hd__dfxtp_1
*I *6491:CLK I *D sky130_fd_sc_hd__dfxtp_1
*I *6405:CLK I *D sky130_fd_sc_hd__dfxtp_1
*I *6373:CLK I *D sky130_fd_sc_hd__dfxtp_1
*I *6365:CLK I *D sky130_fd_sc_hd__dfxtp_1
*I *6483:CLK I *D sky130_fd_sc_hd__dfxtp_1
*I *6341:CLK I *D sky130_fd_sc_hd__dfxtp_1
*I *6404:CLK I *D sky130_fd_sc_hd__dfxtp_1
*I *6480:CLK I *D sky130_fd_sc_hd__dfxtp_1
*I *6362:CLK I *D sky130_fd_sc_hd__dfxtp_1
*I *6503:X O *D sky130_fd_sc_hd__clkbuf_8
*CAP
1 *6370:CLK 0.000625099
2 *6381:CLK 0.000113275
3 *6354:CLK 2.34823e-05
4 *6357:CLK 0
5 *6491:CLK 0
6 *6405:CLK 0
7 *6373:CLK 0.000461371
8 *6365:CLK 2.34823e-05
9 *6483:CLK 0
10 *6341:CLK 5.57347e-05
11 *6404:CLK 0.000432431
12 *6480:CLK 0.000604045
13 *6362:CLK 0
14 *6503:X 0
15 *486:141 0.000320506
16 *486:131 0.000530584
17 *486:106 0.00125468
18 *486:93 0.00145491
19 *486:83 0.00141069
20 *486:72 0.00105248
21 *486:57 0.000935127
22 *486:42 0.00113644
23 *486:38 0.000671121
24 *486:34 0.000805007
25 *486:14 0.000650698
26 *486:10 0.000703819
27 *486:4 0.000923568
28 *6341:CLK *781:6 5.50106e-05
29 *6404:CLK *6530:A 1.14154e-05
30 *6404:CLK *514:8 6.17437e-06
31 *6404:CLK *610:12 0.000235704
32 *6480:CLK *6288:A0 0.000223698
33 *6480:CLK *724:134 4.04206e-05
34 *6480:CLK *724:143 0.000351508
35 *486:10 *536:23 0.000252428
36 *486:34 *528:10 0.000141888
37 *486:34 *536:23 0.000194318
38 *486:72 *522:6 6.17437e-06
39 *486:72 *522:31 0
40 *486:93 *5960:A3 0.000143544
41 *486:93 *523:26 8.62876e-05
42 *486:93 *531:16 1.83449e-05
43 *486:93 *539:27 7.02666e-06
44 *486:106 *507:12 6.46393e-05
45 *486:106 *671:8 9.46108e-05
46 *486:141 *6083:A0 0.000269775
47 *486:141 *6531:A 9.04083e-05
48 *486:141 *611:12 4.27353e-05
49 *486:141 *757:213 0.000114083
50 *5935:A1 *6370:CLK 4.79544e-05
51 *5962:A1 *6373:CLK 0
52 *5962:A1 *486:131 0.000183733
53 *5962:A1 *486:141 0
54 *6005:A *6480:CLK 0.000181098
55 *6048:A *486:83 5.3304e-05
56 *6157:A *6404:CLK 0.000221174
57 *6288:S *6480:CLK 1.76557e-05
58 *6354:D *486:38 0.000143604
59 *6357:D *486:83 7.06771e-05
60 *6365:D *486:106 8.90341e-05
61 *6404:D *6404:CLK 0.000399241
62 *6405:D *486:141 0.000194241
63 *6480:D *6480:CLK 0.000401843
64 *6483:D *486:83 1.64354e-05
65 *6491:D *486:131 9.67842e-05
66 *16:5 *486:57 0
67 *16:5 *486:72 0
68 *67:10 *6370:CLK 2.7237e-05
69 *67:10 *486:10 2.72257e-05
70 *168:8 *486:72 0
71 *176:8 *486:106 0
72 *176:8 *486:141 1.58805e-05
73 *230:109 *6404:CLK 0
74 *230:109 *486:57 0
75 *230:224 *6373:CLK 0.000305429
76 *232:141 *486:93 9.58714e-05
77 *232:143 *486:34 2.3529e-05
78 *232:151 *486:34 0.000168914
79 *233:175 *486:34 0
80 *233:181 *486:10 0
81 *233:181 *486:34 0
82 *233:247 *6373:CLK 6.98383e-05
83 *237:169 *6370:CLK 0.000185434
84 *238:12 *6370:CLK 8.7843e-05
85 *260:8 *486:106 0
86 *298:67 *486:57 7.55996e-05
87 *298:67 *486:72 1.62015e-05
88 *298:73 *6404:CLK 0
89 *298:73 *486:57 7.2873e-05
90 *319:105 *486:34 0.000423417
91 *319:105 *486:93 0.000163352
92 *319:109 *486:10 0.000277705
93 *319:109 *486:34 0.000387591
94 *323:10 *486:93 3.47781e-05
95 *333:10 *486:106 0
96 *343:8 *6373:CLK 7.03421e-05
97 *351:99 *6381:CLK 0.00023234
98 *351:99 *486:38 0.000109813
99 *351:99 *486:42 0.000168256
100 *351:111 *6373:CLK 3.68344e-05
101 *461:10 *6480:CLK 0.000141052
102 *470:145 *6341:CLK 0.000140259
*RES
1 *6503:X *486:4 23 
2 *486:4 *486:10 22.1464 
3 *486:10 *486:14 15.6214 
4 *486:14 *6362:CLK 23 
5 *486:14 *6480:CLK 37.4793 
6 *486:10 *486:34 26.0614 
7 *486:34 *486:38 6.71143 
8 *486:38 *486:42 21.3386 
9 *486:42 *6404:CLK 49.1029 
10 *486:42 *486:57 7.89214 
11 *486:57 *6341:CLK 39.5743 
12 *486:57 *486:72 23.3064 
13 *486:72 *6483:CLK 23 
14 *486:72 *486:83 9.83929 
15 *486:83 *486:93 42.905 
16 *486:93 *6365:CLK 23.4971 
17 *486:93 *486:106 26.4757 
18 *486:106 *6373:CLK 48.8957 
19 *486:106 *486:131 19.4329 
20 *486:131 *486:141 38.0164 
21 *486:141 *6405:CLK 23 
22 *486:131 *6491:CLK 23 
23 *486:83 *6357:CLK 23 
24 *486:38 *6354:CLK 23.4971 
25 *486:34 *6381:CLK 26.0036 
26 *486:4 *6370:CLK 34.1236 
*END

*D_NET *487 0.0159121
*CONN
*I *6436:CLK I *D sky130_fd_sc_hd__dfrtp_1
*I *6464:CLK I *D sky130_fd_sc_hd__dfrtp_1
*I *6437:CLK I *D sky130_fd_sc_hd__dfrtp_1
*I *6465:CLK I *D sky130_fd_sc_hd__dfrtp_1
*I *6460:CLK I *D sky130_fd_sc_hd__dfrtp_1
*I *6459:CLK I *D sky130_fd_sc_hd__dfrtp_1
*I *6385:CLK I *D sky130_fd_sc_hd__dfxtp_1
*I *6428:CLK I *D sky130_fd_sc_hd__dfxtp_1
*I *6412:CLK I *D sky130_fd_sc_hd__dfxtp_1
*I *6504:X O *D sky130_fd_sc_hd__clkbuf_8
*CAP
1 *6436:CLK 0
2 *6464:CLK 2.34823e-05
3 *6437:CLK 0.000507097
4 *6465:CLK 0.000103522
5 *6460:CLK 0.000761827
6 *6459:CLK 0.00029761
7 *6385:CLK 0
8 *6428:CLK 0.000145236
9 *6412:CLK 0.000664211
10 *6504:X 0.000208743
11 *487:73 0.00115873
12 *487:71 0.00032413
13 *487:69 0.000975377
14 *487:65 0.00139759
15 *487:53 0.00121344
16 *487:44 0.000812115
17 *487:40 0.00151903
18 *487:25 0.000840235
19 *487:10 0.00104733
20 *6412:CLK *746:117 0
21 *6428:CLK *6173:A0 5.37348e-06
22 *6428:CLK *746:127 0.000137188
23 *6459:CLK *5893:B 0.000134687
24 *6459:CLK *6459:D 7.44257e-05
25 *6460:CLK *6460:D 4.62951e-05
26 *6460:CLK *6460:RESET_B 0.000135815
27 *487:10 *709:185 0
28 *487:10 *725:12 0
29 *487:25 *602:8 0
30 *487:25 *680:10 0
31 *487:25 *725:12 0
32 *487:25 *746:127 0
33 *487:40 *602:8 0
34 *487:40 *680:10 0
35 *487:40 *816:14 0
36 *487:44 *6449:RESET_B 3.08719e-06
37 *487:44 *820:10 0.000123944
38 *487:53 *816:14 0
39 *487:65 *6436:RESET_B 0.000311549
40 *487:65 *6449:CLK 1.21972e-05
41 *487:65 *6449:RESET_B 5.3304e-05
42 *487:65 *6464:D 0.000119957
43 *487:65 *6464:RESET_B 8.92557e-05
44 *487:65 *712:33 0.000136825
45 *487:65 *806:12 0
46 *487:69 *6450:D 0.000400204
47 *487:69 *825:16 0.000875815
48 *487:71 *5893:B 0.000111158
49 *487:73 *5893:B 6.79006e-05
50 *5898:B *6465:CLK 9.47227e-05
51 *6210:A *6412:CLK 4.07902e-05
52 *6412:D *6412:CLK 1.64354e-05
53 *6428:D *6428:CLK 5.92579e-05
54 *6437:D *6437:CLK 0.000109621
55 *133:8 *487:25 3.21223e-05
56 *204:10 *6460:CLK 6.68617e-05
57 *209:16 *6437:CLK 2.25712e-05
58 *209:16 *487:71 6.69536e-05
59 *210:8 *6465:CLK 2.93845e-05
60 *226:45 *6437:CLK 2.96369e-05
61 *226:45 *487:71 1.7992e-05
62 *391:20 *487:40 0.000223466
63 *391:20 *487:53 0
64 *391:22 *487:40 0
65 *391:30 *487:10 0
66 *391:30 *487:25 0
67 *411:26 *487:10 7.03869e-05
68 *445:16 *6459:CLK 0
69 *445:16 *487:73 0
70 *479:51 *487:10 5.67058e-05
71 *479:57 *487:40 0
72 *479:61 *487:53 0
73 *479:61 *487:65 0.000136486
*RES
1 *6504:X *487:10 41.5836 
2 *487:10 *6412:CLK 48.6679 
3 *487:10 *487:25 2.61 
4 *487:25 *6428:CLK 41.48 
5 *487:25 *487:40 10.3157 
6 *487:40 *487:44 29.4379 
7 *487:44 *6385:CLK 23 
8 *487:40 *487:53 17.9621 
9 *487:53 *487:65 46.9857 
10 *487:65 *487:69 25.6264 
11 *487:69 *487:71 3.66643 
12 *487:71 *487:73 1.90571 
13 *487:73 *6459:CLK 44.1936 
14 *487:73 *6460:CLK 48.0464 
15 *487:71 *6465:CLK 40.0507 
16 *487:69 *6437:CLK 45.3121 
17 *487:65 *6464:CLK 23.4971 
18 *487:53 *6436:CLK 23 
*END

*D_NET *488 0.0156814
*CONN
*I *6393:CLK I *D sky130_fd_sc_hd__dfxtp_1
*I *6350:CLK I *D sky130_fd_sc_hd__dfxtp_1
*I *6422:CLK I *D sky130_fd_sc_hd__dfxtp_1
*I *6398:CLK I *D sky130_fd_sc_hd__dfxtp_1
*I *6416:CLK I *D sky130_fd_sc_hd__dfxtp_1
*I *6432:CLK I *D sky130_fd_sc_hd__dfxtp_1
*I *6443:CLK I *D sky130_fd_sc_hd__dfxtp_1
*I *6326:CLK I *D sky130_fd_sc_hd__dfxtp_1
*I *6430:CLK I *D sky130_fd_sc_hd__dfxtp_1
*I *6414:CLK I *D sky130_fd_sc_hd__dfxtp_1
*I *6446:CLK I *D sky130_fd_sc_hd__dfxtp_1
*I *6505:X O *D sky130_fd_sc_hd__clkbuf_8
*CAP
1 *6393:CLK 0.000414213
2 *6350:CLK 0.000271911
3 *6422:CLK 9.08871e-05
4 *6398:CLK 0
5 *6416:CLK 0.000166665
6 *6432:CLK 3.41077e-05
7 *6443:CLK 0
8 *6326:CLK 0
9 *6430:CLK 0.000475419
10 *6414:CLK 0
11 *6446:CLK 2.04411e-05
12 *6505:X 0
13 *488:123 0.00015508
14 *488:94 0.000376805
15 *488:82 0.000597595
16 *488:78 0.000845796
17 *488:52 0.00138641
18 *488:39 0.000912488
19 *488:24 0.000874826
20 *488:20 0.00100409
21 *488:14 0.000924129
22 *488:8 0.000823614
23 *488:4 0.000621244
24 *6393:CLK *503:6 4.02485e-05
25 *6393:CLK *503:16 0.00011032
26 *6393:CLK *636:107 6.29166e-05
27 *6416:CLK *580:10 0
28 *6416:CLK *768:136 2.60152e-05
29 *6430:CLK *596:27 5.12254e-05
30 *6446:CLK *5993:A0 1.94693e-05
31 *488:8 *658:26 0
32 *488:14 *6142:A1 6.02277e-06
33 *488:14 *651:8 5.21024e-05
34 *488:14 *658:26 0
35 *488:14 *768:85 2.24608e-05
36 *488:14 *768:93 8.34602e-06
37 *488:20 *768:93 0.000134646
38 *488:24 *5993:A0 0.000180289
39 *488:24 *6554:A 3.22879e-05
40 *488:39 *636:117 0
41 *488:39 *641:10 1.01436e-05
42 *488:39 *768:107 3.22879e-05
43 *488:52 *596:12 3.0647e-05
44 *488:52 *768:107 9.69102e-05
45 *488:78 *588:10 1.32939e-05
46 *488:78 *596:27 0.000706748
47 *488:82 *588:10 0
48 *488:94 *588:10 3.3123e-05
49 *488:123 *658:26 1.83564e-05
50 *488:123 *768:93 0
51 *6032:A *6350:CLK 5.67058e-05
52 *6038:A *6350:CLK 1.24376e-05
53 *6131:A *6393:CLK 0.00060364
54 *6214:A *6430:CLK 0
55 *6243:S *6416:CLK 0.000193388
56 *6326:D *488:78 0.000233156
57 *6398:D *488:123 5.50106e-05
58 *6414:D *488:52 8.38361e-05
59 *6443:D *488:78 0.000173381
60 *6446:D *488:24 1.64354e-05
61 *58:8 *488:8 5.45887e-05
62 *98:10 *6393:CLK 0.000747722
63 *119:10 *488:39 8.51432e-05
64 *127:10 *6422:CLK 0.000182832
65 *135:12 *6430:CLK 0.000130901
66 *137:12 *488:82 0
67 *216:44 *488:123 2.93845e-05
68 *216:54 *6416:CLK 7.88399e-05
69 *216:54 *488:78 0.000140259
70 *216:54 *488:82 9.48381e-06
71 *221:10 *488:94 4.68721e-05
72 *225:160 *488:14 3.79779e-05
73 *225:160 *488:20 0.000117971
74 *239:168 *6350:CLK 0.000171097
75 *289:10 *6446:CLK 2.32004e-05
76 *289:10 *488:24 0.000228001
77 *372:72 *488:8 6.92438e-05
78 *372:72 *488:14 2.20561e-05
79 *406:10 *488:14 4.08537e-05
80 *411:42 *488:39 0
81 *428:75 *488:39 0.000212423
82 *433:8 *6416:CLK 0.000140949
*RES
1 *6505:X *488:4 23 
2 *488:4 *488:8 18.3143 
3 *488:8 *488:14 5.84143 
4 *488:14 *488:20 24.0314 
5 *488:20 *488:24 8.74143 
6 *488:24 *6446:CLK 23.6214 
7 *488:24 *488:39 39.57 
8 *488:39 *6414:CLK 23 
9 *488:39 *488:52 37.9957 
10 *488:52 *6430:CLK 32.3836 
11 *488:52 *6326:CLK 23 
12 *488:52 *488:78 28.6507 
13 *488:78 *488:82 18.3143 
14 *488:82 *488:94 37.8093 
15 *488:94 *6443:CLK 23 
16 *488:82 *6432:CLK 23.6214 
17 *488:78 *6416:CLK 43.075 
18 *488:20 *488:123 32.8793 
19 *488:123 *6398:CLK 23 
20 *488:14 *6422:CLK 40.0507 
21 *488:8 *6350:CLK 43.2821 
22 *488:4 *6393:CLK 35.5529 
*END

*D_NET *489 0.0129764
*CONN
*I *6327:CLK I *D sky130_fd_sc_hd__dfxtp_1
*I *6431:CLK I *D sky130_fd_sc_hd__dfxtp_1
*I *6424:CLK I *D sky130_fd_sc_hd__dfxtp_1
*I *6352:CLK I *D sky130_fd_sc_hd__dfxtp_1
*I *6495:CLK I *D sky130_fd_sc_hd__dfxtp_1
*I *6377:CLK I *D sky130_fd_sc_hd__dfxtp_1
*I *6409:CLK I *D sky130_fd_sc_hd__dfxtp_1
*I *6400:CLK I *D sky130_fd_sc_hd__dfxtp_1
*I *6353:CLK I *D sky130_fd_sc_hd__dfxtp_1
*I *6506:X O *D sky130_fd_sc_hd__clkbuf_8
*CAP
1 *6327:CLK 0.000345741
2 *6431:CLK 2.88607e-05
3 *6424:CLK 0
4 *6352:CLK 0
5 *6495:CLK 0
6 *6377:CLK 0
7 *6409:CLK 0
8 *6400:CLK 0.00017146
9 *6353:CLK 0
10 *6506:X 0
11 *489:95 0.000663146
12 *489:83 0.000174225
13 *489:75 0.000485155
14 *489:66 0.000235186
15 *489:53 0.000514232
16 *489:40 0.000965282
17 *489:36 0.000526795
18 *489:34 0.000677719
19 *489:21 0.000597108
20 *489:14 0.000304419
21 *489:4 0.000340894
22 *6327:CLK *779:91 0.000477634
23 *6431:CLK *6215:A0 2.65505e-05
24 *489:14 *559:10 9.05935e-05
25 *489:14 *658:26 0
26 *489:34 *623:8 0.000225275
27 *489:40 *615:10 0.000129027
28 *489:40 *746:99 0.000653227
29 *489:53 *615:10 0.00030373
30 *489:53 *615:18 9.41704e-05
31 *489:53 *730:8 4.08641e-05
32 *489:53 *746:99 0.000305335
33 *489:66 *5997:A3 7.69114e-05
34 *489:66 *788:8 8.85189e-05
35 *489:75 *615:10 6.17437e-06
36 *489:75 *746:99 0.000172415
37 *6353:D *489:14 0.000189681
38 *6409:D *489:40 0.000143604
39 *6431:D *6431:CLK 5.50106e-05
40 *136:10 *489:95 0.000108681
41 *180:10 *489:66 0
42 *225:160 *6327:CLK 2.1199e-05
43 *225:160 *489:34 0.000196802
44 *225:160 *489:95 0.000145564
45 *225:164 *6327:CLK 5.29672e-05
46 *232:21 *6400:CLK 0.000123517
47 *232:21 *489:14 1.05235e-05
48 *232:21 *489:21 7.44161e-06
49 *233:31 *489:14 0.000145471
50 *233:35 *489:83 0
51 *237:84 *489:83 0.000193743
52 *309:14 *6327:CLK 0.000234382
53 *309:14 *489:14 0.000268569
54 *309:14 *489:34 0.000852736
55 *309:14 *489:95 0.000568324
56 *347:10 *489:53 6.68793e-05
57 *351:12 *489:53 0.000188142
58 *359:10 *489:53 7.23925e-05
59 *362:22 *489:53 6.85357e-05
60 *390:12 *489:66 3.22879e-05
61 *391:114 *6327:CLK 0.000189282
62 *397:10 *6327:CLK 0.000166513
63 *411:92 *6431:CLK 9.84851e-05
64 *428:52 *489:53 0
65 *428:65 *489:53 5.50049e-05
*RES
1 *6506:X *489:4 23 
2 *489:4 *489:14 38.2443 
3 *489:14 *6353:CLK 23 
4 *489:4 *489:21 0.621429 
5 *489:21 *6400:CLK 26.9771 
6 *489:21 *489:34 26.4136 
7 *489:34 *489:36 15 
8 *489:36 *489:40 7.78857 
9 *489:40 *6409:CLK 23 
10 *489:40 *489:53 43.63 
11 *489:53 *6377:CLK 23 
12 *489:40 *489:66 33.5836 
13 *489:66 *6495:CLK 23 
14 *489:36 *489:75 6.235 
15 *489:75 *489:83 33.7079 
16 *489:83 *6352:CLK 23 
17 *489:75 *6424:CLK 23 
18 *489:34 *489:95 7.89214 
19 *489:95 *6431:CLK 39.0979 
20 *489:95 *6327:CLK 48.1293 
*END

*D_NET *490 0.0120671
*CONN
*I *6435:CLK I *D sky130_fd_sc_hd__dfrtp_1
*I *6463:CLK I *D sky130_fd_sc_hd__dfrtp_1
*I *6466:CLK I *D sky130_fd_sc_hd__dfrtp_1
*I *6461:CLK I *D sky130_fd_sc_hd__dfrtp_1
*I *6438:CLK I *D sky130_fd_sc_hd__dfrtp_1
*I *6458:CLK I *D sky130_fd_sc_hd__dfrtp_1
*I *6507:X O *D sky130_fd_sc_hd__clkbuf_8
*CAP
1 *6435:CLK 0.000331872
2 *6463:CLK 0
3 *6466:CLK 0.000110168
4 *6461:CLK 0
5 *6438:CLK 0.000107315
6 *6458:CLK 0.000344532
7 *6507:X 0.00088685
8 *490:62 0.000788386
9 *490:50 0.00144578
10 *490:35 0.00086841
11 *490:20 0.00110087
12 *490:12 0.00106453
13 *490:6 0.00174079
14 *6435:CLK *6435:RESET_B 5.44353e-05
15 *6435:CLK *6448:D 0.000419143
16 *6435:CLK *6557:A 5.90675e-06
17 *6458:CLK *6458:D 3.63733e-05
18 *6458:CLK *712:27 1.81362e-05
19 *6458:CLK *796:6 1.14154e-05
20 *6466:CLK *6466:D 2.93747e-05
21 *490:6 *6448:D 2.07355e-05
22 *490:6 *6557:A 5.70419e-05
23 *490:12 *710:10 0
24 *490:12 *710:12 0
25 *490:20 *6458:RESET_B 0.000306634
26 *490:20 *6463:RESET_B 9.74722e-05
27 *490:20 *712:27 3.05901e-05
28 *490:35 *6265:A1 0
29 *490:62 *5895:A 0
30 *490:62 *6566:A 9.64943e-05
31 *6286:A *490:6 2.30292e-05
32 *6435:D *6435:CLK 7.43114e-05
33 *6507:A *490:6 0.000355822
34 *164:10 *490:6 5.72217e-05
35 *206:10 *490:35 8.4047e-05
36 *207:14 *490:35 0.000485212
37 *209:16 *490:50 0.000198955
38 *226:45 *490:50 0
39 *239:88 *6458:CLK 6.17437e-06
40 *239:88 *490:20 4.67488e-05
41 *239:88 *490:35 4.73884e-05
42 *420:39 *490:6 0.000170375
43 *420:51 *490:12 0
44 *445:16 *490:35 0.000377181
45 *445:16 *490:62 0.000167443
*RES
1 *6507:X *490:6 40.2964 
2 *490:6 *490:12 37.8921 
3 *490:12 *490:20 10.2121 
4 *490:20 *6458:CLK 27.8057 
5 *490:20 *490:35 37.54 
6 *490:35 *6438:CLK 24.5743 
7 *490:35 *490:50 39.7357 
8 *490:50 *490:62 41.9729 
9 *490:62 *6461:CLK 23 
10 *490:50 *6466:CLK 25.0507 
11 *490:12 *6463:CLK 23 
12 *490:6 *6435:CLK 32.0936 
*END

*D_NET *491 0.011998
*CONN
*I *6478:CLK I *D sky130_fd_sc_hd__dfrtp_4
*I *6476:CLK I *D sky130_fd_sc_hd__dfrtp_1
*I *6487:CLK I *D sky130_fd_sc_hd__dfxtp_1
*I *6434:CLK I *D sky130_fd_sc_hd__dfrtp_1
*I *6457:CLK I *D sky130_fd_sc_hd__dfrtp_1
*I *6462:CLK I *D sky130_fd_sc_hd__dfrtp_1
*I *6479:CLK I *D sky130_fd_sc_hd__dfrtp_4
*I *6477:CLK I *D sky130_fd_sc_hd__dfrtp_4
*I *6508:X O *D sky130_fd_sc_hd__clkbuf_8
*CAP
1 *6478:CLK 0
2 *6476:CLK 0.000143934
3 *6487:CLK 0
4 *6434:CLK 0
5 *6457:CLK 0.000306964
6 *6462:CLK 0.000297412
7 *6479:CLK 0
8 *6477:CLK 0
9 *6508:X 0.000330256
10 *491:89 0.000644975
11 *491:81 0.000896331
12 *491:52 0.00075046
13 *491:45 0.000763052
14 *491:39 0.000951558
15 *491:35 0.000916929
16 *491:22 0.00110081
17 *491:20 0.000730025
18 *491:12 0.000396302
19 *491:10 0.000330256
20 *6457:CLK *6457:D 8.15864e-05
21 *6457:CLK *6457:RESET_B 0
22 *6457:CLK *710:8 0
23 *6462:CLK *647:16 1.12349e-05
24 *6462:CLK *647:27 0.000748
25 *6476:CLK *810:12 0.000105934
26 *6476:CLK *810:75 1.94693e-05
27 *491:20 *710:183 2.96369e-05
28 *491:20 *810:12 0
29 *491:20 *810:14 0
30 *491:22 *6477:RESET_B 0.000182083
31 *491:22 *810:12 4.93767e-05
32 *491:35 *5885:B 9.84794e-05
33 *491:35 *6434:RESET_B 5.03716e-05
34 *491:35 *6477:RESET_B 9.40284e-05
35 *491:35 *6558:A 5.50106e-05
36 *491:35 *710:149 0.000436887
37 *491:45 *710:8 0
38 *491:45 *710:10 0
39 *491:52 *710:8 0
40 *491:81 *810:12 8.63919e-05
41 *6279:A1 *491:20 0.000215782
42 *139:10 *491:45 0
43 *172:8 *491:89 0
44 *182:26 *491:20 0.000185434
45 *192:12 *491:10 0
46 *192:12 *491:20 1.14452e-05
47 *208:14 *491:45 0.000644512
48 *211:10 *491:20 2.18409e-05
49 *420:39 *491:10 9.84794e-05
50 *420:85 *491:10 0.000212723
51 *457:8 *491:10 0
52 *468:10 *491:89 0
*RES
1 *6508:X *491:10 45.3536 
2 *491:10 *491:12 15 
3 *491:12 *491:20 38.3064 
4 *491:20 *491:22 5.38571 
5 *491:22 *6477:CLK 23 
6 *491:22 *491:35 19.3886 
7 *491:35 *491:39 15.6214 
8 *491:39 *491:45 31.3643 
9 *491:45 *6479:CLK 23 
10 *491:39 *491:52 2.61 
11 *491:52 *6462:CLK 46.7414 
12 *491:52 *6457:CLK 43.365 
13 *491:35 *6434:CLK 23 
14 *491:20 *491:81 2.52714 
15 *491:81 *491:89 42.1593 
16 *491:89 *6487:CLK 23 
17 *491:81 *6476:CLK 26.48 
18 *491:12 *6478:CLK 23 
*END

*D_NET *492 0.00964607
*CONN
*I *6351:CLK I *D sky130_fd_sc_hd__dfxtp_1
*I *6423:CLK I *D sky130_fd_sc_hd__dfxtp_1
*I *6399:CLK I *D sky130_fd_sc_hd__dfxtp_1
*I *6415:CLK I *D sky130_fd_sc_hd__dfxtp_1
*I *6407:CLK I *D sky130_fd_sc_hd__dfxtp_1
*I *6493:CLK I *D sky130_fd_sc_hd__dfxtp_1
*I *6375:CLK I *D sky130_fd_sc_hd__dfxtp_1
*I *6383:CLK I *D sky130_fd_sc_hd__dfxtp_1
*I *6509:X O *D sky130_fd_sc_hd__clkbuf_8
*CAP
1 *6351:CLK 0.000441188
2 *6423:CLK 0
3 *6399:CLK 6.57922e-05
4 *6415:CLK 0
5 *6407:CLK 2.34823e-05
6 *6493:CLK 0.000270102
7 *6375:CLK 0
8 *6383:CLK 0
9 *6509:X 0
10 *492:90 0.000441188
11 *492:76 0.000690314
12 *492:68 0.00137465
13 *492:64 0.00093732
14 *492:49 0.000410858
15 *492:28 0.000253624
16 *492:16 0.000704197
17 *492:8 0.00113437
18 *492:4 0.000482294
19 *6351:CLK *573:8 3.22879e-05
20 *6493:CLK *493:10 0
21 *6493:CLK *621:16 0.000154168
22 *492:8 *509:10 0
23 *492:8 *621:16 1.58805e-05
24 *492:16 *517:6 0.000182826
25 *492:16 *613:23 2.34719e-05
26 *492:16 *621:16 5.50049e-05
27 *6058:A1 *492:68 0
28 *6087:S *492:8 0
29 *6087:S *492:64 0
30 *6088:A *492:16 0.000250951
31 *6383:D *492:28 7.23742e-05
32 *6423:D *6351:CLK 0.000187073
33 *80:12 *492:16 0.000124702
34 *88:8 *492:28 0.000135547
35 *112:8 *492:64 0.000116314
36 *178:8 *6493:CLK 3.46181e-05
37 *190:82 *492:76 2.61595e-05
38 *190:109 *492:76 0
39 *190:120 *492:68 0
40 *190:120 *492:76 5.50106e-05
41 *190:131 *492:68 0
42 *190:144 *492:68 0
43 *203:94 *492:76 0.000138718
44 *215:10 *492:76 4.21594e-06
45 *215:109 *492:76 7.55832e-05
46 *215:118 *492:76 5.82922e-05
47 *215:133 *492:76 7.87799e-05
48 *232:278 *492:8 0
49 *232:289 *6493:CLK 0
50 *309:14 *492:68 0.000237981
51 *309:14 *492:76 0
52 *319:12 *492:28 0
53 *339:31 *492:64 0
54 *339:31 *492:68 0
55 *345:12 *492:8 0
56 *351:31 *492:8 0
57 *372:10 *6399:CLK 0.000127821
58 *372:10 *492:76 0.000228909
59 *470:96 *492:68 0
60 *479:196 *492:8 0
*RES
1 *6509:X *492:4 23 
2 *492:4 *492:8 21.4836 
3 *492:8 *492:16 24.8393 
4 *492:16 *492:28 34.9507 
5 *492:28 *6383:CLK 23 
6 *492:16 *6375:CLK 23 
7 *492:8 *6493:CLK 43.4271 
8 *492:4 *492:49 1.09786 
9 *492:49 *6407:CLK 23.4971 
10 *492:49 *492:64 21.67 
11 *492:64 *492:68 26.4136 
12 *492:68 *492:76 43.5886 
13 *492:76 *6415:CLK 23 
14 *492:68 *6399:CLK 24.5743 
15 *492:64 *492:90 15 
16 *492:90 *6423:CLK 23 
17 *492:90 *6351:CLK 30.7679 
*END

*D_NET *493 0.0166493
*CONN
*I *6485:CLK I *D sky130_fd_sc_hd__dfxtp_1
*I *6484:CLK I *D sky130_fd_sc_hd__dfxtp_1
*I *6342:CLK I *D sky130_fd_sc_hd__dfxtp_1
*I *6367:CLK I *D sky130_fd_sc_hd__dfxtp_1
*I *6382:CLK I *D sky130_fd_sc_hd__dfxtp_1
*I *6359:CLK I *D sky130_fd_sc_hd__dfxtp_1
*I *6343:CLK I *D sky130_fd_sc_hd__dfxtp_1
*I *6369:CLK I *D sky130_fd_sc_hd__dfxtp_1
*I *6345:CLK I *D sky130_fd_sc_hd__dfxtp_1
*I *6361:CLK I *D sky130_fd_sc_hd__dfxtp_1
*I *6510:X O *D sky130_fd_sc_hd__clkbuf_8
*CAP
1 *6485:CLK 0.00054135
2 *6484:CLK 0.000164223
3 *6342:CLK 0
4 *6367:CLK 0.000300204
5 *6382:CLK 0.000327895
6 *6359:CLK 0
7 *6343:CLK 0
8 *6369:CLK 2.28373e-05
9 *6345:CLK 0
10 *6361:CLK 0.00046861
11 *6510:X 0.000226272
12 *493:73 0.00073816
13 *493:71 0.000400287
14 *493:69 0.00089242
15 *493:60 0.000589933
16 *493:56 0.0010117
17 *493:35 0.00110518
18 *493:27 0.0013503
19 *493:16 0.000727155
20 *493:14 0.000292208
21 *493:10 0.001392
22 *493:8 0.00104394
23 *6361:CLK *535:8 5.41288e-05
24 *6369:CLK *527:14 1.94693e-05
25 *6484:CLK *533:29 0
26 *493:8 *509:10 1.57571e-05
27 *493:10 *509:10 0.000183779
28 *493:10 *527:27 0.000139647
29 *493:10 *621:16 0
30 *493:27 *6583:A 3.0647e-05
31 *493:27 *535:18 0.000176072
32 *493:27 *751:8 4.3407e-05
33 *493:35 *5996:A2 0.000176763
34 *493:35 *535:18 0.000102107
35 *493:69 *533:18 0.000116554
36 *493:71 *6616:A 0.000193388
37 *493:71 *533:29 0
38 *493:71 *779:33 0
39 *493:73 *6616:A 2.77955e-05
40 *493:73 *525:10 0.000140958
41 *493:73 *779:33 0
42 *6014:S *493:10 0
43 *6014:S *493:56 0
44 *6019:A *493:35 6.68617e-05
45 *6070:A *6367:CLK 0.000120432
46 *6299:A *493:60 0.000315857
47 *6343:D *493:14 0.000102732
48 *6359:D *493:69 0.00027142
49 *6361:D *6361:CLK 0.000189681
50 *6485:D *6485:CLK 4.9054e-06
51 *6493:CLK *493:10 0
52 *50:12 *493:35 7.62747e-05
53 *72:12 *6367:CLK 0.000125765
54 *87:8 *6382:CLK 0
55 *169:10 *6484:CLK 0
56 *170:10 *6485:CLK 0
57 *233:123 *493:35 5.37348e-06
58 *276:12 *6382:CLK 0.000650135
59 *276:12 *493:73 0.000129513
60 *298:33 *6369:CLK 2.93747e-05
61 *298:33 *493:10 0
62 *298:37 *6367:CLK 9.24504e-05
63 *303:10 *493:71 0
64 *319:59 *493:69 0.000166062
65 *329:10 *493:10 0.000232514
66 *329:10 *493:27 0
67 *329:29 *493:10 0.000101564
68 *329:29 *493:27 0
69 *329:29 *493:56 0.000114864
70 *337:8 *493:27 0.000166522
71 *337:8 *493:35 0.000136486
72 *351:31 *493:10 0.000183894
73 *356:10 *6382:CLK 0
74 *466:8 *6485:CLK 0
75 *479:188 *493:8 0.000351513
*RES
1 *6510:X *493:8 42.4329 
2 *493:8 *493:10 19.1607 
3 *493:10 *493:14 19.4329 
4 *493:14 *493:16 0.621429 
5 *493:16 *6361:CLK 32.1971 
6 *493:16 *493:27 20.7793 
7 *493:27 *493:35 31.7164 
8 *493:35 *6345:CLK 23 
9 *493:27 *6369:CLK 38.6214 
10 *493:14 *6343:CLK 23 
11 *493:10 *493:56 5.77929 
12 *493:56 *493:60 18.9564 
13 *493:60 *6359:CLK 23 
14 *493:60 *493:69 24.6736 
15 *493:69 *493:71 5.42714 
16 *493:71 *493:73 2.96214 
17 *493:73 *6382:CLK 46.5964 
18 *493:73 *6367:CLK 44.38 
19 *493:71 *6342:CLK 38 
20 *493:69 *6484:CLK 40.9621 
21 *493:56 *6485:CLK 45.83 
*END

*D_NET *494 0.0154463
*CONN
*I *6419:CLK I *D sky130_fd_sc_hd__dfxtp_1
*I *6395:CLK I *D sky130_fd_sc_hd__dfxtp_1
*I *6392:CLK I *D sky130_fd_sc_hd__dfxtp_1
*I *6390:CLK I *D sky130_fd_sc_hd__dfxtp_1
*I *6426:CLK I *D sky130_fd_sc_hd__dfxtp_1
*I *6410:CLK I *D sky130_fd_sc_hd__dfxtp_1
*I *6445:CLK I *D sky130_fd_sc_hd__dfxtp_1
*I *6411:CLK I *D sky130_fd_sc_hd__dfxtp_1
*I *6328:CLK I *D sky130_fd_sc_hd__dfxtp_1
*I *6427:CLK I *D sky130_fd_sc_hd__dfxtp_1
*I *6511:X O *D sky130_fd_sc_hd__clkbuf_8
*CAP
1 *6419:CLK 0
2 *6395:CLK 4.32077e-05
3 *6392:CLK 0
4 *6390:CLK 4.32077e-05
5 *6426:CLK 3.00574e-05
6 *6410:CLK 0
7 *6445:CLK 0.000472645
8 *6411:CLK 0
9 *6328:CLK 0.000361852
10 *6427:CLK 0.000243218
11 *6511:X 0.000385145
12 *494:99 0.000520449
13 *494:86 0.00155771
14 *494:84 0.00114873
15 *494:53 0.000511409
16 *494:35 0.000361852
17 *494:22 0.0006835
18 *494:20 0.000581463
19 *494:18 0.000669061
20 *494:16 0.000817982
21 *494:10 0.000555066
22 *6328:CLK *735:20 0.000703618
23 *6328:CLK *735:27 0.000185428
24 *6427:CLK *6207:A0 0
25 *6427:CLK *782:8 0
26 *6445:CLK *582:12 2.40076e-05
27 *494:18 *735:46 0
28 *494:20 *735:46 0
29 *494:22 *735:35 0
30 *494:22 *735:46 0
31 *494:86 *500:10 3.10094e-05
32 *494:86 *712:49 0.000104089
33 *494:99 *6124:A1 0
34 *494:99 *625:51 5.2011e-05
35 *494:99 *768:44 0
36 *5990:A1 *494:10 0.000120222
37 *6031:S *494:99 0.000194318
38 *6206:A *6445:CLK 0.000184527
39 *6248:A *6445:CLK 4.06849e-05
40 *6328:D *6328:CLK 0.000100124
41 *6390:D *494:86 4.9054e-06
42 *6395:D *494:84 4.4869e-05
43 *6395:D *494:86 3.3577e-05
44 *6426:D *6426:CLK 5.3304e-05
45 *95:8 *494:99 2.12178e-05
46 *115:10 *6426:CLK 1.59094e-05
47 *115:10 *494:20 8.26569e-05
48 *115:10 *494:22 4.6318e-06
49 *132:10 *6427:CLK 8.93766e-05
50 *132:10 *494:22 6.68587e-05
51 *150:8 *6445:CLK 0.000129006
52 *216:77 *6427:CLK 5.50049e-05
53 *225:102 *6445:CLK 0.000975675
54 *225:102 *494:53 2.02872e-05
55 *265:12 *494:99 1.47563e-05
56 *266:10 *494:99 0.000135168
57 *281:12 *494:10 0
58 *281:12 *494:18 0
59 *286:20 *494:10 0.000128777
60 *309:52 *494:99 0.000214862
61 *367:10 *494:99 0
62 *372:36 *494:10 0.000355029
63 *374:10 *494:16 6.67196e-05
64 *374:10 *494:18 6.1764e-05
65 *403:10 *494:10 3.71198e-05
66 *411:109 *494:10 0
67 *411:109 *494:16 0
68 *411:109 *494:18 0
69 *411:121 *6427:CLK 1.01436e-05
70 *411:121 *494:18 0.000150977
71 *411:121 *494:20 0.000237534
72 *411:121 *494:22 0.00081114
73 *411:125 *6328:CLK 8.6949e-05
74 *411:143 *6328:CLK 0.000762558
75 *413:14 *6328:CLK 1.40958e-05
76 *413:14 *494:22 3.48091e-05
*RES
1 *6511:X *494:10 47.3836 
2 *494:10 *494:16 3.02429 
3 *494:16 *494:18 9.30071 
4 *494:18 *494:20 3.31429 
5 *494:20 *494:22 11.0614 
6 *494:22 *6427:CLK 41.5836 
7 *494:22 *494:35 15 
8 *494:35 *6328:CLK 36.9821 
9 *494:35 *6411:CLK 23 
10 *494:20 *494:53 15.6214 
11 *494:53 *6445:CLK 37.1479 
12 *494:53 *6410:CLK 23 
13 *494:18 *6426:CLK 38.6214 
14 *494:16 *494:84 16.5743 
15 *494:84 *494:86 12.5321 
16 *494:86 *6390:CLK 23.8493 
17 *494:86 *494:99 40.3571 
18 *494:99 *6392:CLK 23 
19 *494:84 *6395:CLK 23.8493 
20 *494:10 *6419:CLK 38 
*END

*D_NET *495 0.0126506
*CONN
*I *6325:CLK I *D sky130_fd_sc_hd__dfxtp_1
*I *6444:CLK I *D sky130_fd_sc_hd__dfxtp_1
*I *6429:CLK I *D sky130_fd_sc_hd__dfxtp_1
*I *6420:CLK I *D sky130_fd_sc_hd__dfxtp_1
*I *6396:CLK I *D sky130_fd_sc_hd__dfxtp_1
*I *6388:CLK I *D sky130_fd_sc_hd__dfxtp_1
*I *6348:CLK I *D sky130_fd_sc_hd__dfxtp_1
*I *6394:CLK I *D sky130_fd_sc_hd__dfxtp_1
*I *6418:CLK I *D sky130_fd_sc_hd__dfxtp_1
*I *6512:X O *D sky130_fd_sc_hd__clkbuf_8
*CAP
1 *6325:CLK 8.48187e-05
2 *6444:CLK 0
3 *6429:CLK 0
4 *6420:CLK 0
5 *6396:CLK 0
6 *6388:CLK 0.000298102
7 *6348:CLK 0
8 *6394:CLK 3.09382e-05
9 *6418:CLK 0.000195709
10 *6512:X 9.63356e-05
11 *495:107 0.000395736
12 *495:90 0.000555343
13 *495:88 0.000770732
14 *495:68 0.000356595
15 *495:58 0.000782177
16 *495:56 0.0011435
17 *495:41 0.000610343
18 *495:32 0.000401599
19 *495:10 0.000395447
20 *495:8 0.000546105
21 *6325:CLK *595:31 1.94812e-05
22 *6388:CLK *6027:A0 0.000119477
23 *6388:CLK *562:25 5.78583e-05
24 *6388:CLK *746:72 8.2832e-05
25 *495:56 *498:24 3.41998e-06
26 *495:56 *562:10 0
27 *495:68 *6604:A 0.00014411
28 *495:68 *768:44 7.28526e-05
29 *495:68 *772:10 0.000139346
30 *495:88 *5949:A1 4.4415e-05
31 *495:88 *498:24 5.3304e-05
32 *495:88 *570:10 9.47033e-05
33 *495:88 *746:72 0.000265999
34 *495:88 *778:10 0.000163352
35 *495:107 *6615:A 2.70469e-05
36 *495:107 *589:8 4.08537e-05
37 *6135:A *495:8 0.000355029
38 *6394:D *6394:CLK 2.93845e-05
39 *6418:D *6418:CLK 5.67058e-05
40 *6420:D *495:58 1.64354e-05
41 *6429:D *495:90 1.64354e-05
42 *6512:A *495:8 6.17437e-06
43 *16:15 *495:107 6.38845e-05
44 *123:8 *6418:CLK 0
45 *225:164 *495:107 2.30292e-05
46 *225:170 *495:88 0
47 *226:227 *6325:CLK 8.85483e-05
48 *226:227 *495:90 0.00028012
49 *226:227 *495:107 0.00068415
50 *230:66 *495:107 0
51 *270:18 *6418:CLK 0
52 *270:18 *495:10 0
53 *270:18 *495:32 0
54 *270:18 *495:41 0
55 *270:18 *495:56 0
56 *309:82 *495:88 0
57 *312:12 *6388:CLK 0.000395901
58 *362:37 *495:68 1.5769e-05
59 *391:151 *6325:CLK 3.16784e-05
60 *391:151 *495:90 0.000197404
61 *391:151 *495:107 0.000818619
62 *401:87 *495:88 0.000632089
63 *401:93 *495:32 0.000117926
64 *401:93 *495:41 4.40835e-05
65 *401:93 *495:56 7.37963e-05
66 *401:93 *495:88 0.000187996
67 *402:10 *6418:CLK 6.07611e-06
68 *402:10 *495:8 0.000130353
69 *402:10 *495:10 6.07826e-05
70 *411:109 *6418:CLK 0
71 *411:109 *495:10 0
72 *411:109 *495:32 0
73 *411:109 *495:88 7.80251e-05
74 *434:10 *495:107 0.000247678
*RES
1 *6512:X *495:8 41.9564 
2 *495:8 *495:10 2.96214 
3 *495:10 *6418:CLK 41.9357 
4 *495:10 *6394:CLK 38.6214 
5 *495:8 *495:32 5.77929 
6 *495:32 *6348:CLK 38 
7 *495:32 *495:41 2.25786 
8 *495:41 *6388:CLK 45.7886 
9 *495:41 *495:56 18.3143 
10 *495:56 *495:58 7.29143 
11 *495:58 *495:68 37.1879 
12 *495:68 *6396:CLK 23 
13 *495:58 *6420:CLK 23 
14 *495:56 *495:88 43.6093 
15 *495:88 *495:90 5.86214 
16 *495:90 *6429:CLK 23 
17 *495:90 *495:107 43.9821 
18 *495:107 *6444:CLK 23 
19 *495:88 *6325:CLK 25.0507 
*END

*D_NET *496 0.00476155
*CONN
*I *6547:A I *D sky130_fd_sc_hd__dlygate4sd3_1
*I *5925:A0 I *D sky130_fd_sc_hd__mux4_1
*I *6386:Q O *D sky130_fd_sc_hd__dfxtp_1
*CAP
1 *6547:A 0
2 *5925:A0 0
3 *6386:Q 0.000452816
4 *496:35 0.000341126
5 *496:18 0.000897948
6 *496:6 0.00169189
7 *496:18 *5925:A2 0.000198599
8 *5925:S1 *496:18 4.67488e-05
9 *5928:A1 *496:18 6.17437e-06
10 *91:12 *496:18 8.16848e-05
11 *225:149 *496:18 5.50049e-05
12 *226:183 *496:18 0
13 *227:14 *496:18 8.4047e-05
14 *227:14 *496:35 3.39335e-05
15 *255:26 *496:6 5.43525e-05
16 *255:26 *496:18 6.36763e-07
17 *286:20 *496:35 0.000159331
18 *479:151 *496:35 0.000299536
19 *481:6 *496:35 0.0002246
20 *481:18 *496:35 0.000133123
*RES
1 *6386:Q *496:6 28.8621 
2 *496:6 *496:18 42.8221 
3 *496:18 *5925:A0 23 
4 *496:6 *496:35 39.2179 
5 *496:35 *6547:A 23 
*END

*D_NET *497 0.0040116
*CONN
*I *5940:A0 I *D sky130_fd_sc_hd__mux4_1
*I *6568:A I *D sky130_fd_sc_hd__dlygate4sd3_1
*I *6387:Q O *D sky130_fd_sc_hd__dfxtp_1
*CAP
1 *5940:A0 0
2 *6568:A 7.57511e-05
3 *6387:Q 0
4 *497:27 0.00103334
5 *497:19 0.00125169
6 *497:4 0.000294104
7 *497:19 *735:117 0.000314076
8 *497:27 *6025:A1 0.000225863
9 *497:27 *6116:A0 0.000609747
10 *497:27 *6116:A1 0.000136738
11 *225:149 *497:27 0
12 *311:10 *497:27 4.48671e-05
13 *363:10 *497:27 2.54193e-05
*RES
1 *6387:Q *497:4 23 
2 *497:4 *6568:A 24.4707 
3 *497:4 *497:19 34.3707 
4 *497:19 *497:27 35.1757 
5 *497:27 *5940:A0 38 
*END

*D_NET *498 0.00386556
*CONN
*I *6551:A I *D sky130_fd_sc_hd__dlygate4sd3_1
*I *5949:A0 I *D sky130_fd_sc_hd__mux4_1
*I *6388:Q O *D sky130_fd_sc_hd__dfxtp_1
*CAP
1 *6551:A 7.76766e-05
2 *5949:A0 0
3 *6388:Q 0.000278238
4 *498:24 0.000905034
5 *498:10 0.00098271
6 *498:8 0.000278238
7 *6551:A *727:10 6.17437e-06
8 *498:8 *6120:A1 0
9 *498:8 *727:10 2.37883e-05
10 *498:24 *5949:A1 2.93747e-05
11 *498:24 *733:6 0.000322232
12 *498:24 *746:64 0.000130353
13 *498:24 *746:85 7.0626e-06
14 *6191:S *498:24 0.000135037
15 *53:12 *498:24 0.000267173
16 *93:8 *498:8 0
17 *254:10 *498:8 3.95777e-05
18 *362:109 *498:8 0.000166513
19 *401:93 *498:24 0.000159657
20 *495:56 *498:24 3.41998e-06
21 *495:88 *498:24 5.3304e-05
*RES
1 *6388:Q *498:8 42.7229 
2 *498:8 *498:10 15 
3 *498:10 *498:24 47.3586 
4 *498:24 *5949:A0 23 
5 *498:10 *6551:A 24.0979 
*END

*D_NET *499 0.00453365
*CONN
*I *6537:A I *D sky130_fd_sc_hd__dlygate4sd3_1
*I *5958:A0 I *D sky130_fd_sc_hd__mux4_1
*I *6389:Q O *D sky130_fd_sc_hd__dfxtp_1
*CAP
1 *6537:A 9.46779e-05
2 *5958:A0 0
3 *6389:Q 0.000531685
4 *499:28 0.000932465
5 *499:12 0.00102714
6 *499:10 0.000531685
7 *6537:A *676:6 4.67488e-05
8 *499:10 *746:45 0
9 *499:28 *5958:A2 3.71611e-05
10 *499:28 *5958:A3 0.000172266
11 *499:28 *6122:A1 0.000142635
12 *499:28 *6564:A 0.000172881
13 *499:28 *555:14 0.00020047
14 *499:28 *676:6 7.4416e-05
15 *499:28 *757:87 8.72173e-05
16 *6122:S *499:10 3.70187e-05
17 *6389:CLK *499:10 0.000112087
18 *225:198 *499:28 6.92789e-05
19 *254:10 *499:10 0.000192087
20 *366:10 *499:10 0
21 *483:63 *499:28 7.17297e-05
*RES
1 *6389:Q *499:10 45.9957 
2 *499:10 *499:12 15 
3 *499:12 *499:28 46.8614 
4 *499:28 *5958:A0 23 
5 *499:12 *6537:A 24.595 
*END

*D_NET *500 0.00367576
*CONN
*I *6601:A I *D sky130_fd_sc_hd__dlygate4sd3_1
*I *5967:A0 I *D sky130_fd_sc_hd__mux4_1
*I *6390:Q O *D sky130_fd_sc_hd__dfxtp_1
*CAP
1 *6601:A 0
2 *5967:A0 0
3 *6390:Q 0.000342975
4 *500:28 0.000812291
5 *500:12 0.000812291
6 *500:10 0.000342975
7 *500:28 *5967:A1 0.000289934
8 *500:28 *5967:A3 6.32688e-05
9 *500:28 *6124:A1 5.67058e-05
10 *500:28 *6195:A0 4.27353e-05
11 *500:28 *6573:A 3.20914e-05
12 *500:28 *769:6 9.45591e-05
13 *225:68 *500:28 0.000219639
14 *226:114 *500:28 0
15 *295:14 *500:28 5.41288e-05
16 *295:28 *500:28 0.000295993
17 *362:51 *500:10 8.06039e-05
18 *362:59 *500:10 6.07611e-06
19 *362:59 *500:28 9.84851e-05
20 *494:86 *500:10 3.10094e-05
*RES
1 *6390:Q *500:10 43.2614 
2 *500:10 *500:12 15 
3 *500:12 *500:28 49.2643 
4 *500:28 *5967:A0 23 
5 *500:12 *6601:A 23 
*END

*D_NET *501 0.00366019
*CONN
*I *6590:A I *D sky130_fd_sc_hd__dlygate4sd3_1
*I *5976:A0 I *D sky130_fd_sc_hd__mux4_1
*I *6391:Q O *D sky130_fd_sc_hd__dfxtp_1
*CAP
1 *6590:A 2.34823e-05
2 *5976:A0 0
3 *6391:Q 0.000513271
4 *501:24 0.000613724
5 *501:14 0.000679463
6 *501:10 0.000555528
7 *501:10 *758:8 0
8 *501:24 *557:18 0.000166522
9 *6391:CLK *501:10 0.00044298
10 *96:10 *501:10 8.62783e-05
11 *96:10 *501:24 0.000308039
12 *232:69 *501:24 0
13 *270:10 *501:10 0
14 *309:125 *501:24 0.000270904
*RES
1 *6391:Q *501:10 45.8921 
2 *501:10 *501:14 15.6214 
3 *501:14 *501:24 42.4286 
4 *501:24 *5976:A0 23 
5 *501:14 *6590:A 23.4971 
*END

*D_NET *502 0.00219497
*CONN
*I *6592:A I *D sky130_fd_sc_hd__dlygate4sd3_1
*I *5985:A0 I *D sky130_fd_sc_hd__mux4_1
*I *6392:Q O *D sky130_fd_sc_hd__dfxtp_1
*CAP
1 *6592:A 0
2 *5985:A0 0.000700162
3 *6392:Q 4.66032e-05
4 *502:12 0.000742322
5 *502:8 8.87631e-05
6 *5985:A0 *566:27 0.00013266
7 *502:12 *760:12 1.24376e-05
8 *5985:S0 *5985:A0 0.000141519
9 *97:8 *502:8 0.000141879
10 *233:321 *5985:A0 4.67488e-05
11 *479:116 *502:8 0.000141879
*RES
1 *6392:Q *502:8 39.9057 
2 *502:8 *502:12 15.6214 
3 *502:12 *5985:A0 34.8279 
4 *502:12 *6592:A 23 
*END

*D_NET *503 0.00342626
*CONN
*I *6542:A I *D sky130_fd_sc_hd__dlygate4sd3_1
*I *5994:A0 I *D sky130_fd_sc_hd__mux4_1
*I *6393:Q O *D sky130_fd_sc_hd__dfxtp_1
*CAP
1 *6542:A 0
2 *5994:A0 0
3 *6393:Q 0.000245152
4 *503:29 0.000204193
5 *503:16 0.000548286
6 *503:6 0.000997631
7 *503:16 *6201:A0 4.06849e-05
8 *503:16 *6201:A1 0
9 *503:16 *636:107 5.14746e-06
10 *503:29 *6130:A1 0.000279202
11 *503:29 *636:90 0.000139647
12 *6130:S *503:29 2.4754e-05
13 *6131:A *503:6 9.91798e-05
14 *6393:CLK *503:6 4.02485e-05
15 *6393:CLK *503:16 0.00011032
16 *232:12 *503:16 1.01436e-05
17 *237:78 *503:29 4.75206e-05
18 *239:168 *503:29 0.000313255
19 *290:8 *503:29 0
20 *370:12 *503:29 0.000163361
21 *401:36 *503:16 0.000103637
22 *428:65 *503:16 5.38942e-05
*RES
1 *6393:Q *503:6 26.48 
2 *503:6 *503:16 38.3893 
3 *503:16 *5994:A0 23 
4 *503:6 *503:29 37.1464 
5 *503:29 *6542:A 23 
*END

*D_NET *504 0.00201592
*CONN
*I *5932:A2 I *D sky130_fd_sc_hd__mux4_1
*I *6527:A I *D sky130_fd_sc_hd__dlygate4sd3_1
*I *6378:Q O *D sky130_fd_sc_hd__dfxtp_1
*CAP
1 *5932:A2 0
2 *6527:A 0
3 *6378:Q 0
4 *504:31 0.00037428
5 *504:12 0.000139224
6 *504:4 0.000513504
7 *504:12 *608:12 0.000114083
8 *504:12 *666:10 9.84794e-05
9 *504:31 *5932:A1 1.16872e-05
10 *504:31 *724:219 5.50106e-05
11 *6306:S *504:31 9.00923e-05
12 *6402:CLK *504:12 0.00010018
13 *6488:CLK *504:31 0.0004107
14 *232:192 *504:12 0
15 *233:274 *504:31 0
16 *339:75 *504:31 0
17 *470:56 *504:12 3.47879e-05
18 *471:12 *504:31 7.38898e-05
*RES
1 *6378:Q *504:4 23 
2 *504:4 *504:12 33.7079 
3 *504:12 *6527:A 23 
4 *504:4 *504:31 38.788 
5 *504:31 *5932:A2 23 
*END

*D_NET *505 0.00162417
*CONN
*I *5943:A2 I *D sky130_fd_sc_hd__mux4_1
*I *6633:A I *D sky130_fd_sc_hd__dlygate4sd3_1
*I *6379:Q O *D sky130_fd_sc_hd__dfxtp_1
*CAP
1 *5943:A2 0
2 *6633:A 2.34823e-05
3 *6379:Q 4.62096e-05
4 *505:23 0.000422174
5 *505:6 0.000491866
6 *505:23 *609:28 4.46853e-05
7 *505:23 *735:162 0.000111134
8 *6489:CLK *505:23 0.000107238
9 *174:14 *505:23 0.000139357
10 *245:6 *505:23 1.69977e-05
11 *472:10 *505:23 6.48142e-05
12 *482:104 *505:6 5.70419e-05
13 *482:104 *505:23 9.91701e-05
*RES
1 *6379:Q *505:6 24.0979 
2 *505:6 *6633:A 23.4971 
3 *505:6 *505:23 39.0832 
4 *505:23 *5943:A2 23 
*END

*D_NET *506 0.00286956
*CONN
*I *6576:A I *D sky130_fd_sc_hd__dlygate4sd3_1
*I *5952:A2 I *D sky130_fd_sc_hd__mux4_1
*I *6380:Q O *D sky130_fd_sc_hd__dfxtp_1
*CAP
1 *6576:A 0.000111491
2 *5952:A2 0.000255175
3 *6380:Q 0.000285029
4 *506:10 0.000651695
5 *5952:A2 *6101:A0 7.44161e-06
6 *5952:A2 *618:22 0.000202094
7 *5952:A2 *746:31 6.343e-05
8 *6576:A *746:20 4.90891e-05
9 *6576:A *757:50 7.52846e-06
10 *6576:A *757:56 0.000197575
11 *506:10 *757:56 0.000351608
12 *5952:S0 *5952:A2 9.84851e-05
13 *351:99 *5952:A2 0.000533918
14 *484:6 *506:10 5.50049e-05
15 *484:19 *506:10 0
16 *484:34 *6576:A 0
17 *484:34 *506:10 0
*RES
1 *6380:Q *506:10 43.3443 
2 *506:10 *5952:A2 47.0366 
3 *506:10 *6576:A 40.9621 
*END

*D_NET *507 0.00262104
*CONN
*I *5961:A2 I *D sky130_fd_sc_hd__mux4_1
*I *6556:A I *D sky130_fd_sc_hd__dlygate4sd3_1
*I *6381:Q O *D sky130_fd_sc_hd__dfxtp_1
*CAP
1 *5961:A2 0
2 *6556:A 0
3 *6381:Q 4.09304e-05
4 *507:27 0.000518254
5 *507:12 0.000193862
6 *507:6 0.000753047
7 *507:27 *6083:A0 0.000168985
8 *507:27 *6531:A 4.66036e-05
9 *507:27 *515:10 2.76611e-06
10 *507:27 *611:12 0.000395901
11 *507:27 *619:16 6.13136e-05
12 *6103:S *507:12 0
13 *230:224 *507:12 0.000277714
14 *260:8 *507:12 8.68575e-05
15 *261:8 *507:27 1.01712e-05
16 *486:106 *507:12 6.46393e-05
*RES
1 *6381:Q *507:6 23.6214 
2 *507:6 *507:12 36.1314 
3 *507:12 *6556:A 23 
4 *507:6 *507:27 40.7766 
5 *507:27 *5961:A2 23 
*END

*D_NET *508 0.00302433
*CONN
*I *5970:A2 I *D sky130_fd_sc_hd__mux4_1
*I *6609:A I *D sky130_fd_sc_hd__dlygate4sd3_1
*I *6382:Q O *D sky130_fd_sc_hd__dfxtp_1
*CAP
1 *5970:A2 0
2 *6609:A 7.19776e-05
3 *6382:Q 0.000254957
4 *508:35 0.000427405
5 *508:14 0.000499383
6 *508:12 0.000254957
7 *508:12 *620:14 6.17437e-06
8 *508:35 *5970:A0 1.01712e-05
9 *508:35 *620:25 9.51648e-05
10 *508:35 *756:6 9.58714e-05
11 *508:35 *768:26 4.2062e-05
12 *508:35 *768:32 0.00031761
13 *6492:D *508:12 0
14 *177:8 *508:12 0.000216721
15 *233:66 *508:35 4.6318e-06
16 *233:81 *508:35 4.56677e-05
17 *351:75 *508:35 1.16872e-05
18 *356:10 *508:12 0
19 *470:109 *6609:A 0.000185428
20 *470:109 *508:35 0.000421716
21 *475:10 *508:35 2.30292e-05
22 *484:56 *508:12 3.9721e-05
*RES
1 *6382:Q *508:12 43.3857 
2 *508:12 *508:14 15 
3 *508:14 *6609:A 25.0507 
4 *508:14 *508:35 41.3773 
5 *508:35 *5970:A2 23 
*END

*D_NET *509 0.00333938
*CONN
*I *5979:A2 I *D sky130_fd_sc_hd__mux4_1
*I *6580:A I *D sky130_fd_sc_hd__dlygate4sd3_1
*I *6383:Q O *D sky130_fd_sc_hd__dfxtp_1
*CAP
1 *5979:A2 0
2 *6580:A 0
3 *6383:Q 0.000317467
4 *509:27 0.000517174
5 *509:12 0.000517174
6 *509:10 0.000317467
7 *509:10 *621:16 0
8 *509:27 *6107:A1 0.000136524
9 *509:27 *6524:A 8.6123e-05
10 *509:27 *613:23 6.17219e-05
11 *509:27 *748:6 0.000310653
12 *509:27 *779:43 2.02872e-05
13 *509:27 *779:54 0.000185183
14 *6317:A *509:27 0.000182832
15 *278:8 *509:27 4.9662e-05
16 *345:12 *509:10 0.000163352
17 *351:31 *509:10 0
18 *470:96 *509:27 0.000185183
19 *479:188 *509:10 2.64616e-05
20 *479:196 *509:10 6.25829e-05
21 *492:8 *509:10 0
22 *493:8 *509:10 1.57571e-05
23 *493:10 *509:10 0.000183779
*RES
1 *6383:Q *509:10 45.2293 
2 *509:10 *509:12 15 
3 *509:12 *6580:A 23 
4 *509:12 *509:27 43.1432 
5 *509:27 *5979:A2 23 
*END

*D_NET *510 0.00224984
*CONN
*I *5988:A2 I *D sky130_fd_sc_hd__mux4_1
*I *6617:A I *D sky130_fd_sc_hd__dlygate4sd3_1
*I *6384:Q O *D sky130_fd_sc_hd__dfxtp_1
*CAP
1 *5988:A2 0.000518272
2 *6617:A 0
3 *6384:Q 0
4 *510:14 0.0002456
5 *510:4 0.000763872
6 *5988:A2 *614:35 8.45529e-05
7 *5988:A2 *622:30 1.94693e-05
8 *510:14 *6109:A0 5.50049e-05
9 *510:14 *622:30 0
10 *510:14 *625:116 0.000141164
11 *510:14 *724:120 3.13549e-05
12 *237:138 *510:14 0.000311554
13 *358:8 *510:14 7.89973e-05
*RES
1 *6384:Q *510:4 23 
2 *510:4 *510:14 36.0071 
3 *510:14 *6617:A 23 
4 *510:4 *5988:A2 30.4623 
*END

*D_NET *511 0.0028226
*CONN
*I *6628:A I *D sky130_fd_sc_hd__dlygate4sd3_1
*I *5997:A2 I *D sky130_fd_sc_hd__mux4_1
*I *6385:Q O *D sky130_fd_sc_hd__dfxtp_1
*CAP
1 *6628:A 2.32701e-05
2 *5997:A2 0.000403918
3 *6385:Q 0.000274544
4 *511:10 0.000701732
5 *5997:A2 *5997:A1 7.99386e-05
6 *5997:A2 *5997:A3 0.000408768
7 *5997:A2 *636:73 2.89436e-05
8 *5997:A2 *636:84 0.000167443
9 *6628:A *631:6 5.3304e-05
10 *511:10 *5997:A3 0.000156487
11 *511:10 *636:57 4.37586e-06
12 *6091:S *511:10 6.17437e-06
13 *292:10 *511:10 3.95159e-06
14 *292:18 *5997:A2 0
15 *347:10 *511:10 5.26733e-06
16 *362:12 *511:10 3.83778e-05
17 *382:151 *5997:A2 0.000364133
18 *382:151 *511:10 4.86681e-05
19 *401:62 *6628:A 5.3304e-05
*RES
1 *6385:Q *511:10 42.3086 
2 *511:10 *5997:A2 48.3002 
3 *511:10 *6628:A 38.6214 
*END

*D_NET *512 0.000877455
*CONN
*I *6636:A I *D sky130_fd_sc_hd__dlygate4sd3_1
*I *5932:A3 I *D sky130_fd_sc_hd__mux4_1
*I *6370:Q O *D sky130_fd_sc_hd__dfxtp_1
*CAP
1 *6636:A 5.86717e-05
2 *5932:A3 0
3 *6370:Q 0
4 *512:12 0.000352317
5 *512:4 0.000410988
6 *233:264 *512:12 0
7 *233:274 *512:12 0
8 *238:12 *6636:A 3.22879e-05
9 *238:12 *512:12 2.3191e-05
10 *339:71 *512:12 0
11 *339:75 *512:12 0
12 *340:10 *512:12 0
*RES
1 *6370:Q *512:4 23 
2 *512:4 *512:12 35.8207 
3 *512:12 *5932:A3 23 
4 *512:4 *6636:A 24.4707 
*END

*D_NET *513 0.00162277
*CONN
*I *6640:A I *D sky130_fd_sc_hd__dlygate4sd3_1
*I *5943:A3 I *D sky130_fd_sc_hd__mux4_1
*I *6371:Q O *D sky130_fd_sc_hd__dfxtp_1
*CAP
1 *6640:A 0
2 *5943:A3 0.000346188
3 *6371:Q 0.000339689
4 *513:10 0.000685876
5 *5943:A3 *735:162 5.89925e-05
6 *513:10 *735:162 0.000192022
7 *6371:CLK *5943:A3 0
8 *6371:CLK *513:10 0
9 *76:8 *513:10 0
*RES
1 *6371:Q *513:10 42.9093 
2 *513:10 *5943:A3 43.1579 
3 *513:10 *6640:A 38 
*END

*D_NET *514 0.00174429
*CONN
*I *5952:A3 I *D sky130_fd_sc_hd__mux4_1
*I *6538:A I *D sky130_fd_sc_hd__dlygate4sd3_1
*I *6372:Q O *D sky130_fd_sc_hd__dfxtp_1
*CAP
1 *5952:A3 0.000213953
2 *6538:A 0.000359839
3 *6372:Q 0.000137339
4 *514:8 0.000711132
5 *5952:A3 *746:31 0
6 *6538:A *746:31 0
7 *6538:A *746:37 0
8 *514:8 *610:12 0.000315852
9 *5952:S0 *5952:A3 0
10 *5952:S1 *5952:A3 0
11 *6404:CLK *514:8 6.17437e-06
12 *254:10 *5952:A3 0
13 *254:10 *6538:A 0
14 *339:50 *6538:A 0
15 *339:61 *6538:A 0
*RES
1 *6372:Q *514:8 41.9564 
2 *514:8 *6538:A 44.1314 
3 *514:8 *5952:A3 41.2314 
*END

*D_NET *515 0.00163501
*CONN
*I *6531:A I *D sky130_fd_sc_hd__dlygate4sd3_1
*I *5961:A3 I *D sky130_fd_sc_hd__mux4_1
*I *6373:Q O *D sky130_fd_sc_hd__dfxtp_1
*CAP
1 *6531:A 0.000410531
2 *5961:A3 3.13585e-05
3 *6373:Q 0.000148552
4 *515:10 0.000590442
5 *5961:A3 *619:16 5.41385e-05
6 *6531:A *619:16 0
7 *6531:A *670:10 0
8 *5962:A1 *6531:A 0
9 *6083:S *6531:A 8.47448e-05
10 *6083:S *515:10 8.16253e-05
11 *176:8 *6531:A 0
12 *233:247 *515:10 5.67058e-05
13 *233:253 *515:10 0
14 *261:8 *5961:A3 3.71369e-05
15 *486:141 *6531:A 9.04083e-05
16 *507:27 *6531:A 4.66036e-05
17 *507:27 *515:10 2.76611e-06
*RES
1 *6373:Q *515:10 40.8793 
2 *515:10 *5961:A3 39.0979 
3 *515:10 *6531:A 46.2443 
*END

*D_NET *516 0.00161134
*CONN
*I *6600:A I *D sky130_fd_sc_hd__dlygate4sd3_1
*I *5970:A3 I *D sky130_fd_sc_hd__mux4_1
*I *6374:Q O *D sky130_fd_sc_hd__dfxtp_1
*CAP
1 *6600:A 7.15619e-05
2 *5970:A3 0
3 *6374:Q 0
4 *516:16 0.000472275
5 *516:4 0.000543837
6 *516:16 *768:32 0.000187986
7 *516:16 *768:38 0
8 *6160:S *516:16 0.000103349
9 *6374:CLK *6600:A 3.56063e-05
10 *6374:CLK *516:16 5.10686e-05
11 *232:77 *516:16 0
12 *233:66 *516:16 4.90891e-05
13 *382:24 *516:16 2.76611e-06
14 *382:49 *6600:A 7.51453e-06
15 *387:8 *516:16 8.62876e-05
*RES
1 *6374:Q *516:4 23 
2 *516:4 *516:16 39.8807 
3 *516:16 *5970:A3 23 
4 *516:4 *6600:A 24.4707 
*END

*D_NET *517 0.00195569
*CONN
*I *6524:A I *D sky130_fd_sc_hd__dlygate4sd3_1
*I *5979:A3 I *D sky130_fd_sc_hd__mux4_1
*I *6375:Q O *D sky130_fd_sc_hd__dfxtp_1
*CAP
1 *6524:A 0.000467433
2 *5979:A3 5.1337e-05
3 *6375:Q 0.000213864
4 *517:6 0.000732634
5 *5979:A3 *613:23 4.06849e-05
6 *6524:A *613:23 6.31257e-05
7 *517:6 *613:23 6.06173e-05
8 *277:10 *6524:A 5.70419e-05
9 *492:16 *517:6 0.000182826
10 *509:27 *6524:A 8.6123e-05
*RES
1 *6375:Q *517:6 27.4329 
2 *517:6 *5979:A3 24.595 
3 *517:6 *6524:A 30.83 
*END

*D_NET *518 0.00217935
*CONN
*I *5988:A3 I *D sky130_fd_sc_hd__mux4_1
*I *6607:A I *D sky130_fd_sc_hd__dlygate4sd3_1
*I *6376:Q O *D sky130_fd_sc_hd__dfxtp_1
*CAP
1 *5988:A3 0
2 *6607:A 0
3 *6376:Q 0.000241397
4 *518:25 0.000308056
5 *518:12 0.000549452
6 *518:12 *775:6 0.000201747
7 *518:25 *775:6 4.17736e-05
8 *6089:S *518:12 0.000110425
9 *6089:S *518:25 2.93747e-05
10 *230:140 *518:25 0.000411632
11 *232:47 *518:25 1.83223e-05
12 *284:16 *518:25 0
13 *482:59 *518:12 0.000267167
*RES
1 *6376:Q *518:12 29.525 
2 *518:12 *6607:A 23 
3 *518:12 *518:25 36.4007 
4 *518:25 *5988:A3 23 
*END

*D_NET *519 0.00370707
*CONN
*I *6635:A I *D sky130_fd_sc_hd__dlygate4sd3_1
*I *5997:A3 I *D sky130_fd_sc_hd__mux4_1
*I *6377:Q O *D sky130_fd_sc_hd__dfxtp_1
*CAP
1 *6635:A 0.000158605
2 *5997:A3 0.000518089
3 *6377:Q 0.00028276
4 *519:10 0.000959454
5 *5997:A3 *636:65 0.000230858
6 *5997:A3 *636:84 0.000141869
7 *5997:A3 *788:8 8.85189e-05
8 *6635:A *638:10 8.41336e-05
9 *519:10 *636:65 0.000111852
10 *5997:A2 *5997:A3 0.000408768
11 *6091:S *6635:A 9.41704e-05
12 *114:12 *5997:A3 0
13 *180:10 *5997:A3 0
14 *339:12 *519:10 0.000166522
15 *362:12 *5997:A3 9.21347e-06
16 *362:12 *519:10 6.02277e-06
17 *382:141 *519:10 3.3746e-05
18 *390:12 *5997:A3 3.03886e-05
19 *411:77 *519:10 0.000148698
20 *489:66 *5997:A3 7.69114e-05
21 *511:10 *5997:A3 0.000156487
*RES
1 *6377:Q *519:10 43.6136 
2 *519:10 *5997:A3 49.4757 
3 *519:10 *6635:A 41.0243 
*END

*D_NET *520 0.00336145
*CONN
*I *6549:A I *D sky130_fd_sc_hd__dlygate4sd3_1
*I *5931:A0 I *D sky130_fd_sc_hd__mux4_1
*I *6362:Q O *D sky130_fd_sc_hd__dfxtp_1
*CAP
1 *6549:A 0.000273061
2 *5931:A0 0
3 *6362:Q 0
4 *520:22 0.000956279
5 *520:4 0.00122934
6 *520:22 *5931:A3 0.000129105
7 *520:22 *536:23 1.16872e-05
8 *5931:S1 *520:22 3.52383e-05
9 *5933:A0 *520:22 2.8258e-05
10 *230:211 *6549:A 0.000355023
11 *230:211 *520:22 9.67842e-05
12 *230:224 *6549:A 4.2573e-05
13 *232:151 *520:22 5.62237e-06
14 *234:8 *520:22 8.62783e-05
15 *235:14 *6549:A 3.53115e-05
16 *259:18 *520:22 7.68929e-05
*RES
1 *6362:Q *520:4 23 
2 *520:4 *520:22 44.6657 
3 *520:22 *5931:A0 23 
4 *520:4 *6549:A 28.8829 
*END

*D_NET *521 0.00416836
*CONN
*I *6644:A I *D sky130_fd_sc_hd__dlygate4sd3_1
*I *5942:A0 I *D sky130_fd_sc_hd__mux4_1
*I *6363:Q O *D sky130_fd_sc_hd__dfxtp_1
*CAP
1 *6644:A 0
2 *5942:A0 0
3 *6363:Q 0.000282341
4 *521:33 0.000136603
5 *521:22 0.00103519
6 *521:6 0.00145413
7 *521:22 *6006:A0 7.53384e-06
8 *521:22 *675:8 4.08641e-05
9 *6363:CLK *521:22 0.000317615
10 *6363:D *521:22 3.01878e-05
11 *60:10 *521:22 9.41704e-05
12 *230:126 *521:22 0.000348465
13 *232:167 *521:22 4.33731e-05
14 *232:192 *521:33 0.000277714
15 *233:191 *521:22 0.00010018
16 *470:56 *521:33 0
*RES
1 *6363:Q *521:6 26.48 
2 *521:6 *521:22 48.0629 
3 *521:22 *5942:A0 23 
4 *521:6 *521:33 33.6664 
5 *521:33 *6644:A 23 
*END

*D_NET *522 0.00311448
*CONN
*I *6591:A I *D sky130_fd_sc_hd__dlygate4sd3_1
*I *5951:A0 I *D sky130_fd_sc_hd__mux4_1
*I *6364:Q O *D sky130_fd_sc_hd__dfxtp_1
*CAP
1 *6591:A 0
2 *5951:A0 0
3 *6364:Q 0.000192386
4 *522:31 0.000149411
5 *522:20 0.000789035
6 *522:6 0.00113083
7 *522:20 *530:16 0.000137651
8 *522:20 *538:27 3.1547e-05
9 *5951:S0 *522:20 7.52566e-05
10 *16:5 *522:20 6.78463e-05
11 *16:5 *522:31 0.000140671
12 *232:141 *522:20 0.000209415
13 *233:139 *522:20 4.83778e-05
14 *233:150 *522:20 2.89463e-05
15 *252:10 *522:20 1.01436e-05
16 *484:96 *522:20 9.67842e-05
17 *486:72 *522:6 6.17437e-06
18 *486:72 *522:31 0
*RES
1 *6364:Q *522:6 25.5271 
2 *522:6 *522:20 43.775 
3 *522:20 *5951:A0 23 
4 *522:6 *522:31 33.6664 
5 *522:31 *6591:A 23 
*END

*D_NET *523 0.0032031
*CONN
*I *6532:A I *D sky130_fd_sc_hd__dlygate4sd3_1
*I *5960:A0 I *D sky130_fd_sc_hd__mux4_1
*I *6365:Q O *D sky130_fd_sc_hd__dfxtp_1
*CAP
1 *6532:A 2.34823e-05
2 *5960:A0 0
3 *6365:Q 9.53785e-05
4 *523:26 0.000795332
5 *523:12 0.00122725
6 *523:8 0.000503814
7 *523:8 *671:8 0
8 *523:26 *5960:A3 5.50106e-05
9 *523:26 *531:16 3.22879e-05
10 *6357:D *523:26 8.38361e-05
11 *70:10 *523:26 0.0002263
12 *232:141 *523:26 3.93338e-05
13 *319:105 *523:26 3.47879e-05
14 *486:93 *523:26 8.62876e-05
*RES
1 *6365:Q *523:8 39.5536 
2 *523:8 *523:12 21.815 
3 *523:12 *523:26 43.6714 
4 *523:26 *5960:A0 23 
5 *523:12 *6532:A 23.4971 
*END

*D_NET *524 0.00288993
*CONN
*I *5969:A0 I *D sky130_fd_sc_hd__mux4_1
*I *6553:A I *D sky130_fd_sc_hd__dlygate4sd3_1
*I *6366:Q O *D sky130_fd_sc_hd__dfxtp_1
*CAP
1 *5969:A0 0.000656925
2 *6553:A 0.000273403
3 *6366:Q 0.000223697
4 *524:8 0.00115402
5 *5969:A0 *5969:A2 0.000116967
6 *233:81 *5969:A0 3.47776e-05
7 *233:81 *6553:A 0.000110116
8 *233:98 *5969:A0 6.51384e-06
9 *233:139 *5969:A0 1.17821e-05
10 *268:12 *6553:A 0
11 *329:50 *6553:A 2.69545e-05
12 *329:62 *6553:A 5.69698e-05
13 *484:44 *524:8 0.000217798
*RES
1 *6366:Q *524:8 41.48 
2 *524:8 *6553:A 43.3857 
3 *524:8 *5969:A0 46.8657 
*END

*D_NET *525 0.00287081
*CONN
*I *6616:A I *D sky130_fd_sc_hd__dlygate4sd3_1
*I *5978:A0 I *D sky130_fd_sc_hd__mux4_1
*I *6367:Q O *D sky130_fd_sc_hd__dfxtp_1
*CAP
1 *6616:A 0.00012029
2 *5978:A0 0.000757701
3 *6367:Q 0.000224469
4 *525:10 0.00110246
5 *5978:A0 *5978:A2 0.000128416
6 *5978:A0 *541:6 4.04598e-06
7 *47:8 *6616:A 0
8 *47:8 *525:10 0
9 *233:98 *5978:A0 0.00015428
10 *298:37 *525:10 1.7009e-05
11 *303:10 *6616:A 0
12 *303:10 *525:10 0
13 *493:71 *6616:A 0.000193388
14 *493:73 *6616:A 2.77955e-05
15 *493:73 *525:10 0.000140958
*RES
1 *6367:Q *525:10 41.48 
2 *525:10 *5978:A0 49.6621 
3 *525:10 *6616:A 40.9621 
*END

*D_NET *526 0.00465376
*CONN
*I *6539:A I *D sky130_fd_sc_hd__dlygate4sd3_1
*I *5987:A0 I *D sky130_fd_sc_hd__mux4_1
*I *6368:Q O *D sky130_fd_sc_hd__dfxtp_1
*CAP
1 *6539:A 0
2 *5987:A0 0
3 *6368:Q 0.000295501
4 *526:35 0.000348219
5 *526:22 0.000831708
6 *526:6 0.00147543
7 *526:22 *5987:A3 0.000162061
8 *526:22 *6053:A0 8.08139e-06
9 *526:22 *534:31 0.000292865
10 *526:22 *542:6 1.24376e-05
11 *526:22 *542:27 0.000182832
12 *6368:CLK *526:22 5.41385e-05
13 *6368:D *526:22 4.9054e-06
14 *230:126 *526:35 0.000277714
15 *232:157 *526:22 0.000384169
16 *232:167 *526:22 4.6318e-06
17 *319:124 *526:6 1.05235e-05
18 *319:124 *526:22 8.22145e-05
19 *319:124 *526:35 9.26098e-05
20 *329:87 *526:35 0
21 *460:80 *526:22 3.45333e-05
22 *485:118 *526:6 9.91895e-05
*RES
1 *6368:Q *526:6 26.9564 
2 *526:6 *526:22 45.5564 
3 *526:22 *5987:A0 23 
4 *526:6 *526:35 37.1464 
5 *526:35 *6539:A 23 
*END

*D_NET *527 0.00317318
*CONN
*I *6555:A I *D sky130_fd_sc_hd__dlygate4sd3_1
*I *5996:A0 I *D sky130_fd_sc_hd__mux4_1
*I *6369:Q O *D sky130_fd_sc_hd__dfxtp_1
*CAP
1 *6555:A 0
2 *5996:A0 0
3 *6369:Q 0.000190289
4 *527:27 9.53088e-05
5 *527:14 0.000913618
6 *527:6 0.00119922
7 *527:14 *6018:A1 0
8 *527:14 *543:10 6.18235e-05
9 *527:14 *551:27 0.00035673
10 *527:27 *694:6 5.3304e-05
11 *6369:CLK *527:14 1.94693e-05
12 *6369:D *527:14 3.24476e-06
13 *298:18 *527:14 0
14 *298:33 *527:6 2.35238e-05
15 *298:33 *527:14 4.12569e-05
16 *319:12 *527:14 0
17 *329:10 *527:27 6.43005e-05
18 *329:29 *527:27 1.14452e-05
19 *493:10 *527:27 0.000139647
*RES
1 *6369:Q *527:6 25.5271 
2 *527:6 *527:14 43.34 
3 *527:14 *5996:A0 23 
4 *527:6 *527:27 32.5271 
5 *527:27 *6555:A 23 
*END

*D_NET *528 0.00257133
*CONN
*I *6523:A I *D sky130_fd_sc_hd__dlygate4sd3_1
*I *5931:A1 I *D sky130_fd_sc_hd__mux4_1
*I *6354:Q O *D sky130_fd_sc_hd__dfxtp_1
*CAP
1 *6523:A 0
2 *5931:A1 0
3 *6354:Q 0.000130738
4 *528:26 0.000509325
5 *528:12 0.000509325
6 *528:10 0.000130738
7 *528:26 *5931:A3 0.000191633
8 *528:26 *661:8 5.51294e-05
9 *528:26 *724:151 8.83309e-05
10 *6042:A *528:26 0.000181125
11 *59:10 *528:26 8.1796e-05
12 *232:143 *528:10 0.000129504
13 *232:151 *528:10 1.01436e-05
14 *232:151 *528:26 0
15 *232:157 *528:26 1.01436e-05
16 *320:10 *528:26 0.000245565
17 *351:99 *528:10 9.5877e-05
18 *460:78 *528:26 6.00655e-05
19 *486:34 *528:10 0.000141888
*RES
1 *6354:Q *528:10 41.0036 
2 *528:10 *528:12 15 
3 *528:12 *528:26 41.6 
4 *528:26 *5931:A1 23 
5 *528:12 *6523:A 23 
*END

*D_NET *529 0.00299799
*CONN
*I *6642:A I *D sky130_fd_sc_hd__dlygate4sd3_1
*I *5942:A1 I *D sky130_fd_sc_hd__mux4_1
*I *6355:Q O *D sky130_fd_sc_hd__dfxtp_1
*CAP
1 *6642:A 0
2 *5942:A1 0.000785327
3 *6355:Q 0.000313233
4 *529:16 0.000836619
5 *529:10 0.000364525
6 *5942:A1 *645:10 6.39993e-05
7 *529:10 *735:170 0.000108681
8 *529:16 *645:10 5.3304e-05
9 *5942:S1 *5942:A1 0.000214553
10 *233:191 *5942:A1 0.000146821
11 *351:119 *529:10 0.000110922
*RES
1 *6355:Q *529:10 42.5571 
2 *529:10 *529:16 16.1186 
3 *529:16 *5942:A1 35.4907 
4 *529:16 *6642:A 23 
*END

*D_NET *530 0.0036134
*CONN
*I *6653:A I *D sky130_fd_sc_hd__dlygate4sd3_1
*I *5951:A1 I *D sky130_fd_sc_hd__mux4_1
*I *6356:Q O *D sky130_fd_sc_hd__dfxtp_1
*CAP
1 *6653:A 0
2 *5951:A1 0
3 *6356:Q 0
4 *530:29 0.000293637
5 *530:16 0.00111908
6 *530:4 0.00141272
7 *530:16 *546:25 0
8 *530:16 *746:14 0
9 *530:16 *746:227 7.1529e-05
10 *530:16 *761:8 5.21127e-05
11 *6356:D *530:16 4.82016e-05
12 *6364:CLK *530:16 0.000216721
13 *6490:CLK *530:16 5.94125e-05
14 *61:8 *530:16 2.3696e-05
15 *232:118 *530:16 9.48381e-06
16 *298:50 *530:16 5.50049e-05
17 *319:78 *530:16 0
18 *319:78 *530:29 3.67392e-05
19 *319:84 *530:16 2.64616e-05
20 *322:8 *530:29 1.0092e-05
21 *329:70 *530:16 0
22 *460:66 *530:16 0
23 *484:96 *530:16 4.08561e-05
24 *522:20 *530:16 0.000137651
*RES
1 *6356:Q *530:4 23 
2 *530:4 *530:16 49.4714 
3 *530:16 *5951:A1 23 
4 *530:4 *530:29 35.2407 
5 *530:29 *6653:A 23 
*END

*D_NET *531 0.00231909
*CONN
*I *6521:A I *D sky130_fd_sc_hd__dlygate4sd3_1
*I *5960:A1 I *D sky130_fd_sc_hd__mux4_1
*I *6357:Q O *D sky130_fd_sc_hd__dfxtp_1
*CAP
1 *6521:A 0.000203597
2 *5960:A1 0
3 *6357:Q 0
4 *531:16 0.000739708
5 *531:6 0.000943306
6 *531:16 *5960:A3 0.000149025
7 *531:16 *539:27 1.42605e-05
8 *5960:S0 *531:16 0.000185434
9 *6294:S *531:16 0
10 *233:306 *531:16 3.3123e-05
11 *333:10 *6521:A 0
12 *333:10 *531:16 0
13 *486:93 *531:16 1.83449e-05
14 *523:26 *531:16 3.22879e-05
*RES
1 *6357:Q *531:6 38 
2 *531:6 *531:16 27.2007 
3 *531:16 *5960:A1 23 
4 *531:6 *6521:A 41.6664 
*END

*D_NET *532 0.00335042
*CONN
*I *6627:A I *D sky130_fd_sc_hd__dlygate4sd3_1
*I *5969:A1 I *D sky130_fd_sc_hd__mux4_1
*I *6358:Q O *D sky130_fd_sc_hd__dfxtp_1
*CAP
1 *6627:A 0
2 *5969:A1 0
3 *6358:Q 0.000159658
4 *532:25 9.34261e-05
5 *532:14 0.000599681
6 *532:6 0.000852765
7 *532:14 *540:12 7.8128e-05
8 *532:14 *548:8 1.83026e-05
9 *532:14 *768:18 0
10 *532:25 *768:14 1.00286e-05
11 *532:25 *768:16 2.51913e-05
12 *6358:D *532:6 0.000219611
13 *6358:D *532:14 0.000320276
14 *303:10 *532:14 0
15 *329:46 *532:14 0.000163352
16 *460:43 *532:14 0.000428374
17 *460:60 *532:25 8.36198e-05
18 *465:8 *532:14 0.00029801
*RES
1 *6358:Q *532:6 25.5271 
2 *532:6 *532:14 43.2571 
3 *532:14 *5969:A1 23 
4 *532:6 *532:25 31.9057 
5 *532:25 *6627:A 23 
*END

*D_NET *533 0.00359832
*CONN
*I *6622:A I *D sky130_fd_sc_hd__dlygate4sd3_1
*I *5978:A1 I *D sky130_fd_sc_hd__mux4_1
*I *6359:Q O *D sky130_fd_sc_hd__dfxtp_1
*CAP
1 *6622:A 0
2 *5978:A1 0
3 *6359:Q 0
4 *533:29 0.000314837
5 *533:18 0.000871529
6 *533:4 0.00118637
7 *533:18 *5978:A2 0.000339586
8 *533:18 *541:6 0.000195269
9 *533:18 *549:29 9.35072e-05
10 *533:18 *779:33 0
11 *533:29 *779:181 0.000270813
12 *6484:CLK *533:29 0
13 *319:49 *533:18 8.72173e-05
14 *319:51 *533:18 3.63546e-05
15 *335:8 *533:18 8.62876e-05
16 *493:69 *533:18 0.000116554
17 *493:71 *533:29 0
*RES
1 *6359:Q *533:4 23 
2 *533:4 *533:18 44.8314 
3 *533:18 *5978:A1 23 
4 *533:4 *533:29 36.4836 
5 *533:29 *6622:A 23 
*END

*D_NET *534 0.00331372
*CONN
*I *6651:A I *D sky130_fd_sc_hd__dlygate4sd3_1
*I *5987:A1 I *D sky130_fd_sc_hd__mux4_1
*I *6360:Q O *D sky130_fd_sc_hd__dfxtp_1
*CAP
1 *6651:A 0
2 *5987:A1 0.000252581
3 *6360:Q 0.000201188
4 *534:31 0.000200219
5 *534:16 0.000782352
6 *534:12 0.000530741
7 *5987:A1 *5987:A3 0.00012082
8 *5987:A1 *542:6 4.37586e-06
9 *534:12 *6053:A1 0
10 *534:16 *5987:A3 5.61579e-05
11 *534:16 *542:27 9.0643e-06
12 *6054:A *534:12 0.000108446
13 *232:157 *534:31 0.000140558
14 *233:181 *534:12 7.56417e-05
15 *284:8 *534:16 8.20126e-06
16 *326:8 *534:31 8.62876e-05
17 *460:80 *534:31 0.00024563
18 *485:14 *534:12 1.83667e-05
19 *485:86 *534:12 0.000180224
20 *526:22 *534:31 0.000292865
*RES
1 *6360:Q *534:12 42.8057 
2 *534:12 *534:16 18.9564 
3 *534:16 *5987:A1 26.8529 
4 *534:16 *534:31 37.54 
5 *534:31 *6651:A 23 
*END

*D_NET *535 0.00347005
*CONN
*I *6583:A I *D sky130_fd_sc_hd__dlygate4sd3_1
*I *5996:A1 I *D sky130_fd_sc_hd__mux4_1
*I *6361:Q O *D sky130_fd_sc_hd__dfxtp_1
*CAP
1 *6583:A 0.000225723
2 *5996:A1 0
3 *6361:Q 7.37141e-05
4 *535:18 0.00089
5 *535:8 0.00118944
6 *6583:A *751:8 0
7 *535:18 *5996:A2 0.00039897
8 *535:18 *551:27 0.000165583
9 *5996:S0 *535:18 5.50049e-05
10 *6361:CLK *535:8 5.41288e-05
11 *232:305 *535:18 9.48381e-06
12 *319:12 *535:18 0
13 *319:39 *6583:A 5.50049e-05
14 *319:39 *535:18 0
15 *337:8 *535:18 4.41722e-05
16 *493:27 *6583:A 3.0647e-05
17 *493:27 *535:18 0.000176072
18 *493:35 *535:18 0.000102107
*RES
1 *6361:Q *535:8 39.0979 
2 *535:8 *535:18 31.8821 
3 *535:18 *5996:A1 23 
4 *535:8 *6583:A 42.2879 
*END

*D_NET *536 0.00207567
*CONN
*I *5931:A2 I *D sky130_fd_sc_hd__mux4_1
*I *6618:A I *D sky130_fd_sc_hd__dlygate4sd3_1
*I *6338:Q O *D sky130_fd_sc_hd__dfxtp_1
*CAP
1 *5931:A2 0
2 *6618:A 0
3 *6338:Q 9.32613e-05
4 *536:23 0.000564799
5 *536:8 0.00065806
6 *536:8 *786:10 1.32314e-05
7 *536:23 *786:10 0.000145611
8 *232:151 *536:23 7.02666e-06
9 *233:181 *536:23 0.000135252
10 *486:10 *536:23 0.000252428
11 *486:34 *536:23 0.000194318
12 *520:22 *536:23 1.16872e-05
*RES
1 *6338:Q *536:8 24.595 
2 *536:8 *6618:A 23 
3 *536:8 *536:23 42.993 
4 *536:23 *5931:A2 23 
*END

*D_NET *537 0.00289112
*CONN
*I *5942:A2 I *D sky130_fd_sc_hd__mux4_1
*I *6536:A I *D sky130_fd_sc_hd__dlygate4sd3_1
*I *6339:Q O *D sky130_fd_sc_hd__dfxtp_1
*CAP
1 *5942:A2 0
2 *6536:A 0
3 *6339:Q 6.3106e-05
4 *537:29 0.000419488
5 *537:12 0.00069999
6 *537:8 0.000343608
7 *537:8 *625:122 0
8 *537:8 *724:122 0.00014411
9 *537:12 *6043:A1 0.00012189
10 *537:12 *6290:A0 9.84794e-05
11 *537:29 *5942:A3 1.14452e-05
12 *537:29 *6043:A1 0.000509572
13 *537:29 *645:10 1.16872e-05
14 *5942:S1 *537:29 2.50451e-05
15 *6043:S *537:29 9.75779e-05
16 *6290:S *537:12 0.000143655
17 *6355:CLK *537:29 5.67058e-05
18 *232:167 *537:29 3.97374e-05
19 *232:184 *537:29 5.11935e-06
20 *237:163 *537:29 0
21 *321:10 *537:29 7.2e-05
22 *462:8 *537:8 2.79004e-05
*RES
1 *6339:Q *537:8 39.9057 
2 *537:8 *537:12 21.3386 
3 *537:12 *6536:A 23 
4 *537:12 *537:29 40.3209 
5 *537:29 *5942:A2 23 
*END

*D_NET *538 0.00163459
*CONN
*I *5951:A2 I *D sky130_fd_sc_hd__mux4_1
*I *6605:A I *D sky130_fd_sc_hd__dlygate4sd3_1
*I *6340:Q O *D sky130_fd_sc_hd__dfxtp_1
*CAP
1 *5951:A2 0
2 *6605:A 0
3 *6340:Q 0
4 *538:27 0.000440857
5 *538:12 0.000124536
6 *538:4 0.000565394
7 *538:12 *746:14 4.83778e-05
8 *538:12 *773:10 0
9 *538:27 *546:25 6.48049e-05
10 *5951:S0 *538:27 1.14762e-05
11 *6364:CLK *538:12 0
12 *232:141 *538:27 7.44642e-05
13 *329:70 *538:27 6.25829e-05
14 *484:96 *538:12 5.67058e-05
15 *484:96 *538:27 0.000153841
16 *522:20 *538:27 3.1547e-05
*RES
1 *6340:Q *538:4 23 
2 *538:4 *538:12 32.5271 
3 *538:12 *6605:A 23 
4 *538:4 *538:27 36.9859 
5 *538:27 *5951:A2 23 
*END

*D_NET *539 0.00175649
*CONN
*I *5960:A2 I *D sky130_fd_sc_hd__mux4_1
*I *6634:A I *D sky130_fd_sc_hd__dlygate4sd3_1
*I *6341:Q O *D sky130_fd_sc_hd__dfxtp_1
*CAP
1 *5960:A2 0
2 *6634:A 0
3 *6341:Q 4.18057e-05
4 *539:27 0.000396038
5 *539:8 0.000437844
6 *232:143 *539:27 0
7 *233:306 *539:27 6.09811e-05
8 *329:81 *539:8 5.50106e-05
9 *329:81 *539:27 0.000359483
10 *470:145 *539:8 1.41077e-05
11 *470:145 *539:27 0.00036993
12 *486:93 *539:27 7.02666e-06
13 *531:16 *539:27 1.42605e-05
*RES
1 *6341:Q *539:8 24.1186 
2 *539:8 *6634:A 23 
3 *539:8 *539:27 40.9423 
4 *539:27 *5960:A2 23 
*END

*D_NET *540 0.00155646
*CONN
*I *5969:A2 I *D sky130_fd_sc_hd__mux4_1
*I *6612:A I *D sky130_fd_sc_hd__dlygate4sd3_1
*I *6342:Q O *D sky130_fd_sc_hd__dfxtp_1
*CAP
1 *5969:A2 0.000262551
2 *6612:A 0
3 *6342:Q 2.24686e-05
4 *540:12 0.00011534
5 *540:6 0.000400359
6 *5969:A0 *5969:A2 0.000116967
7 *233:98 *5969:A2 0.000505647
8 *233:98 *540:6 5.50049e-05
9 *303:10 *540:12 0
10 *532:14 *540:12 7.8128e-05
*RES
1 *6342:Q *540:6 23.6214 
2 *540:6 *540:12 32.2579 
3 *540:12 *6612:A 23 
4 *540:6 *5969:A2 30.1102 
*END

*D_NET *541 0.00136071
*CONN
*I *5978:A2 I *D sky130_fd_sc_hd__mux4_1
*I *6571:A I *D sky130_fd_sc_hd__dlygate4sd3_1
*I *6343:Q O *D sky130_fd_sc_hd__dfxtp_1
*CAP
1 *5978:A2 0.000142065
2 *6571:A 0
3 *6343:Q 4.53958e-05
4 *541:12 0.000136452
5 *541:6 0.000323913
6 *5978:A0 *5978:A2 0.000128416
7 *5978:A0 *541:6 4.04598e-06
8 *6014:S *541:12 4.55681e-05
9 *460:31 *541:12 0
10 *533:18 *5978:A2 0.000339586
11 *533:18 *541:6 0.000195269
*RES
1 *6343:Q *541:6 24.5743 
2 *541:6 *541:12 32.2579 
3 *541:12 *6571:A 23 
4 *541:6 *5978:A2 28.2045 
*END

*D_NET *542 0.00210498
*CONN
*I *5987:A2 I *D sky130_fd_sc_hd__mux4_1
*I *6520:A I *D sky130_fd_sc_hd__dlygate4sd3_1
*I *6344:Q O *D sky130_fd_sc_hd__dfxtp_1
*CAP
1 *5987:A2 0
2 *6520:A 0
3 *6344:Q 0.000295947
4 *542:27 0.000336819
5 *542:12 8.0529e-05
6 *542:6 0.000713295
7 *542:6 *5987:A3 1.21972e-05
8 *542:12 *6650:A 0.000163352
9 *542:27 *5987:A3 6.22712e-05
10 *542:27 *625:142 6.25829e-05
11 *5987:A1 *542:6 4.37586e-06
12 *5987:S0 *542:27 5.50049e-05
13 *5987:S1 *542:27 2.60152e-05
14 *6290:S *542:12 4.43717e-05
15 *284:16 *542:27 1.01436e-05
16 *460:80 *542:12 3.3746e-05
17 *526:22 *542:6 1.24376e-05
18 *526:22 *542:27 0.000182832
19 *534:16 *542:27 9.0643e-06
*RES
1 *6344:Q *542:6 26.48 
2 *542:6 *542:12 32.2579 
3 *542:12 *6520:A 23 
4 *542:6 *542:27 35.5566 
5 *542:27 *5987:A2 23 
*END

*D_NET *543 0.00140517
*CONN
*I *5996:A2 I *D sky130_fd_sc_hd__mux4_1
*I *6606:A I *D sky130_fd_sc_hd__dlygate4sd3_1
*I *6345:Q O *D sky130_fd_sc_hd__dfxtp_1
*CAP
1 *5996:A2 0.000169983
2 *6606:A 0
3 *6345:Q 0
4 *543:10 0.000123886
5 *543:4 0.000293869
6 *5996:S0 *5996:A2 5.50049e-05
7 *298:18 *543:10 0.000124873
8 *319:12 *543:10 0
9 *493:35 *5996:A2 0.000176763
10 *527:14 *543:10 6.18235e-05
11 *535:18 *5996:A2 0.00039897
*RES
1 *6345:Q *543:4 23 
2 *543:4 *543:10 33.3143 
3 *543:10 *6606:A 23 
4 *543:4 *5996:A2 29.6338 
*END

*D_NET *544 0.00276403
*CONN
*I *6522:A I *D sky130_fd_sc_hd__dlygate4sd3_1
*I *5931:A3 I *D sky130_fd_sc_hd__mux4_1
*I *6480:Q O *D sky130_fd_sc_hd__dfxtp_1
*CAP
1 *6522:A 0.000270043
2 *5931:A3 0.000206558
3 *6480:Q 0.000286617
4 *544:10 0.000763218
5 *544:10 *724:143 0.000125488
6 *544:10 *786:10 0
7 *232:151 *5931:A3 6.53382e-05
8 *232:157 *5931:A3 5.3304e-05
9 *460:78 *6522:A 0.000429704
10 *460:78 *544:10 0.000209101
11 *460:80 *544:10 3.39192e-05
12 *461:10 *544:10 0
13 *520:22 *5931:A3 0.000129105
14 *528:26 *5931:A3 0.000191633
*RES
1 *6480:Q *544:10 43.8414 
2 *544:10 *5931:A3 42.93 
3 *544:10 *6522:A 43.7793 
*END

*D_NET *545 0.00334804
*CONN
*I *5942:A3 I *D sky130_fd_sc_hd__mux4_1
*I *6646:A I *D sky130_fd_sc_hd__dlygate4sd3_1
*I *6481:Q O *D sky130_fd_sc_hd__dfxtp_1
*CAP
1 *5942:A3 0.000118981
2 *6646:A 0
3 *6481:Q 0.000483412
4 *545:16 0.00077177
5 *545:8 0.00137416
6 *545:16 *649:10 4.06849e-05
7 *5945:S *545:16 3.91386e-05
8 *231:22 *545:16 0
9 *232:184 *5942:A3 6.99782e-05
10 *232:184 *545:16 0.000134585
11 *237:150 *545:16 7.39615e-05
12 *237:163 *5942:A3 0
13 *237:163 *545:16 0
14 *243:14 *545:16 1.14452e-05
15 *247:6 *545:16 0.000218476
16 *537:29 *5942:A3 1.14452e-05
*RES
1 *6481:Q *545:8 43.8621 
2 *545:8 *545:16 29.79 
3 *545:16 *6646:A 23 
4 *545:8 *5942:A3 40.2579 
*END

*D_NET *546 0.0020862
*CONN
*I *5951:A3 I *D sky130_fd_sc_hd__mux4_1
*I *6593:A I *D sky130_fd_sc_hd__dlygate4sd3_1
*I *6482:Q O *D sky130_fd_sc_hd__dfxtp_1
*CAP
1 *5951:A3 0
2 *6593:A 2.0995e-05
3 *6482:Q 8.86093e-05
4 *546:25 0.000619001
5 *546:8 0.000728606
6 *546:25 *761:8 3.21327e-05
7 *6046:A *546:25 1.32314e-05
8 *16:5 *546:25 0
9 *319:78 *6593:A 1.14154e-05
10 *319:78 *546:8 4.45701e-05
11 *319:78 *546:25 0.000218329
12 *329:70 *546:25 8.11447e-05
13 *332:8 *546:25 0.000163361
14 *530:16 *546:25 0
15 *538:27 *546:25 6.48049e-05
*RES
1 *6482:Q *546:8 24.595 
2 *546:8 *6593:A 23.4971 
3 *546:8 *546:25 42.47 
4 *546:25 *5951:A3 23 
*END

*D_NET *547 0.00219812
*CONN
*I *6602:A I *D sky130_fd_sc_hd__dlygate4sd3_1
*I *5960:A3 I *D sky130_fd_sc_hd__mux4_1
*I *6483:Q O *D sky130_fd_sc_hd__dfxtp_1
*CAP
1 *6602:A 0.000116757
2 *5960:A3 0.00028815
3 *6483:Q 0
4 *547:6 0.000404907
5 *5960:A3 *757:169 6.33614e-05
6 *5960:A3 *770:10 8.62876e-05
7 *6602:A *757:169 0.000166435
8 *6602:A *770:10 0.000224345
9 *5960:S0 *5960:A3 0.000185434
10 *232:141 *5960:A3 0.000267178
11 *319:105 *5960:A3 1.34354e-05
12 *319:105 *6602:A 3.42537e-05
13 *486:93 *5960:A3 0.000143544
14 *523:26 *5960:A3 5.50106e-05
15 *531:16 *5960:A3 0.000149025
*RES
1 *6483:Q *547:6 38 
2 *547:6 *5960:A3 47.3629 
3 *547:6 *6602:A 42.2879 
*END

*D_NET *548 0.00353673
*CONN
*I *5969:A3 I *D sky130_fd_sc_hd__mux4_1
*I *6552:A I *D sky130_fd_sc_hd__dlygate4sd3_1
*I *6484:Q O *D sky130_fd_sc_hd__dfxtp_1
*CAP
1 *5969:A3 0
2 *6552:A 0
3 *6484:Q 0.000179127
4 *548:29 0.000612689
5 *548:16 0.000307063
6 *548:8 0.00109888
7 *548:16 *768:14 0.000235777
8 *548:16 *768:16 0.000157147
9 *548:29 *630:8 0
10 *6358:D *548:8 0.000146676
11 *6358:D *548:29 0.000269096
12 *71:10 *548:29 0.000163352
13 *232:258 *548:29 1.44546e-05
14 *334:10 *548:29 4.32475e-05
15 *460:43 *548:16 3.09013e-05
16 *460:60 *548:29 0.000105637
17 *484:69 *548:8 0.000128607
18 *484:69 *548:29 2.57686e-05
19 *532:14 *548:8 1.83026e-05
*RES
1 *6484:Q *548:8 27.3293 
2 *548:8 *548:16 36.525 
3 *548:16 *6552:A 23 
4 *548:8 *548:29 41.9521 
5 *548:29 *5969:A3 23 
*END

*D_NET *549 0.00240447
*CONN
*I *5978:A3 I *D sky130_fd_sc_hd__mux4_1
*I *6526:A I *D sky130_fd_sc_hd__dlygate4sd3_1
*I *6485:Q O *D sky130_fd_sc_hd__dfxtp_1
*CAP
1 *5978:A3 0
2 *6526:A 0
3 *6485:Q 0.000127368
4 *549:29 0.00055844
5 *549:12 0.00016108
6 *549:6 0.000846889
7 *549:29 *6298:A0 1.09834e-05
8 *549:29 *6298:A1 0.000102944
9 *5978:S0 *549:29 2.08324e-05
10 *6298:S *549:12 1.00286e-05
11 *6298:S *549:29 9.10243e-05
12 *64:8 *549:29 0.000194011
13 *319:49 *549:29 8.94487e-05
14 *319:51 *549:29 0
15 *335:8 *549:29 2.61699e-05
16 *460:31 *549:29 7.17439e-05
17 *533:18 *549:29 9.35072e-05
*RES
1 *6485:Q *549:6 25.0507 
2 *549:6 *549:12 33.3143 
3 *549:12 *6526:A 23 
4 *549:6 *549:29 42.0143 
5 *549:29 *5978:A3 23 
*END

*D_NET *550 0.00210775
*CONN
*I *5987:A3 I *D sky130_fd_sc_hd__mux4_1
*I *6650:A I *D sky130_fd_sc_hd__dlygate4sd3_1
*I *6486:Q O *D sky130_fd_sc_hd__dfxtp_1
*CAP
1 *5987:A3 0.000175593
2 *6650:A 0.00024892
3 *6486:Q 0.000197121
4 *550:10 0.000621633
5 *6650:A *625:122 7.03663e-05
6 *6650:A *724:122 0
7 *550:10 *724:122 0
8 *5987:A1 *5987:A3 0.00012082
9 *5987:S0 *5987:A3 5.50049e-05
10 *6290:S *6650:A 1.17152e-05
11 *460:80 *6650:A 1.94522e-05
12 *460:80 *550:10 4.90891e-05
13 *467:10 *6650:A 4.23714e-05
14 *467:10 *550:10 1.02387e-05
15 *485:20 *550:10 2.93845e-05
16 *526:22 *5987:A3 0.000162061
17 *534:16 *5987:A3 5.61579e-05
18 *542:6 *5987:A3 1.21972e-05
19 *542:12 *6650:A 0.000163352
20 *542:27 *5987:A3 6.22712e-05
*RES
1 *6486:Q *550:10 40.8793 
2 *550:10 *6650:A 43.4271 
3 *550:10 *5987:A3 43.5721 
*END

*D_NET *551 0.00261152
*CONN
*I *5996:A3 I *D sky130_fd_sc_hd__mux4_1
*I *6641:A I *D sky130_fd_sc_hd__dlygate4sd3_1
*I *6487:Q O *D sky130_fd_sc_hd__dfxtp_1
*CAP
1 *5996:A3 0
2 *6641:A 0
3 *6487:Q 0.000114457
4 *551:27 0.00042876
5 *551:12 0.000121129
6 *551:6 0.000664346
7 *551:12 *6018:A1 5.56306e-05
8 *551:12 *636:23 2.60152e-05
9 *551:27 *774:6 5.10686e-05
10 *298:33 *551:27 0.000604773
11 *306:12 *551:6 2.30292e-05
12 *319:12 *551:27 0
13 *460:8 *551:12 0
14 *527:14 *551:27 0.00035673
15 *535:18 *551:27 0.000165583
*RES
1 *6487:Q *551:6 25.0507 
2 *551:6 *551:12 32.2579 
3 *551:12 *6641:A 23 
4 *551:6 *551:27 41.7036 
5 *551:27 *5996:A3 23 
*END

*D_NET *552 0.00389532
*CONN
*I *5925:A1 I *D sky130_fd_sc_hd__mux4_1
*I *6545:A I *D sky130_fd_sc_hd__dlygate4sd3_1
*I *6346:Q O *D sky130_fd_sc_hd__dfxtp_1
*CAP
1 *5925:A1 0
2 *6545:A 0.000399413
3 *6346:Q 0.000658267
4 *552:10 0.000507146
5 *552:8 0.000766
6 *6545:A *560:14 0.00013193
7 *6545:A *687:6 0.000228909
8 *552:10 *560:14 1.22803e-05
9 *552:10 *652:12 0
10 *6346:CLK *552:8 0.000286046
11 *6346:D *552:8 0.000387335
12 *51:8 *552:10 2.79004e-05
13 *225:149 *6545:A 0
14 *237:118 *6545:A 0.000225863
15 *255:14 *6545:A 0
16 *255:14 *552:10 0
17 *286:20 *6545:A 9.45591e-05
18 *310:10 *6545:A 0.000169674
*RES
1 *6346:Q *552:8 48.15 
2 *552:8 *552:10 1.90571 
3 *552:10 *6545:A 48.5643 
4 *552:10 *5925:A1 38 
*END

*D_NET *553 0.00442649
*CONN
*I *6579:A I *D sky130_fd_sc_hd__dlygate4sd3_1
*I *5940:A1 I *D sky130_fd_sc_hd__mux4_1
*I *6347:Q O *D sky130_fd_sc_hd__dfxtp_1
*CAP
1 *6579:A 0
2 *5940:A1 0
3 *6347:Q 4.60261e-05
4 *553:31 0.000427147
5 *553:14 0.000842761
6 *553:6 0.00131593
7 *553:14 *683:8 6.07611e-06
8 *553:31 *747:6 0.000608851
9 *5941:A1 *553:31 0.000144231
10 *6347:D *553:14 0.000339478
11 *52:8 *553:14 4.30672e-05
12 *225:136 *553:14 0
13 *226:133 *553:31 0
14 *226:170 *553:31 0
15 *227:14 *553:31 0.000266466
16 *239:180 *553:31 8.06804e-06
17 *239:184 *553:31 0.000112697
18 *481:35 *553:6 1.59094e-05
19 *481:35 *553:14 0.000249781
20 *481:41 *553:14 0
*RES
1 *6347:Q *553:6 23.6214 
2 *553:6 *553:14 42.8636 
3 *553:14 *5940:A1 23 
4 *553:6 *553:31 41.8279 
5 *553:31 *6579:A 23 
*END

*D_NET *554 0.00280866
*CONN
*I *5949:A1 I *D sky130_fd_sc_hd__mux4_1
*I *6525:A I *D sky130_fd_sc_hd__dlygate4sd3_1
*I *6348:Q O *D sky130_fd_sc_hd__dfxtp_1
*CAP
1 *5949:A1 0.000819176
2 *6525:A 0.000200627
3 *6348:Q 0
4 *554:6 0.0010198
5 *5949:A1 *5949:A3 3.17516e-05
6 *5949:A1 *562:25 1.16872e-05
7 *5949:A1 *570:10 6.0531e-05
8 *6525:A *625:100 8.51049e-05
9 *5949:S1 *5949:A1 1.94693e-05
10 *226:204 *5949:A1 5.97612e-05
11 *226:204 *6525:A 8.57735e-05
12 *251:8 *5949:A1 0.000155461
13 *251:8 *6525:A 1.05441e-05
14 *309:69 *5949:A1 4.99853e-05
15 *309:69 *6525:A 4.35743e-05
16 *309:82 *5949:A1 8.16253e-05
17 *411:109 *6525:A 0
18 *495:88 *5949:A1 4.4415e-05
19 *498:24 *5949:A1 2.93747e-05
*RES
1 *6348:Q *554:6 38 
2 *554:6 *6525:A 42.2879 
3 *554:6 *5949:A1 49.6829 
*END

*D_NET *555 0.00265914
*CONN
*I *6560:A I *D sky130_fd_sc_hd__dlygate4sd3_1
*I *5958:A1 I *D sky130_fd_sc_hd__mux4_1
*I *6349:Q O *D sky130_fd_sc_hd__dfxtp_1
*CAP
1 *6560:A 0
2 *5958:A1 0
3 *6349:Q 0
4 *555:27 0.000541863
5 *555:14 0.000501473
6 *555:4 0.00104334
7 *555:14 *5958:A2 9.79655e-05
8 *555:14 *5958:A3 0.000126323
9 *555:27 *746:45 0
10 *6193:S *555:14 1.37232e-05
11 *6389:CLK *555:27 5.37348e-06
12 *6389:D *555:27 4.45644e-05
13 *226:244 *555:14 8.4047e-05
14 *254:10 *555:27 0
15 *499:28 *555:14 0.00020047
*RES
1 *6349:Q *555:4 23 
2 *555:4 *555:14 37.9129 
3 *555:14 *5958:A1 23 
4 *555:4 *555:27 38.2029 
5 *555:27 *6560:A 23 
*END

*D_NET *556 0.00296051
*CONN
*I *6595:A I *D sky130_fd_sc_hd__dlygate4sd3_1
*I *5967:A1 I *D sky130_fd_sc_hd__mux4_1
*I *6350:Q O *D sky130_fd_sc_hd__dfxtp_1
*CAP
1 *6595:A 0.000197646
2 *5967:A1 0.000716379
3 *6350:Q 0
4 *556:6 0.000914025
5 *5967:A1 *6195:A0 1.10105e-05
6 *5967:A1 *564:27 1.06415e-05
7 *5967:A1 *625:51 0
8 *5967:A1 *712:49 0.000109747
9 *6595:A *763:6 0.000308946
10 *6031:S *6595:A 0.000267173
11 *226:131 *5967:A1 7.57281e-06
12 *230:41 *5967:A1 3.9185e-05
13 *230:41 *6595:A 3.884e-05
14 *237:97 *6595:A 1.40958e-05
15 *295:14 *5967:A1 3.53115e-05
16 *500:28 *5967:A1 0.000289934
*RES
1 *6350:Q *556:6 38 
2 *556:6 *5967:A1 49.1029 
3 *556:6 *6595:A 43.3857 
*END

*D_NET *557 0.00249175
*CONN
*I *6540:A I *D sky130_fd_sc_hd__dlygate4sd3_1
*I *5976:A1 I *D sky130_fd_sc_hd__mux4_1
*I *6351:Q O *D sky130_fd_sc_hd__dfxtp_1
*CAP
1 *6540:A 0.000108859
2 *5976:A1 0
3 *6351:Q 0
4 *557:18 0.000793357
5 *557:4 0.000902216
6 *557:18 *573:18 0.000287667
7 *557:18 *740:10 8.62876e-05
8 *6351:D *557:18 9.67842e-05
9 *56:8 *557:18 4.08537e-05
10 *232:69 *557:18 0
11 *275:10 *557:18 9.20311e-06
12 *501:24 *557:18 0.000166522
*RES
1 *6351:Q *557:4 23 
2 *557:4 *557:18 44.6657 
3 *557:18 *5976:A1 23 
4 *557:4 *6540:A 24.9471 
*END

*D_NET *558 0.00283336
*CONN
*I *6630:A I *D sky130_fd_sc_hd__dlygate4sd3_1
*I *5985:A1 I *D sky130_fd_sc_hd__mux4_1
*I *6352:Q O *D sky130_fd_sc_hd__dfxtp_1
*CAP
1 *6630:A 0.000197465
2 *5985:A1 0
3 *6352:Q 0
4 *558:12 0.000408602
5 *558:4 0.000606067
6 *6630:A *625:82 4.21378e-05
7 *6630:A *633:6 0.000228001
8 *558:12 *566:12 8.62876e-05
9 *6352:D *6630:A 1.09903e-05
10 *6352:D *558:12 9.47227e-05
11 *232:25 *558:12 0.000567084
12 *232:39 *6630:A 7.27085e-05
13 *232:39 *558:12 3.58084e-06
14 *233:35 *558:12 0.000164201
15 *309:52 *6630:A 0.000264564
16 *309:65 *6630:A 8.6949e-05
*RES
1 *6352:Q *558:4 23 
2 *558:4 *558:12 40.0671 
3 *558:12 *5985:A1 23 
4 *558:4 *6630:A 29.235 
*END

*D_NET *559 0.00403468
*CONN
*I *6619:A I *D sky130_fd_sc_hd__dlygate4sd3_1
*I *5994:A1 I *D sky130_fd_sc_hd__mux4_1
*I *6353:Q O *D sky130_fd_sc_hd__dfxtp_1
*CAP
1 *6619:A 5.70383e-05
2 *5994:A1 0
3 *6353:Q 0
4 *559:10 0.00141182
5 *559:4 0.00146886
6 *559:10 *737:8 0
7 *559:10 *791:35 0.000352421
8 *559:10 *791:50 0.000223682
9 *6353:D *559:10 0.000189681
10 *226:85 *559:10 9.48381e-06
11 *226:279 *559:10 2.71489e-05
12 *232:12 *559:10 0
13 *233:31 *559:10 0.000103297
14 *372:72 *6619:A 5.67058e-05
15 *372:72 *559:10 4.39607e-05
16 *489:14 *559:10 9.05935e-05
*RES
1 *6353:Q *559:4 23 
2 *559:4 *559:10 35.155 
3 *559:10 *5994:A1 38 
4 *559:4 *6619:A 24.4707 
*END

*D_NET *560 0.00231839
*CONN
*I *5925:A2 I *D sky130_fd_sc_hd__mux4_1
*I *6548:A I *D sky130_fd_sc_hd__dlygate4sd3_1
*I *6394:Q O *D sky130_fd_sc_hd__dfxtp_1
*CAP
1 *5925:A2 0.000369441
2 *6548:A 0
3 *6394:Q 0.000174046
4 *560:14 0.000280903
5 *560:8 0.00082439
6 *560:14 *6187:A1 0
7 *560:14 *652:12 9.98891e-05
8 *560:14 *724:68 0
9 *6545:A *560:14 0.00013193
10 *225:149 *5925:A2 5.50049e-05
11 *310:10 *560:14 0.000171906
12 *496:18 *5925:A2 0.000198599
13 *552:10 *560:14 1.22803e-05
*RES
1 *6394:Q *560:8 25.5479 
2 *560:8 *560:14 36.4836 
3 *560:14 *6548:A 23 
4 *560:8 *5925:A2 30.7523 
*END

*D_NET *561 0.00224056
*CONN
*I *5940:A2 I *D sky130_fd_sc_hd__mux4_1
*I *6544:A I *D sky130_fd_sc_hd__dlygate4sd3_1
*I *6395:Q O *D sky130_fd_sc_hd__dfxtp_1
*CAP
1 *5940:A2 0
2 *6544:A 2.52923e-05
3 *6395:Q 5.96547e-05
4 *561:25 0.000837946
5 *561:6 0.000922893
6 *561:25 *747:6 1.06415e-05
7 *6347:D *561:25 9.93192e-05
8 *225:136 *561:25 0
9 *226:131 *561:25 2.05503e-05
10 *226:170 *561:25 0.000132743
11 *239:180 *561:25 1.69977e-05
12 *481:35 *561:25 0.000114522
*RES
1 *6395:Q *561:6 24.0979 
2 *561:6 *6544:A 23.4971 
3 *561:6 *561:25 42.4596 
4 *561:25 *5940:A2 23 
*END

*D_NET *562 0.0029361
*CONN
*I *5949:A2 I *D sky130_fd_sc_hd__mux4_1
*I *6603:A I *D sky130_fd_sc_hd__dlygate4sd3_1
*I *6396:Q O *D sky130_fd_sc_hd__dfxtp_1
*CAP
1 *5949:A2 0
2 *6603:A 0
3 *6396:Q 0
4 *562:25 0.000821736
5 *562:10 0.000200349
6 *562:4 0.00102209
7 *562:25 *6027:A0 2.32101e-05
8 *562:25 *746:72 0.000268074
9 *5949:A1 *562:25 1.16872e-05
10 *6388:CLK *562:25 5.78583e-05
11 *53:12 *562:25 0.000134984
12 *270:10 *562:10 9.32509e-05
13 *270:18 *562:10 0.000170123
14 *309:82 *562:25 0.000132743
15 *495:56 *562:10 0
*RES
1 *6396:Q *562:4 23 
2 *562:4 *562:10 34.7229 
3 *562:10 *6603:A 23 
4 *562:4 *562:25 42.3302 
5 *562:25 *5949:A2 23 
*END

*D_NET *563 0.00333339
*CONN
*I *5958:A2 I *D sky130_fd_sc_hd__mux4_1
*I *6564:A I *D sky130_fd_sc_hd__dlygate4sd3_1
*I *6397:Q O *D sky130_fd_sc_hd__dfxtp_1
*CAP
1 *5958:A2 9.74373e-05
2 *6564:A 0.000366187
3 *6397:Q 0.000543827
4 *563:10 0.00100745
5 *6564:A *6122:A1 2.32101e-05
6 *6564:A *732:6 0.000268873
7 *6564:A *757:83 6.68822e-05
8 *6564:A *757:87 3.70094e-05
9 *6349:D *563:10 1.74843e-05
10 *6389:D *563:10 0
11 *226:244 *5958:A2 7.02841e-05
12 *226:244 *6564:A 9.53602e-05
13 *483:63 *5958:A2 0.000136486
14 *483:63 *563:10 0.000265509
15 *483:65 *563:10 2.93845e-05
16 *499:28 *5958:A2 3.71611e-05
17 *499:28 *6564:A 0.000172881
18 *555:14 *5958:A2 9.79655e-05
*RES
1 *6397:Q *563:10 46.1407 
2 *563:10 *6564:A 46.0164 
3 *563:10 *5958:A2 41.2366 
*END

*D_NET *564 0.00325593
*CONN
*I *5967:A2 I *D sky130_fd_sc_hd__mux4_1
*I *6648:A I *D sky130_fd_sc_hd__dlygate4sd3_1
*I *6398:Q O *D sky130_fd_sc_hd__dfxtp_1
*CAP
1 *5967:A2 0
2 *6648:A 0
3 *6398:Q 0
4 *564:27 0.000637565
5 *564:12 0.000474576
6 *564:4 0.00111214
7 *564:12 *658:22 0.000146774
8 *564:12 *658:26 6.93449e-05
9 *564:12 *768:93 0.000138718
10 *564:27 *5967:A3 2.84912e-05
11 *564:27 *6573:A 2.49733e-05
12 *564:27 *658:22 0.0001809
13 *564:27 *741:10 8.4047e-05
14 *5967:A1 *564:27 1.06415e-05
15 *6398:D *564:12 1.53528e-06
16 *225:68 *564:27 0
17 *226:114 *564:27 0.000346225
*RES
1 *6398:Q *564:4 23 
2 *564:4 *564:12 37.7679 
3 *564:12 *6648:A 23 
4 *564:4 *564:27 41.9211 
5 *564:27 *5967:A2 23 
*END

*D_NET *565 0.00171561
*CONN
*I *5976:A2 I *D sky130_fd_sc_hd__mux4_1
*I *6518:A I *D sky130_fd_sc_hd__dlygate4sd3_1
*I *6399:Q O *D sky130_fd_sc_hd__dfxtp_1
*CAP
1 *5976:A2 0
2 *6518:A 0
3 *6399:Q 0
4 *565:29 0.00045128
5 *565:10 0.000167602
6 *565:4 0.000618883
7 *565:10 *779:79 0
8 *5977:A1 *565:29 5.67058e-05
9 *5977:S *565:29 1.41077e-05
10 *230:81 *565:29 6.4393e-05
11 *233:35 *565:10 0
12 *233:45 *565:29 4.23343e-05
13 *275:10 *565:29 0.000227208
14 *372:16 *565:10 7.30978e-05
*RES
1 *6399:Q *565:4 23 
2 *565:4 *565:10 33.6664 
3 *565:10 *6518:A 23 
4 *565:4 *565:29 38.208 
5 *565:29 *5976:A2 23 
*END

*D_NET *566 0.00157227
*CONN
*I *5985:A2 I *D sky130_fd_sc_hd__mux4_1
*I *6587:A I *D sky130_fd_sc_hd__dlygate4sd3_1
*I *6400:Q O *D sky130_fd_sc_hd__dfxtp_1
*CAP
1 *5985:A2 0
2 *6587:A 0
3 *6400:Q 0
4 *566:27 0.00051486
5 *566:12 8.98468e-05
6 *566:4 0.000604706
7 *566:27 *5985:A3 6.10781e-05
8 *566:27 *768:44 2.53762e-05
9 *5985:A0 *566:27 0.00013266
10 *5985:S0 *566:27 3.70553e-06
11 *232:21 *566:27 1.04148e-05
12 *233:35 *566:12 4.334e-05
13 *558:12 *566:12 8.62876e-05
*RES
1 *6400:Q *566:4 23 
2 *566:4 *566:12 32.0507 
3 *566:12 *6587:A 23 
4 *566:4 *566:27 36.9859 
5 *566:27 *5985:A2 23 
*END

*D_NET *567 0.00350096
*CONN
*I *5994:A2 I *D sky130_fd_sc_hd__mux4_1
*I *6543:A I *D sky130_fd_sc_hd__dlygate4sd3_1
*I *6401:Q O *D sky130_fd_sc_hd__dfxtp_1
*CAP
1 *5994:A2 0.000312584
2 *6543:A 0.000308665
3 *6401:Q 0.000338056
4 *567:8 0.000959304
5 *5995:S *6543:A 0
6 *237:66 *567:8 0.000323882
7 *291:10 *5994:A2 2.48895e-05
8 *291:10 *6543:A 0.000111852
9 *294:10 *5994:A2 0.000164011
10 *295:14 *6543:A 0.000226306
11 *362:22 *5994:A2 0.000432289
12 *362:22 *6543:A 2.76611e-06
13 *372:88 *6543:A 0.000267173
14 *401:36 *5994:A2 1.16872e-05
15 *428:75 *5994:A2 0
16 *428:75 *6543:A 1.74959e-05
*RES
1 *6401:Q *567:8 43.8621 
2 *567:8 *6543:A 45.1671 
3 *567:8 *5994:A2 45.6488 
*END

*D_NET *568 0.00189823
*CONN
*I *5925:A3 I *D sky130_fd_sc_hd__mux4_1
*I *6649:A I *D sky130_fd_sc_hd__dlygate4sd3_1
*I *6418:Q O *D sky130_fd_sc_hd__dfxtp_1
*CAP
1 *5925:A3 0
2 *6649:A 0
3 *6418:Q 8.97399e-05
4 *568:23 0.000360946
5 *568:8 0.000450686
6 *568:8 *652:12 5.90675e-06
7 *568:23 *6023:A1 0.000355036
8 *568:23 *652:12 0.000182826
9 *255:14 *568:23 0.000220603
10 *309:101 *568:23 8.55082e-05
11 *310:10 *568:23 0.00014698
*RES
1 *6418:Q *568:8 24.595 
2 *568:8 *6649:A 23 
3 *568:8 *568:23 40.875 
4 *568:23 *5925:A3 23 
*END

*D_NET *569 0.00205881
*CONN
*I *5940:A3 I *D sky130_fd_sc_hd__mux4_1
*I *6645:A I *D sky130_fd_sc_hd__dlygate4sd3_1
*I *6419:Q O *D sky130_fd_sc_hd__dfxtp_1
*CAP
1 *5940:A3 0.000467482
2 *6645:A 0
3 *6419:Q 0
4 *569:12 0.000149833
5 *569:4 0.000617316
6 *5940:A3 *747:6 5.37348e-06
7 *569:12 *6025:A1 0.000141954
8 *569:12 *648:6 0.000141954
9 *569:12 *724:64 0
10 *239:180 *5940:A3 0.0005349
11 *311:10 *569:12 0
*RES
1 *6419:Q *569:4 23 
2 *569:4 *569:12 33.48 
3 *569:12 *6645:A 23 
4 *569:4 *5940:A3 33.3571 
*END

*D_NET *570 0.00144435
*CONN
*I *5949:A3 I *D sky130_fd_sc_hd__mux4_1
*I *6565:A I *D sky130_fd_sc_hd__dlygate4sd3_1
*I *6420:Q O *D sky130_fd_sc_hd__dfxtp_1
*CAP
1 *5949:A3 5.54882e-05
2 *6565:A 0
3 *6420:Q 0.000355223
4 *570:16 8.37785e-05
5 *570:10 0.00049449
6 *5949:A1 *5949:A3 3.17516e-05
7 *5949:A1 *570:10 6.0531e-05
8 *53:12 *570:16 8.16356e-05
9 *225:170 *570:16 0.000168744
10 *309:82 *570:16 1.02387e-05
11 *411:109 *570:16 7.76364e-06
12 *495:88 *570:10 9.47033e-05
*RES
1 *6420:Q *570:10 28.4271 
2 *570:10 *570:16 32.61 
3 *570:16 *6565:A 23 
4 *570:10 *5949:A3 24.0979 
*END

*D_NET *571 0.00192738
*CONN
*I *6632:A I *D sky130_fd_sc_hd__dlygate4sd3_1
*I *5958:A3 I *D sky130_fd_sc_hd__mux4_1
*I *6421:Q O *D sky130_fd_sc_hd__dfxtp_1
*CAP
1 *6632:A 0.00020873
2 *5958:A3 0.000313208
3 *6421:Q 7.82392e-05
4 *571:8 0.000600178
5 *5958:A3 *6193:A0 0.000112036
6 *5958:A3 *757:75 3.46181e-05
7 *5958:A3 *757:79 1.44546e-05
8 *6632:A *721:8 0
9 *6632:A *757:56 0
10 *6632:A *757:75 3.84694e-05
11 *571:8 *757:75 2.72257e-05
12 *54:8 *5958:A3 0.000136486
13 *54:8 *6632:A 1.01436e-05
14 *309:82 *6632:A 0
15 *339:50 *6632:A 5.50049e-05
16 *499:28 *5958:A3 0.000172266
17 *555:14 *5958:A3 0.000126323
*RES
1 *6421:Q *571:8 39.0979 
2 *571:8 *5958:A3 45.9336 
3 *571:8 *6632:A 42.2879 
*END

*D_NET *572 0.000563338
*CONN
*I *5967:A3 I *D sky130_fd_sc_hd__mux4_1
*I *6573:A I *D sky130_fd_sc_hd__dlygate4sd3_1
*I *6422:Q O *D sky130_fd_sc_hd__dfxtp_1
*CAP
1 *5967:A3 6.1641e-05
2 *6573:A 2.85077e-05
3 *6422:Q 4.25104e-05
4 *572:8 0.000132659
5 *5967:A3 *741:10 8.4047e-05
6 *6573:A *741:10 1.01436e-05
7 *295:28 *572:8 5.50049e-05
8 *500:28 *5967:A3 6.32688e-05
9 *500:28 *6573:A 3.20914e-05
10 *564:27 *5967:A3 2.84912e-05
11 *564:27 *6573:A 2.49733e-05
*RES
1 *6422:Q *572:8 38.6214 
2 *572:8 *6573:A 38.8493 
3 *572:8 *5967:A3 39.9057 
*END

*D_NET *573 0.00264104
*CONN
*I *6572:A I *D sky130_fd_sc_hd__dlygate4sd3_1
*I *5976:A3 I *D sky130_fd_sc_hd__mux4_1
*I *6423:Q O *D sky130_fd_sc_hd__dfxtp_1
*CAP
1 *6572:A 0.000175359
2 *5976:A3 0
3 *6423:Q 8.04747e-05
4 *573:18 0.000607195
5 *573:8 0.000863029
6 *6572:A *740:10 0.000114656
7 *6572:A *779:73 0
8 *573:18 *740:10 3.83778e-05
9 *573:18 *779:73 0
10 *573:18 *779:79 3.80173e-05
11 *5976:S0 *573:18 5.50049e-05
12 *6351:CLK *573:8 3.22879e-05
13 *232:69 *6572:A 0
14 *233:45 *573:18 9.0102e-05
15 *275:10 *573:18 1.01436e-05
16 *339:37 *6572:A 5.50049e-05
17 *382:24 *6572:A 5.50049e-05
18 *401:79 *573:18 0.000138718
19 *557:18 *573:18 0.000287667
*RES
1 *6423:Q *573:8 39.0979 
2 *573:8 *573:18 28.5679 
3 *573:18 *5976:A3 23 
4 *573:8 *6572:A 42.2879 
*END

*D_NET *574 0.00320466
*CONN
*I *6604:A I *D sky130_fd_sc_hd__dlygate4sd3_1
*I *5985:A3 I *D sky130_fd_sc_hd__mux4_1
*I *6424:Q O *D sky130_fd_sc_hd__dfxtp_1
*CAP
1 *6604:A 0.000211679
2 *5985:A3 0.000375221
3 *6424:Q 0.000248949
4 *574:10 0.000835849
5 *5985:A3 *625:72 0.000193702
6 *5985:A3 *625:82 0.000207257
7 *5985:A3 *768:44 7.05967e-05
8 *6604:A *625:82 0.000260321
9 *6604:A *746:93 2.07357e-05
10 *6604:A *768:44 3.98913e-05
11 *6604:A *772:10 0.000139352
12 *574:10 *746:99 6.19043e-05
13 *232:39 *5985:A3 4.61838e-05
14 *309:52 *5985:A3 0.000287826
15 *495:68 *6604:A 0.00014411
16 *566:27 *5985:A3 6.10781e-05
*RES
1 *6424:Q *574:10 41.9771 
2 *574:10 *5985:A3 48.7093 
3 *574:10 *6604:A 43.2407 
*END

*D_NET *575 0.00390704
*CONN
*I *6569:A I *D sky130_fd_sc_hd__dlygate4sd3_1
*I *5994:A3 I *D sky130_fd_sc_hd__mux4_1
*I *6425:Q O *D sky130_fd_sc_hd__dfxtp_1
*CAP
1 *6569:A 0.000123275
2 *5994:A3 0
3 *6425:Q 0.000193985
4 *575:16 0.000639265
5 *575:8 0.000956525
6 *575:16 *790:33 0.000436756
7 *575:16 *791:35 2.87922e-05
8 *575:16 *791:50 2.81066e-05
9 *6149:A *6569:A 5.3304e-05
10 *225:21 *575:8 4.58941e-05
11 *294:10 *575:16 0.000270368
12 *362:22 *575:16 0.000131286
13 *380:8 *6569:A 0.000139647
14 *380:8 *575:8 0.00041384
15 *401:22 *6569:A 0.000132665
16 *401:22 *575:8 0.000313333
*RES
1 *6425:Q *575:8 43.7793 
2 *575:8 *575:16 40.9579 
3 *575:16 *5994:A3 38 
4 *575:8 *6569:A 41.0036 
*END

*D_NET *576 0.00321716
*CONN
*I *5924:A0 I *D sky130_fd_sc_hd__mux4_1
*I *6578:A I *D sky130_fd_sc_hd__dlygate4sd3_1
*I *6439:Q O *D sky130_fd_sc_hd__dfxtp_1
*CAP
1 *5924:A0 0
2 *6578:A 6.27956e-05
3 *6439:Q 0
4 *576:27 0.00115681
5 *576:4 0.0012196
6 *6578:A *724:22 3.22879e-05
7 *576:27 *5924:A1 4.95444e-05
8 *576:27 *5924:A2 0.000237412
9 *576:27 *724:107 5.56203e-05
10 *5924:S0 *576:27 5.50049e-05
11 *6236:A *576:27 0.000348088
12 *6439:D *6578:A 0
*RES
1 *6439:Q *576:4 23 
2 *576:4 *6578:A 24.4707 
3 *576:4 *576:27 47.9593 
4 *576:27 *5924:A0 23 
*END

*D_NET *577 0.00289635
*CONN
*I *6623:A I *D sky130_fd_sc_hd__dlygate4sd3_1
*I *5939:A0 I *D sky130_fd_sc_hd__mux4_1
*I *6440:Q O *D sky130_fd_sc_hd__dfxtp_1
*CAP
1 *6623:A 0.000132603
2 *5939:A0 0.000900332
3 *6440:Q 9.53785e-05
4 *577:10 0.00103293
5 *577:8 9.53785e-05
6 *5939:A0 *5939:A3 0.000212277
7 *5939:A0 *593:31 1.16872e-05
8 *5939:A0 *626:6 0.000123934
9 *6623:A *626:6 0.000128401
10 *577:8 *735:92 0
11 *5939:S0 *5939:A0 5.67058e-05
12 *241:10 *5939:A0 8.82787e-05
13 *430:10 *5939:A0 1.84414e-05
*RES
1 *6440:Q *577:8 39.5536 
2 *577:8 *577:10 15 
3 *577:10 *5939:A0 37.9764 
4 *577:10 *6623:A 26.0243 
*END

*D_NET *578 0.0033126
*CONN
*I *6562:A I *D sky130_fd_sc_hd__dlygate4sd3_1
*I *5948:A0 I *D sky130_fd_sc_hd__mux4_1
*I *6441:Q O *D sky130_fd_sc_hd__dfxtp_1
*CAP
1 *6562:A 0.000194095
2 *5948:A0 0.000623042
3 *6441:Q 0.000230546
4 *578:10 0.00104768
5 *5948:A0 *5948:A1 6.39397e-06
6 *5948:A0 *5948:A2 0.000398932
7 *6562:A *746:109 0.000181934
8 *578:10 *746:109 0.000223034
9 *6441:D *578:10 3.71369e-05
10 *146:8 *578:10 5.56306e-05
11 *216:14 *6562:A 4.83577e-05
12 *226:279 *5948:A0 9.17998e-05
13 *226:279 *578:10 5.44858e-05
14 *249:10 *578:10 2.5343e-05
15 *428:52 *6562:A 0
16 *428:65 *6562:A 0
17 *428:65 *578:10 0
18 *431:10 *6562:A 8.4047e-05
19 *431:10 *578:10 1.01436e-05
*RES
1 *6441:Q *578:10 43.4686 
2 *578:10 *5948:A0 47.0936 
3 *578:10 *6562:A 42.7229 
*END

*D_NET *579 0.00286486
*CONN
*I *6647:A I *D sky130_fd_sc_hd__dlygate4sd3_1
*I *5957:A0 I *D sky130_fd_sc_hd__mux4_1
*I *6442:Q O *D sky130_fd_sc_hd__dfxtp_1
*CAP
1 *6647:A 0
2 *5957:A0 0.00037986
3 *6442:Q 0.000236577
4 *579:14 0.000525415
5 *579:10 0.000382133
6 *5957:A0 *587:14 0.000177271
7 *5957:A0 *595:31 3.28708e-05
8 *5957:A0 *757:110 0.000125134
9 *5957:S0 *5957:A0 0.00014196
10 *6242:A *5957:A0 0.000182826
11 *6242:A *579:14 0.000383463
12 *147:8 *579:10 8.85189e-05
13 *257:8 *5957:A0 5.50049e-05
14 *257:8 *579:14 0.000139357
15 *298:94 *579:10 0
16 *485:30 *579:10 1.4471e-05
*RES
1 *6442:Q *579:10 41.48 
2 *579:10 *579:14 19.4329 
3 *579:14 *5957:A0 32.1971 
4 *579:14 *6647:A 23 
*END

*D_NET *580 0.0029716
*CONN
*I *6519:A I *D sky130_fd_sc_hd__dlygate4sd3_1
*I *5966:A0 I *D sky130_fd_sc_hd__mux4_1
*I *6443:Q O *D sky130_fd_sc_hd__dfxtp_1
*CAP
1 *6519:A 0.000123262
2 *5966:A0 0.000791581
3 *6443:Q 0.000209526
4 *580:12 0.000914843
5 *580:10 0.000209526
6 *5966:A0 *5966:A1 9.21188e-05
7 *5966:A0 *596:27 9.81081e-06
8 *5966:A0 *604:31 0.000241363
9 *580:10 *768:136 4.08537e-05
10 *6243:S *5966:A0 0.000137651
11 *6243:S *6519:A 4.2573e-05
12 *6416:CLK *580:10 0
13 *216:54 *580:10 1.73399e-05
14 *265:8 *5966:A0 6.9805e-05
15 *265:8 *6519:A 7.1349e-05
*RES
1 *6443:Q *580:10 41.2314 
2 *580:10 *580:12 15 
3 *580:12 *5966:A0 36.3607 
4 *580:12 *6519:A 25.5479 
*END

*D_NET *581 0.00442742
*CONN
*I *6597:A I *D sky130_fd_sc_hd__dlygate4sd3_1
*I *5975:A0 I *D sky130_fd_sc_hd__mux4_1
*I *6444:Q O *D sky130_fd_sc_hd__dfxtp_1
*CAP
1 *6597:A 0
2 *5975:A0 0
3 *6444:Q 0.000456386
4 *581:26 0.000752568
5 *581:12 0.000752568
6 *581:10 0.000456386
7 *581:10 *768:42 0.000109182
8 *581:26 *5975:A1 6.69899e-05
9 *581:26 *765:6 9.00923e-05
10 *581:26 *779:91 3.88504e-05
11 *5975:S0 *581:26 0.000181125
12 *222:8 *581:26 0
13 *362:95 *581:10 0.000345295
14 *391:122 *581:26 0
15 *391:143 *581:26 0.000228903
16 *428:16 *581:26 0.000479428
17 *428:32 *581:10 0.000248563
18 *434:10 *581:26 0.000221084
*RES
1 *6444:Q *581:10 46.6793 
2 *581:10 *581:12 15 
3 *581:12 *581:26 46.0536 
4 *581:26 *5975:A0 23 
5 *581:12 *6597:A 23 
*END

*D_NET *582 0.00262365
*CONN
*I *6598:A I *D sky130_fd_sc_hd__dlygate4sd3_1
*I *5984:A0 I *D sky130_fd_sc_hd__mux4_1
*I *6445:Q O *D sky130_fd_sc_hd__dfxtp_1
*CAP
1 *6598:A 0
2 *5984:A0 0
3 *6445:Q 0
4 *582:25 0.000184605
5 *582:12 0.000604081
6 *582:4 0.000788686
7 *582:12 *598:27 8.72173e-05
8 *5984:S0 *582:12 0
9 *6247:S *582:25 1.37232e-05
10 *6445:CLK *582:12 2.40076e-05
11 *150:8 *582:12 0.000170785
12 *225:102 *582:12 0.000482844
13 *265:12 *582:12 3.72639e-05
14 *281:12 *582:25 0
15 *428:117 *582:25 0.000230435
*RES
1 *6445:Q *582:4 23 
2 *582:4 *582:12 40.0257 
3 *582:12 *5984:A0 23 
4 *582:4 *582:25 33.8114 
5 *582:25 *6598:A 23 
*END

*D_NET *583 0.00315031
*CONN
*I *6554:A I *D sky130_fd_sc_hd__dlygate4sd3_1
*I *5993:A0 I *D sky130_fd_sc_hd__mux4_1
*I *6446:Q O *D sky130_fd_sc_hd__dfxtp_1
*CAP
1 *6554:A 5.86717e-05
2 *5993:A0 0.00131963
3 *6446:Q 0
4 *583:4 0.00137831
5 *5993:A0 *5993:A2 0.000128129
6 *5993:A0 *591:14 1.94693e-05
7 *6446:CLK *5993:A0 1.94693e-05
8 *6446:D *5993:A0 4.9054e-06
9 *289:10 *5993:A0 5.14746e-06
10 *480:37 *5993:A0 4.00259e-06
11 *488:24 *5993:A0 0.000180289
12 *488:24 *6554:A 3.22879e-05
*RES
1 *6446:Q *583:4 23 
2 *583:4 *5993:A0 42.2436 
3 *583:4 *6554:A 24.4707 
*END

*D_NET *584 0.00233558
*CONN
*I *6567:A I *D sky130_fd_sc_hd__dlygate4sd3_1
*I *5924:A1 I *D sky130_fd_sc_hd__mux4_1
*I *6322:Q O *D sky130_fd_sc_hd__dfxtp_1
*CAP
1 *6567:A 0
2 *5924:A1 0.000777331
3 *6322:Q 0.000178156
4 *584:12 0.000777331
5 *584:10 0.000178156
6 *5924:A1 *5924:A2 0.000206631
7 *584:10 *735:105 0
8 *6236:A *5924:A1 5.50106e-05
9 *227:8 *5924:A1 2.93747e-05
10 *227:14 *584:10 8.4047e-05
11 *481:52 *584:10 0
12 *576:27 *5924:A1 4.95444e-05
*RES
1 *6322:Q *584:10 40.5271 
2 *584:10 *584:12 15 
3 *584:12 *5924:A1 34.9936 
4 *584:12 *6567:A 23 
*END

*D_NET *585 0.00218158
*CONN
*I *6621:A I *D sky130_fd_sc_hd__dlygate4sd3_1
*I *5939:A1 I *D sky130_fd_sc_hd__mux4_1
*I *6323:Q O *D sky130_fd_sc_hd__dfxtp_1
*CAP
1 *6621:A 0
2 *5939:A1 0
3 *6323:Q 0.000404
4 *585:20 0.000288609
5 *585:12 0.000288609
6 *585:10 0.000404
7 *585:10 *593:31 3.63546e-05
8 *585:20 *601:8 0
9 *585:20 *720:6 0.000313249
10 *585:20 *735:81 2.4754e-05
11 *5939:S0 *585:20 0
12 *116:8 *585:20 0
13 *216:77 *585:20 1.19796e-05
14 *216:96 *585:20 0.000227208
15 *481:68 *585:10 0.00018282
*RES
1 *6323:Q *585:10 43.8621 
2 *585:10 *585:12 15 
3 *585:12 *585:20 36.9186 
4 *585:20 *5939:A1 23 
5 *585:12 *6621:A 23 
*END

*D_NET *586 0.0028311
*CONN
*I *5948:A1 I *D sky130_fd_sc_hd__mux4_1
*I *6585:A I *D sky130_fd_sc_hd__dlygate4sd3_1
*I *6324:Q O *D sky130_fd_sc_hd__dfxtp_1
*CAP
1 *5948:A1 0.000493838
2 *6585:A 0.000208602
3 *6324:Q 0.000227397
4 *586:10 0.000929837
5 *5948:A1 *5948:A2 0.000188926
6 *6585:A *746:145 0.00010403
7 *5948:A0 *5948:A1 6.39397e-06
8 *216:27 *6585:A 8.72173e-05
9 *226:279 *5948:A1 3.7122e-06
10 *401:22 *6585:A 0.000339617
11 *401:22 *586:10 0.000105165
12 *411:20 *6585:A 3.33462e-05
13 *411:20 *586:10 0.000103019
*RES
1 *6324:Q *586:10 42.06 
2 *586:10 *6585:A 43.8414 
3 *586:10 *5948:A1 45.1879 
*END

*D_NET *587 0.00271833
*CONN
*I *6561:A I *D sky130_fd_sc_hd__dlygate4sd3_1
*I *5957:A1 I *D sky130_fd_sc_hd__mux4_1
*I *6325:Q O *D sky130_fd_sc_hd__dfxtp_1
*CAP
1 *6561:A 0
2 *5957:A1 0
3 *6325:Q 0
4 *587:27 0.000456223
5 *587:14 0.000547895
6 *587:4 0.00100412
7 *587:14 *6175:A1 0
8 *587:14 *595:31 8.4047e-05
9 *587:14 *746:45 8.4047e-05
10 *587:14 *757:110 2.79543e-05
11 *587:27 *746:45 0
12 *5957:A0 *587:14 0.000177271
13 *5957:S0 *587:14 0.00014196
14 *6442:CLK *587:27 5.37348e-06
15 *362:109 *587:27 0.000103154
16 *432:8 *587:27 8.62876e-05
*RES
1 *6325:Q *587:4 23 
2 *587:4 *587:14 38.3893 
3 *587:14 *5957:A1 23 
4 *587:4 *587:27 37.25 
5 *587:27 *6561:A 23 
*END

*D_NET *588 0.00296165
*CONN
*I *6541:A I *D sky130_fd_sc_hd__dlygate4sd3_1
*I *5966:A1 I *D sky130_fd_sc_hd__mux4_1
*I *6326:Q O *D sky130_fd_sc_hd__dfxtp_1
*CAP
1 *6541:A 0.000274621
2 *5966:A1 0.000531186
3 *6326:Q 0.00030318
4 *588:10 0.00110899
5 *5966:A1 *596:27 1.6318e-05
6 *5966:A1 *604:31 4.55332e-05
7 *6541:A *596:27 2.60152e-05
8 *588:10 *596:27 3.83778e-05
9 *5966:A0 *5966:A1 9.21188e-05
10 *5966:S1 *6541:A 0.000373091
11 *6443:D *588:10 4.93341e-05
12 *148:10 *6541:A 6.02277e-06
13 *148:10 *588:10 1.34354e-05
14 *216:44 *6541:A 0
15 *216:54 *6541:A 0
16 *216:54 *588:10 0
17 *221:10 *588:10 0
18 *226:112 *6541:A 3.70187e-05
19 *488:78 *588:10 1.32939e-05
20 *488:82 *588:10 0
21 *488:94 *588:10 3.3123e-05
*RES
1 *6326:Q *588:10 43.0129 
2 *588:10 *5966:A1 45.6643 
3 *588:10 *6541:A 44.4836 
*END

*D_NET *589 0.00333888
*CONN
*I *6615:A I *D sky130_fd_sc_hd__dlygate4sd3_1
*I *5975:A1 I *D sky130_fd_sc_hd__mux4_1
*I *6327:Q O *D sky130_fd_sc_hd__dfxtp_1
*CAP
1 *6615:A 0.00028806
2 *5975:A1 0.000791177
3 *6327:Q 5.43703e-05
4 *589:8 0.00113361
5 *5975:A1 *5975:A2 1.16872e-05
6 *5975:A1 *5975:A3 4.07059e-05
7 *6615:A *768:42 0
8 *5975:S0 *5975:A1 3.46673e-05
9 *16:15 *6615:A 0.000249573
10 *216:141 *6615:A 5.50106e-05
11 *226:227 *5975:A1 0.000132166
12 *230:66 *6615:A 4.14061e-05
13 *230:66 *589:8 2.54046e-05
14 *273:8 *6615:A 0.000341204
15 *391:143 *5975:A1 4.94722e-06
16 *495:107 *6615:A 2.70469e-05
17 *495:107 *589:8 4.08537e-05
18 *581:26 *5975:A1 6.69899e-05
*RES
1 *6327:Q *589:8 39.2014 
2 *589:8 *5975:A1 48.9993 
3 *589:8 *6615:A 45.105 
*END

*D_NET *590 0.0027113
*CONN
*I *6614:A I *D sky130_fd_sc_hd__dlygate4sd3_1
*I *5984:A1 I *D sky130_fd_sc_hd__mux4_1
*I *6328:Q O *D sky130_fd_sc_hd__dfxtp_1
*CAP
1 *6614:A 0
2 *5984:A1 0
3 *6328:Q 0.000195604
4 *590:28 0.000505309
5 *590:12 0.000505309
6 *590:10 0.000195604
7 *590:10 *782:8 0
8 *590:28 *598:10 0
9 *590:28 *598:27 0
10 *590:28 *606:12 0.00022097
11 *590:28 *625:32 2.04774e-05
12 *590:28 *625:45 3.95159e-06
13 *5984:S0 *590:28 1.01436e-05
14 *216:54 *590:28 0.000354116
15 *216:60 *590:10 5.31444e-05
16 *391:59 *590:28 0.000282272
17 *391:73 *590:28 0.000307353
18 *398:8 *590:28 0
19 *411:143 *590:10 5.70419e-05
*RES
1 *6328:Q *590:10 41.0036 
2 *590:10 *590:12 15 
3 *590:12 *590:28 44.1271 
4 *590:28 *5984:A1 23 
5 *590:12 *6614:A 23 
*END

*D_NET *591 0.00111661
*CONN
*I *6563:A I *D sky130_fd_sc_hd__dlygate4sd3_1
*I *5993:A1 I *D sky130_fd_sc_hd__mux4_1
*I *6329:Q O *D sky130_fd_sc_hd__dfxtp_1
*CAP
1 *6563:A 7.0119e-05
2 *5993:A1 0
3 *6329:Q 0
4 *591:14 0.000354098
5 *591:4 0.000424217
6 *591:14 *5993:A2 0.000141954
7 *5993:A0 *591:14 1.94693e-05
8 *6329:CLK *591:14 0
9 *6329:D *591:14 2.45549e-06
10 *224:10 *591:14 6.4393e-05
11 *411:42 *6563:A 1.94812e-05
12 *411:42 *591:14 2.04188e-05
*RES
1 *6329:Q *591:4 23 
2 *591:4 *591:14 36.0071 
3 *591:14 *5993:A1 23 
4 *591:4 *6563:A 24.4707 
*END

*D_NET *592 0.00191641
*CONN
*I *5924:A2 I *D sky130_fd_sc_hd__mux4_1
*I *6637:A I *D sky130_fd_sc_hd__dlygate4sd3_1
*I *6426:Q O *D sky130_fd_sc_hd__dfxtp_1
*CAP
1 *5924:A2 0.000391814
2 *6637:A 0
3 *6426:Q 0
4 *592:12 0.000218497
5 *592:4 0.000610311
6 *592:12 *640:6 0.000141954
7 *592:12 *658:22 5.47808e-05
8 *592:12 *724:47 0
9 *592:12 *724:64 0
10 *5924:A1 *5924:A2 0.000206631
11 *5924:S0 *5924:A2 5.50049e-05
12 *27:8 *592:12 0
13 *576:27 *5924:A2 0.000237412
*RES
1 *6426:Q *592:4 23 
2 *592:4 *592:12 34.8886 
3 *592:12 *6637:A 23 
4 *592:4 *5924:A2 33.0102 
*END

*D_NET *593 0.00354041
*CONN
*I *5939:A2 I *D sky130_fd_sc_hd__mux4_1
*I *6550:A I *D sky130_fd_sc_hd__dlygate4sd3_1
*I *6427:Q O *D sky130_fd_sc_hd__dfxtp_1
*CAP
1 *5939:A2 0
2 *6550:A 0
3 *6427:Q 0.000165343
4 *593:31 0.000758157
5 *593:16 0.000495313
6 *593:6 0.00141881
7 *593:16 *689:8 8.38096e-05
8 *5909:A *593:16 5.50049e-05
9 *5939:A0 *593:31 1.16872e-05
10 *6323:D *593:31 5.6508e-05
11 *28:8 *593:16 0
12 *28:8 *593:31 0
13 *216:77 *593:6 1.84914e-05
14 *216:77 *593:31 1.40004e-05
15 *216:96 *593:31 9.39159e-05
16 *218:8 *593:16 8.62783e-05
17 *481:56 *593:31 0
18 *481:68 *593:31 0.000246733
19 *585:10 *593:31 3.63546e-05
*RES
1 *6427:Q *593:6 25.0507 
2 *593:6 *593:16 38.9693 
3 *593:16 *6550:A 23 
4 *593:6 *593:31 43.0966 
5 *593:31 *5939:A2 23 
*END

*D_NET *594 0.00206078
*CONN
*I *5948:A2 I *D sky130_fd_sc_hd__mux4_1
*I *6529:A I *D sky130_fd_sc_hd__dlygate4sd3_1
*I *6428:Q O *D sky130_fd_sc_hd__dfxtp_1
*CAP
1 *5948:A2 0.000311775
2 *6529:A 0
3 *6428:Q 0
4 *594:10 0.000245524
5 *594:4 0.000557299
6 *594:10 *680:10 0.000232421
7 *5948:A0 *5948:A2 0.000398932
8 *5948:A1 *5948:A2 0.000188926
9 *219:10 *594:10 0
10 *226:279 *5948:A2 0
11 *480:79 *594:10 0
12 *480:89 *594:10 0.000125904
*RES
1 *6428:Q *594:4 23 
2 *594:4 *594:10 36.1314 
3 *594:10 *6529:A 23 
4 *594:4 *5948:A2 32.0988 
*END

*D_NET *595 0.00278492
*CONN
*I *5957:A2 I *D sky130_fd_sc_hd__mux4_1
*I *6611:A I *D sky130_fd_sc_hd__dlygate4sd3_1
*I *6429:Q O *D sky130_fd_sc_hd__dfxtp_1
*CAP
1 *5957:A2 0
2 *6611:A 0
3 *6429:Q 0
4 *595:31 0.000694432
5 *595:16 0.000357416
6 *595:4 0.00105185
7 *595:16 *778:10 0.000199018
8 *595:31 *746:45 3.17768e-05
9 *5957:A0 *595:31 3.28708e-05
10 *5957:S1 *595:31 9.28078e-06
11 *6241:S *595:16 3.78725e-05
12 *6325:CLK *595:31 1.94812e-05
13 *6325:D *595:31 4.9054e-06
14 *30:8 *595:16 0
15 *226:227 *595:31 3.32357e-05
16 *226:240 *595:31 0.000184018
17 *309:82 *595:16 0
18 *391:151 *595:16 1.01436e-05
19 *428:32 *595:16 3.45717e-05
20 *587:14 *595:31 8.4047e-05
*RES
1 *6429:Q *595:4 23 
2 *595:4 *595:16 36.4836 
3 *595:16 *6611:A 23 
4 *595:4 *595:31 39.9325 
5 *595:31 *5957:A2 23 
*END

*D_NET *596 0.00312627
*CONN
*I *5966:A2 I *D sky130_fd_sc_hd__mux4_1
*I *6638:A I *D sky130_fd_sc_hd__dlygate4sd3_1
*I *6430:Q O *D sky130_fd_sc_hd__dfxtp_1
*CAP
1 *5966:A2 0
2 *6638:A 0
3 *6430:Q 0
4 *596:27 0.000667108
5 *596:12 0.000310522
6 *596:4 0.00097763
7 *596:12 *641:10 0.000153145
8 *5966:A0 *596:27 9.81081e-06
9 *5966:A1 *596:27 1.6318e-05
10 *6430:CLK *596:27 5.12254e-05
11 *6541:A *596:27 2.60152e-05
12 *31:8 *596:12 0
13 *148:10 *596:27 0.000138718
14 *488:52 *596:12 3.0647e-05
15 *488:78 *596:27 0.000706748
16 *588:10 *596:27 3.83778e-05
*RES
1 *6430:Q *596:4 23 
2 *596:4 *596:12 36.67 
3 *596:12 *6638:A 23 
4 *596:4 *596:27 41.4861 
5 *596:27 *5966:A2 23 
*END

*D_NET *597 0.00245805
*CONN
*I *5975:A2 I *D sky130_fd_sc_hd__mux4_1
*I *6626:A I *D sky130_fd_sc_hd__dlygate4sd3_1
*I *6431:Q O *D sky130_fd_sc_hd__dfxtp_1
*CAP
1 *5975:A2 0.000140952
2 *6626:A 0.000444609
3 *6431:Q 8.72395e-05
4 *597:8 0.0006728
5 *6626:A *629:8 0
6 *5975:A1 *5975:A2 1.16872e-05
7 *222:8 *5975:A2 0.000338313
8 *222:8 *6626:A 8.72173e-05
9 *233:35 *5975:A2 0.000346225
10 *233:35 *6626:A 0.000272321
11 *237:84 *6626:A 0
12 *391:143 *5975:A2 7.02666e-06
13 *411:92 *597:8 4.9662e-05
*RES
1 *6431:Q *597:8 39.0979 
2 *597:8 *6626:A 47.0521 
3 *597:8 *5975:A2 42.9973 
*END

*D_NET *598 0.00252381
*CONN
*I *5984:A2 I *D sky130_fd_sc_hd__mux4_1
*I *6535:A I *D sky130_fd_sc_hd__dlygate4sd3_1
*I *6432:Q O *D sky130_fd_sc_hd__dfxtp_1
*CAP
1 *5984:A2 1.43408e-05
2 *6535:A 0
3 *6432:Q 0.000184983
4 *598:27 0.000733343
5 *598:10 0.000903985
6 *598:10 *625:32 0
7 *598:10 *674:8 0
8 *598:27 *606:12 0.000165895
9 *598:27 *625:45 3.31127e-05
10 *121:8 *598:27 0
11 *265:12 *598:27 0.000299187
12 *398:8 *598:27 8.85189e-05
13 *411:143 *598:10 1.32314e-05
14 *418:10 *598:10 0
15 *428:117 *598:27 0
16 *582:12 *598:27 8.72173e-05
17 *590:28 *598:10 0
18 *590:28 *598:27 0
*RES
1 *6432:Q *598:10 40.8793 
2 *598:10 *6535:A 38 
3 *598:10 *598:27 42.2421 
4 *598:27 *5984:A2 38.2745 
*END

*D_NET *599 0.00232721
*CONN
*I *5993:A2 I *D sky130_fd_sc_hd__mux4_1
*I *6581:A I *D sky130_fd_sc_hd__dlygate4sd3_1
*I *6433:Q O *D sky130_fd_sc_hd__dfxtp_1
*CAP
1 *5993:A2 0.000370272
2 *6581:A 0
3 *6433:Q 8.29085e-05
4 *599:16 0.000247029
5 *599:6 0.000700209
6 *599:16 *749:10 5.50049e-05
7 *5993:A0 *5993:A2 0.000128129
8 *5993:S0 *5993:A2 5.50049e-05
9 *6329:CLK *599:16 6.38947e-05
10 *391:45 *599:16 0.000170909
11 *391:47 *599:16 3.22879e-05
12 *480:37 *5993:A2 0.000140259
13 *480:37 *599:6 0.000139352
14 *591:14 *5993:A2 0.000141954
*RES
1 *6433:Q *599:6 24.5743 
2 *599:6 *599:16 35.8414 
3 *599:16 *6581:A 23 
4 *599:6 *5993:A2 31.063 
*END

*D_NET *600 0.00157357
*CONN
*I *5924:A3 I *D sky130_fd_sc_hd__mux4_1
*I *6546:A I *D sky130_fd_sc_hd__dlygate4sd3_1
*I *6410:Q O *D sky130_fd_sc_hd__dfxtp_1
*CAP
1 *5924:A3 0
2 *6546:A 0
3 *6410:Q 7.02917e-05
4 *600:23 0.000409581
5 *600:8 0.000479873
6 *600:23 *5906:A0 6.68617e-05
7 *5907:A *600:23 0.00010018
8 *216:96 *600:23 2.93845e-05
9 *225:102 *600:8 3.53115e-05
10 *225:102 *600:23 0.000222786
11 *225:121 *600:23 5.21024e-05
12 *225:136 *600:23 5.56111e-05
13 *226:133 *600:23 9.21347e-06
14 *226:135 *600:23 4.23714e-05
*RES
1 *6410:Q *600:8 24.595 
2 *600:8 *6546:A 23 
3 *600:8 *600:23 39.9221 
4 *600:23 *5924:A3 23 
*END

*D_NET *601 0.0015283
*CONN
*I *5939:A3 I *D sky130_fd_sc_hd__mux4_1
*I *6625:A I *D sky130_fd_sc_hd__dlygate4sd3_1
*I *6411:Q O *D sky130_fd_sc_hd__dfxtp_1
*CAP
1 *5939:A3 0.000378063
2 *6625:A 7.93159e-05
3 *6411:Q 7.51726e-05
4 *601:10 0.000457379
5 *601:8 7.51726e-05
6 *5939:A3 *628:6 0.000103647
7 *6625:A *628:6 5.41288e-05
8 *5939:A0 *5939:A3 0.000212277
9 *5939:S0 *5939:A3 5.50049e-05
10 *116:8 *601:8 3.81391e-05
11 *391:73 *6625:A 0
12 *585:20 *601:8 0
*RES
1 *6411:Q *601:8 39.5536 
2 *601:8 *601:10 15 
3 *601:10 *6625:A 24.595 
4 *601:10 *5939:A3 31.9279 
*END

*D_NET *602 0.00322595
*CONN
*I *5948:A3 I *D sky130_fd_sc_hd__mux4_1
*I *6534:A I *D sky130_fd_sc_hd__dlygate4sd3_1
*I *6412:Q O *D sky130_fd_sc_hd__dfxtp_1
*CAP
1 *5948:A3 0
2 *6534:A 2.99962e-05
3 *6412:Q 0.000251416
4 *602:29 0.000909644
5 *602:10 0.00093964
6 *602:8 0.000251416
7 *6534:A *673:10 5.12254e-05
8 *602:8 *673:10 3.83778e-05
9 *602:29 *673:10 9.74722e-05
10 *602:29 *820:16 2.28032e-05
11 *6324:D *602:29 3.32987e-05
12 *29:8 *602:29 0
13 *133:8 *602:8 5.45887e-05
14 *225:12 *602:29 1.44546e-05
15 *391:20 *6534:A 9.84794e-05
16 *391:20 *602:29 0.000269781
17 *391:22 *602:8 0
18 *391:30 *602:8 0
19 *411:20 *602:29 0.000163352
20 *487:25 *602:8 0
21 *487:40 *602:8 0
*RES
1 *6412:Q *602:8 42.7229 
2 *602:8 *602:10 15 
3 *602:10 *6534:A 24.0979 
4 *602:10 *602:29 45.3079 
5 *602:29 *5948:A3 23 
*END

*D_NET *603 0.00212103
*CONN
*I *5957:A3 I *D sky130_fd_sc_hd__mux4_1
*I *6582:A I *D sky130_fd_sc_hd__dlygate4sd3_1
*I *6413:Q O *D sky130_fd_sc_hd__dfxtp_1
*CAP
1 *5957:A3 0
2 *6582:A 0
3 *6413:Q 0
4 *603:25 0.000570263
5 *603:12 0.000101586
6 *603:4 0.000671849
7 *603:12 *750:10 8.62876e-05
8 *603:25 *757:87 8.94487e-05
9 *603:25 *757:89 0.000138727
10 *603:25 *757:97 6.10781e-05
11 *5913:A *603:25 1.94693e-05
12 *216:141 *603:25 0.0002007
13 *226:240 *603:25 7.65564e-05
14 *226:244 *603:25 9.49187e-05
15 *372:128 *603:12 1.01436e-05
16 *401:87 *603:12 0
*RES
1 *6413:Q *603:4 23 
2 *603:4 *603:12 32.0507 
3 *603:12 *6582:A 23 
4 *603:4 *603:25 40.005 
5 *603:25 *5957:A3 23 
*END

*D_NET *604 0.00162066
*CONN
*I *5966:A3 I *D sky130_fd_sc_hd__mux4_1
*I *6596:A I *D sky130_fd_sc_hd__dlygate4sd3_1
*I *6414:Q O *D sky130_fd_sc_hd__dfxtp_1
*CAP
1 *5966:A3 0
2 *6596:A 0
3 *6414:Q 0
4 *604:31 0.000396298
5 *604:12 0.000208587
6 *604:4 0.000604885
7 *604:12 *768:107 0
8 *5966:A0 *604:31 0.000241363
9 *5966:A1 *604:31 4.55332e-05
10 *5966:S0 *604:31 7.30891e-05
11 *221:10 *604:31 5.09072e-05
12 *225:58 *604:12 0
*RES
1 *6414:Q *604:4 23 
2 *604:4 *604:12 33.0036 
3 *604:12 *6596:A 23 
4 *604:4 *604:31 37.7264 
5 *604:31 *5966:A3 23 
*END

*D_NET *605 0.00197608
*CONN
*I *5975:A3 I *D sky130_fd_sc_hd__mux4_1
*I *6533:A I *D sky130_fd_sc_hd__dlygate4sd3_1
*I *6415:Q O *D sky130_fd_sc_hd__dfxtp_1
*CAP
1 *5975:A3 0.000392388
2 *6533:A 0
3 *6415:Q 0
4 *605:10 0.000205906
5 *605:4 0.000598295
6 *5975:A1 *5975:A3 4.07059e-05
7 *5975:S0 *5975:A3 0.000350612
8 *226:227 *5975:A3 0
9 *237:84 *605:10 5.90531e-05
10 *382:14 *605:10 6.48142e-05
11 *391:122 *605:10 8.62876e-05
12 *470:18 *605:10 6.6869e-05
13 *470:96 *605:10 0.000111148
*RES
1 *6415:Q *605:4 23 
2 *605:4 *605:10 34.7229 
3 *605:10 *6533:A 23 
4 *605:4 *5975:A3 29.38 
*END

*D_NET *606 0.00148414
*CONN
*I *5984:A3 I *D sky130_fd_sc_hd__mux4_1
*I *6594:A I *D sky130_fd_sc_hd__dlygate4sd3_1
*I *6416:Q O *D sky130_fd_sc_hd__dfxtp_1
*CAP
1 *5984:A3 0
2 *6594:A 0
3 *6416:Q 0.000274842
4 *606:20 0.000128514
5 *606:12 0.000403356
6 *606:20 *625:45 0.00019747
7 *606:20 *762:6 3.22879e-05
8 *391:59 *606:12 6.08081e-05
9 *428:117 *606:20 0
10 *590:28 *606:12 0.00022097
11 *598:27 *606:12 0.000165895
*RES
1 *6416:Q *606:12 29.8771 
2 *606:12 *606:20 33.2314 
3 *606:20 *6594:A 23 
4 *606:12 *5984:A3 23 
*END

*D_NET *607 0.00221435
*CONN
*I *5993:A3 I *D sky130_fd_sc_hd__mux4_1
*I *6528:A I *D sky130_fd_sc_hd__dlygate4sd3_1
*I *6417:Q O *D sky130_fd_sc_hd__dfxtp_1
*CAP
1 *5993:A3 0
2 *6528:A 0
3 *6417:Q 9.47293e-05
4 *607:25 0.000559825
5 *607:12 0.000113665
6 *607:6 0.000768219
7 *607:25 *5920:A0 0.000224605
8 *6417:D *607:6 5.3304e-05
9 *122:8 *607:12 3.47781e-05
10 *224:10 *607:25 5.1358e-05
11 *225:27 *607:25 6.68587e-05
12 *226:85 *607:25 3.81451e-05
13 *226:93 *607:25 4.21594e-06
14 *391:45 *607:12 0.000107548
15 *480:16 *607:12 9.70962e-05
*RES
1 *6417:Q *607:6 24.0979 
2 *607:6 *607:12 33.6664 
3 *607:12 *6528:A 23 
4 *607:6 *607:25 38.7207 
5 *607:25 *5993:A3 23 
*END

*D_NET *608 0.00263656
*CONN
*I *6629:A I *D sky130_fd_sc_hd__dlygate4sd3_1
*I *5932:A0 I *D sky130_fd_sc_hd__mux4_1
*I *6402:Q O *D sky130_fd_sc_hd__dfxtp_1
*CAP
1 *6629:A 7.0612e-05
2 *5932:A0 0
3 *6402:Q 0
4 *608:12 0.000934305
5 *608:4 0.00100492
6 *608:12 *724:188 0.000180218
7 *608:12 *724:206 0.000109473
8 *232:192 *608:12 0
9 *339:75 *608:12 0.000114268
10 *470:56 *608:12 0.000108681
11 *504:12 *608:12 0.000114083
*RES
1 *6402:Q *608:4 23 
2 *608:4 *608:12 43.92 
3 *608:12 *5932:A0 23 
4 *608:4 *6629:A 24.4707 
*END

*D_NET *609 0.00319496
*CONN
*I *6586:A I *D sky130_fd_sc_hd__dlygate4sd3_1
*I *5943:A0 I *D sky130_fd_sc_hd__mux4_1
*I *6403:Q O *D sky130_fd_sc_hd__dfxtp_1
*CAP
1 *6586:A 0.00013693
2 *5943:A0 0
3 *6403:Q 6.90834e-05
4 *609:28 0.00096282
5 *609:10 0.00109975
6 *609:8 6.90834e-05
7 *6586:A *754:6 9.62666e-05
8 *609:28 *6154:A1 3.98818e-05
9 *609:28 *635:8 4.334e-05
10 *609:28 *735:162 0
11 *609:28 *754:6 2.93747e-05
12 *5943:S0 *609:28 0.000191628
13 *6155:A *609:28 0.00010655
14 *6371:CLK *609:28 4.82745e-05
15 *6403:CLK *609:28 0
16 *245:6 *609:28 6.50913e-05
17 *382:80 *609:28 0
18 *382:96 *609:8 0.000114083
19 *382:96 *609:28 0
20 *472:10 *609:28 7.81176e-05
21 *505:23 *609:28 4.46853e-05
*RES
1 *6403:Q *609:8 39.5536 
2 *609:8 *609:10 15 
3 *609:10 *609:28 48.1457 
4 *609:28 *5943:A0 23 
5 *609:10 *6586:A 25.5479 
*END

*D_NET *610 0.00244846
*CONN
*I *6530:A I *D sky130_fd_sc_hd__dlygate4sd3_1
*I *5952:A0 I *D sky130_fd_sc_hd__mux4_1
*I *6404:Q O *D sky130_fd_sc_hd__dfxtp_1
*CAP
1 *6530:A 8.83509e-05
2 *5952:A0 0
3 *6404:Q 0
4 *610:12 0.000827292
5 *610:4 0.000915643
6 *6530:A *668:10 8.91468e-07
7 *610:12 *746:31 4.13358e-05
8 *5952:S0 *610:12 1.19796e-05
9 *6404:CLK *6530:A 1.14154e-05
10 *6404:CLK *610:12 0.000235704
11 *514:8 *610:12 0.000315852
*RES
1 *6404:Q *610:4 23 
2 *610:4 *610:12 42.5321 
3 *610:12 *5952:A0 23 
4 *610:4 *6530:A 24.4707 
*END

*D_NET *611 0.00293694
*CONN
*I *6652:A I *D sky130_fd_sc_hd__dlygate4sd3_1
*I *5961:A0 I *D sky130_fd_sc_hd__mux4_1
*I *6405:Q O *D sky130_fd_sc_hd__dfxtp_1
*CAP
1 *6652:A 6.94439e-05
2 *5961:A0 0
3 *6405:Q 0
4 *611:12 0.00108648
5 *611:4 0.00115592
6 *611:12 *6083:A0 1.5769e-05
7 *5962:A1 *611:12 0.000140949
8 *6083:S *611:12 0
9 *6405:D *611:12 2.97352e-05
10 *486:141 *611:12 4.27353e-05
11 *507:27 *611:12 0.000395901
*RES
1 *6405:Q *611:4 23 
2 *611:4 *611:12 45.8671 
3 *611:12 *5961:A0 23 
4 *611:4 *6652:A 24.4707 
*END

*D_NET *612 0.00238946
*CONN
*I *5970:A0 I *D sky130_fd_sc_hd__mux4_1
*I *6631:A I *D sky130_fd_sc_hd__dlygate4sd3_1
*I *6406:Q O *D sky130_fd_sc_hd__dfxtp_1
*CAP
1 *5970:A0 0.000769413
2 *6631:A 0
3 *6406:Q 0.00020088
4 *612:10 0.000970294
5 *5970:A0 *6105:A1 3.08847e-05
6 *6406:CLK *612:10 0.000143655
7 *230:89 *5970:A0 3.83778e-05
8 *232:81 *5970:A0 7.88926e-05
9 *270:10 *5970:A0 3.46241e-05
10 *270:10 *612:10 5.51058e-05
11 *351:75 *5970:A0 5.71628e-05
12 *508:35 *5970:A0 1.01712e-05
*RES
1 *6406:Q *612:10 41.8321 
2 *612:10 *6631:A 38 
3 *612:10 *5970:A0 48.9993 
*END

*D_NET *613 0.00222763
*CONN
*I *5979:A0 I *D sky130_fd_sc_hd__mux4_1
*I *6643:A I *D sky130_fd_sc_hd__dlygate4sd3_1
*I *6407:Q O *D sky130_fd_sc_hd__dfxtp_1
*CAP
1 *5979:A0 0
2 *6643:A 7.35678e-05
3 *6407:Q 0
4 *613:23 0.000873577
5 *613:4 0.000947144
6 *613:23 *663:8 0
7 *5979:A3 *613:23 4.06849e-05
8 *6524:A *613:23 6.31257e-05
9 *278:12 *613:23 8.37147e-05
10 *492:16 *613:23 2.34719e-05
11 *509:27 *613:23 6.17219e-05
12 *517:6 *613:23 6.06173e-05
*RES
1 *6407:Q *613:4 23 
2 *613:4 *6643:A 24.4707 
3 *613:4 *613:23 43.5886 
4 *613:23 *5979:A0 23 
*END

*D_NET *614 0.00380177
*CONN
*I *5988:A0 I *D sky130_fd_sc_hd__mux4_1
*I *6574:A I *D sky130_fd_sc_hd__dlygate4sd3_1
*I *6408:Q O *D sky130_fd_sc_hd__dfxtp_1
*CAP
1 *5988:A0 0
2 *6574:A 5.01125e-05
3 *6408:Q 0.000163254
4 *614:35 0.0010401
5 *614:10 0.00125347
6 *6574:A *742:6 0.000139352
7 *614:35 *625:192 0
8 *5988:A2 *614:35 8.45529e-05
9 *6319:A *614:35 8.34313e-05
10 *179:8 *614:35 1.37246e-05
11 *231:12 *6574:A 4.93341e-05
12 *233:212 *614:35 0.000113719
13 *243:14 *614:10 0.000133316
14 *243:14 *614:35 0.000460039
15 *285:10 *614:35 0.000207157
16 *482:93 *614:35 1.02104e-05
*RES
1 *6408:Q *614:10 40.5271 
2 *614:10 *6574:A 39.5743 
3 *614:10 *614:35 33.7671 
4 *614:35 *5988:A0 23 
*END

*D_NET *615 0.00329696
*CONN
*I *6620:A I *D sky130_fd_sc_hd__dlygate4sd3_1
*I *5997:A0 I *D sky130_fd_sc_hd__mux4_1
*I *6409:Q O *D sky130_fd_sc_hd__dfxtp_1
*CAP
1 *6620:A 0
2 *5997:A0 0
3 *6409:Q 0.000765189
4 *615:18 0.000182059
5 *615:10 0.000947248
6 *6409:D *615:10 5.10613e-05
7 *362:22 *615:18 0.000409151
8 *428:65 *615:18 0.000409151
9 *489:40 *615:10 0.000129027
10 *489:53 *615:10 0.00030373
11 *489:53 *615:18 9.41704e-05
12 *489:75 *615:10 6.17437e-06
*RES
1 *6409:Q *615:10 34.6207 
2 *615:10 *615:18 36.525 
3 *615:18 *5997:A0 23 
4 *615:10 *6620:A 23 
*END

*D_NET *616 0.00390101
*CONN
*I *6639:A I *D sky130_fd_sc_hd__dlygate4sd3_1
*I *5932:A1 I *D sky130_fd_sc_hd__mux4_1
*I *6488:Q O *D sky130_fd_sc_hd__dfxtp_1
*CAP
1 *6639:A 0.00026441
2 *5932:A1 0.000762076
3 *6488:Q 0.000275705
4 *616:10 0.00130219
5 *6639:A *6077:A0 0.00011451
6 *6639:A *642:8 0.000211979
7 *616:10 *642:8 8.4047e-05
8 *5932:S0 *5932:A1 0.00011807
9 *5932:S1 *5932:A1 3.71251e-05
10 *173:8 *616:10 0.000310647
11 *235:10 *5932:A1 2.19998e-05
12 *235:10 *6639:A 2.70366e-05
13 *382:74 *6639:A 0.000275482
14 *382:74 *616:10 8.4047e-05
15 *504:31 *5932:A1 1.16872e-05
*RES
1 *6488:Q *616:10 42.6814 
2 *616:10 *5932:A1 48.5229 
3 *616:10 *6639:A 45.1464 
*END

*D_NET *617 0.00291468
*CONN
*I *6584:A I *D sky130_fd_sc_hd__dlygate4sd3_1
*I *5943:A1 I *D sky130_fd_sc_hd__mux4_1
*I *6489:Q O *D sky130_fd_sc_hd__dfxtp_1
*CAP
1 *6584:A 7.82588e-05
2 *5943:A1 0
3 *6489:Q 0
4 *617:12 0.00109463
5 *617:4 0.00117289
6 *6489:CLK *617:12 0.000354127
7 *174:14 *617:12 9.70243e-05
8 *245:14 *617:12 0
9 *351:119 *617:12 0
10 *470:56 *617:12 0
11 *482:104 *617:12 0.00011775
*RES
1 *6489:Q *617:4 23 
2 *617:4 *617:12 45.3907 
3 *617:12 *5943:A1 23 
4 *617:4 *6584:A 24.4707 
*END

*D_NET *618 0.00323103
*CONN
*I *6613:A I *D sky130_fd_sc_hd__dlygate4sd3_1
*I *5952:A1 I *D sky130_fd_sc_hd__mux4_1
*I *6490:Q O *D sky130_fd_sc_hd__dfxtp_1
*CAP
1 *6613:A 0.00021694
2 *5952:A1 0
3 *6490:Q 8.72101e-05
4 *618:22 0.000626947
5 *618:8 0.000931097
6 *6613:A *781:6 0.00017761
7 *618:8 *757:50 4.96717e-05
8 *618:22 *6101:A0 3.22879e-05
9 *5952:A2 *618:22 0.000202094
10 *5952:S1 *618:22 6.79006e-05
11 *233:150 *6613:A 8.72881e-05
12 *233:150 *618:22 6.43143e-05
13 *252:10 *6613:A 0.00026599
14 *252:10 *618:22 8.74175e-05
15 *254:10 *618:22 0.000188916
16 *298:67 *6613:A 4.05745e-05
17 *351:99 *618:22 8.89615e-06
18 *470:145 *6613:A 9.5877e-05
*RES
1 *6490:Q *618:8 39.0979 
2 *618:8 *618:22 27.1179 
3 *618:22 *5952:A1 23 
4 *618:8 *6613:A 43.7171 
*END

*D_NET *619 0.00373466
*CONN
*I *6608:A I *D sky130_fd_sc_hd__dlygate4sd3_1
*I *5961:A1 I *D sky130_fd_sc_hd__mux4_1
*I *6491:Q O *D sky130_fd_sc_hd__dfxtp_1
*CAP
1 *6608:A 0
2 *5961:A1 0
3 *6491:Q 0
4 *619:29 0.000247361
5 *619:16 0.000915922
6 *619:4 0.00116328
7 *619:16 *670:10 0.000135557
8 *619:16 *757:213 0.000359332
9 *619:29 *6158:A1 3.47781e-05
10 *619:29 *757:196 0.000242926
11 *619:29 *757:213 0.000185428
12 *5961:A3 *619:16 5.41385e-05
13 *6531:A *619:16 0
14 *232:240 *619:16 0.000150056
15 *261:8 *619:16 1.38395e-05
16 *386:10 *619:16 0.000166513
17 *470:151 *619:29 4.21594e-06
18 *507:27 *619:16 6.13136e-05
*RES
1 *6491:Q *619:4 23 
2 *619:4 *619:16 45.1629 
3 *619:16 *5961:A1 23 
4 *619:4 *619:29 35.7171 
5 *619:29 *6608:A 23 
*END

*D_NET *620 0.00225767
*CONN
*I *6589:A I *D sky130_fd_sc_hd__dlygate4sd3_1
*I *5970:A1 I *D sky130_fd_sc_hd__mux4_1
*I *6492:Q O *D sky130_fd_sc_hd__dfxtp_1
*CAP
1 *6589:A 0
2 *5970:A1 0
3 *6492:Q 3.92388e-05
4 *620:25 0.000110022
5 *620:14 0.00056188
6 *620:6 0.000711141
7 *620:14 *777:8 3.83778e-05
8 *6492:D *620:14 5.50049e-05
9 *232:101 *620:6 5.3304e-05
10 *232:101 *620:14 0.000265477
11 *233:81 *620:25 0.000274553
12 *351:75 *620:14 2.46922e-05
13 *356:10 *620:14 0
14 *484:56 *620:14 2.26371e-05
15 *508:12 *620:14 6.17437e-06
16 *508:35 *620:25 9.51648e-05
*RES
1 *6492:Q *620:6 23.6214 
2 *620:6 *620:14 38.2443 
3 *620:14 *5970:A1 23 
4 *620:6 *620:25 33.6664 
5 *620:25 *6589:A 23 
*END

*D_NET *621 0.00297819
*CONN
*I *6575:A I *D sky130_fd_sc_hd__dlygate4sd3_1
*I *5979:A1 I *D sky130_fd_sc_hd__mux4_1
*I *6493:Q O *D sky130_fd_sc_hd__dfxtp_1
*CAP
1 *6575:A 0
2 *5979:A1 0
3 *6493:Q 0
4 *621:29 0.000207608
5 *621:16 0.00107868
6 *621:4 0.00128629
7 *621:29 *779:43 0
8 *6493:CLK *621:16 0.000154168
9 *6493:D *621:16 1.64354e-05
10 *232:305 *621:16 2.54044e-05
11 *276:12 *621:29 0.000138727
12 *492:8 *621:16 1.58805e-05
13 *492:16 *621:16 5.50049e-05
14 *493:10 *621:16 0
15 *509:10 *621:16 0
*RES
1 *6493:Q *621:4 23 
2 *621:4 *621:16 45.8464 
3 *621:16 *5979:A1 23 
4 *621:4 *621:29 33.48 
5 *621:29 *6575:A 23 
*END

*D_NET *622 0.00435849
*CONN
*I *6570:A I *D sky130_fd_sc_hd__dlygate4sd3_1
*I *5988:A1 I *D sky130_fd_sc_hd__mux4_1
*I *6494:Q O *D sky130_fd_sc_hd__dfxtp_1
*CAP
1 *6570:A 0
2 *5988:A1 0
3 *6494:Q 0.00023616
4 *622:45 0.000197797
5 *622:30 0.000581203
6 *622:12 0.000881391
7 *622:8 0.00033855
8 *622:8 *735:129 2.11157e-05
9 *622:12 *6318:A0 9.84851e-05
10 *622:30 *6109:A0 2.93845e-05
11 *622:30 *6318:A0 0.000100607
12 *622:30 *625:166 1.40958e-05
13 *622:30 *625:173 1.21972e-05
14 *622:30 *625:186 0.000576673
15 *622:30 *735:192 7.86449e-05
16 *622:45 *738:8 4.08641e-05
17 *5988:A2 *622:30 1.94693e-05
18 *6089:S *622:45 9.00923e-05
19 *84:8 *622:8 4.6318e-06
20 *231:18 *622:8 0.000117334
21 *232:184 *622:45 1.32314e-05
22 *233:212 *622:45 4.74706e-05
23 *237:138 *622:30 0.000278432
24 *237:150 *622:45 8.45596e-05
25 *243:14 *622:8 0.000180701
26 *243:14 *622:45 6.7177e-06
27 *358:8 *622:30 4.51599e-05
28 *470:40 *622:30 9.62666e-05
29 *470:52 *622:30 7.67714e-06
30 *482:93 *622:12 9.45591e-05
31 *482:93 *622:30 2.93845e-05
32 *482:104 *622:12 3.5638e-05
33 *482:104 *622:30 0
34 *510:14 *622:30 0
*RES
1 *6494:Q *622:8 43.4271 
2 *622:8 *622:12 17.5271 
3 *622:12 *622:30 44.5414 
4 *622:30 *5988:A1 23 
5 *622:12 *622:45 34.4536 
6 *622:45 *6570:A 23 
*END

*D_NET *623 0.00323011
*CONN
*I *6624:A I *D sky130_fd_sc_hd__dlygate4sd3_1
*I *5997:A1 I *D sky130_fd_sc_hd__mux4_1
*I *6495:Q O *D sky130_fd_sc_hd__dfxtp_1
*CAP
1 *6624:A 0.000167632
2 *5997:A1 0.00106307
3 *6495:Q 6.80112e-05
4 *623:10 0.0012307
5 *623:8 6.80112e-05
6 *5997:A2 *5997:A1 7.99386e-05
7 *6167:A *5997:A1 3.08848e-05
8 *114:12 *5997:A1 0.000181925
9 *225:160 *623:8 0.000114656
10 *489:34 *623:8 0.000225275
*RES
1 *6495:Q *623:8 40.9621 
2 *623:8 *623:10 15 
3 *623:10 *5997:A1 36.8579 
4 *623:10 *6624:A 25.4236 
*END

*D_NET *624 0.0168627
*CONN
*I *6516:A I *D sky130_fd_sc_hd__clkbuf_4
*I *6654:X O *D sky130_fd_sc_hd__dlymetal6s2s_1
*CAP
1 *6516:A 0
2 *6654:X 2.34823e-05
3 *624:12 0.00415888
4 *624:10 0.00415888
5 *624:8 0.00315731
6 *624:6 0.00318079
7 *624:8 *746:6 0.00202983
8 *3:11 *624:8 9.84794e-05
9 *19:9 *624:8 5.50106e-05
*RES
1 *6654:X *624:6 23.4971 
2 *624:6 *624:8 70.6564 
3 *624:8 *624:10 15 
4 *624:10 *624:12 81.49 
5 *624:12 *6516:A 38 
*END

*D_NET *625 0.0407499
*CONN
*I *6247:A1 I *D sky130_fd_sc_hd__mux2_1
*I *6128:A1 I *D sky130_fd_sc_hd__mux2_1
*I *6318:A1 I *D sky130_fd_sc_hd__mux2_1
*I *6164:A1 I *D sky130_fd_sc_hd__mux2_1
*I *6089:A1 I *D sky130_fd_sc_hd__mux2_1
*I *6109:A1 I *D sky130_fd_sc_hd__mux2_1
*I *6071:A1 I *D sky130_fd_sc_hd__mux2_1
*I *6053:A1 I *D sky130_fd_sc_hd__mux2_1
*I *6300:A1 I *D sky130_fd_sc_hd__mux2_1
*I *6016:A1 I *D sky130_fd_sc_hd__mux2_1
*I *6035:A1 I *D sky130_fd_sc_hd__mux2_1
*I *6199:A1 I *D sky130_fd_sc_hd__mux2_1
*I *6146:A1 I *D sky130_fd_sc_hd__mux2_1
*I *6181:A1 I *D sky130_fd_sc_hd__mux2_1
*I *6217:A1 I *D sky130_fd_sc_hd__mux2_1
*I *5918:A1 I *D sky130_fd_sc_hd__mux2_1
*I *6655:X O *D sky130_fd_sc_hd__buf_4
*CAP
1 *6247:A1 7.15106e-05
2 *6128:A1 8.79717e-05
3 *6318:A1 0
4 *6164:A1 0
5 *6089:A1 0
6 *6109:A1 0
7 *6071:A1 0.000495234
8 *6053:A1 0.000234323
9 *6300:A1 0
10 *6016:A1 0.000285976
11 *6035:A1 0
12 *6199:A1 0
13 *6146:A1 0.000223594
14 *6181:A1 8.0784e-05
15 *6217:A1 0.000184972
16 *5918:A1 0
17 *6655:X 0.00130159
18 *625:192 0.000476475
19 *625:186 0.000794244
20 *625:179 4.95964e-05
21 *625:173 0.000410807
22 *625:166 0.0001024
23 *625:142 0.00111902
24 *625:124 0.000440059
25 *625:122 0.00129557
26 *625:116 0.00141792
27 *625:114 0.00119611
28 *625:100 0.00182536
29 *625:82 0.000637967
30 *625:72 0.00200391
31 *625:66 0.000716713
32 *625:51 0.00159637
33 *625:45 0.00133403
34 *625:32 0.000755515
35 *625:21 0.000591262
36 *625:12 0.000120268
37 *625:10 0.00184832
38 *625:8 0.00184832
39 *625:6 0.00130159
40 *6016:A1 *6300:A0 5.50106e-05
41 *6016:A1 *659:10 0.000192022
42 *6071:A1 *6071:A0 1.94812e-05
43 *6128:A1 *6128:A0 5.67058e-05
44 *6146:A1 *6146:A0 0.000146971
45 *6181:A1 *762:6 9.58714e-05
46 *6217:A1 *6217:A0 0.000201109
47 *6247:A1 *766:6 5.67058e-05
48 *625:10 *735:12 0.00056043
49 *625:10 *735:18 0.000976405
50 *625:21 *5918:A0 3.22879e-05
51 *625:32 *674:8 4.85126e-05
52 *625:32 *735:18 2.60152e-05
53 *625:66 *755:8 0.000362434
54 *625:72 *768:44 0.000380342
55 *625:82 *633:6 5.50049e-05
56 *625:82 *746:93 8.4047e-05
57 *625:82 *772:10 0.000159426
58 *625:100 *633:6 0.000483526
59 *625:114 *664:10 0.000235804
60 *625:116 *6109:A0 0.000230604
61 *625:122 *649:10 0
62 *625:122 *724:120 0
63 *625:122 *724:122 0
64 *625:122 *735:192 0.000394646
65 *625:122 *735:207 5.41614e-05
66 *625:124 *6300:A0 0.0002263
67 *625:142 *6300:A0 0.000181125
68 *625:142 *659:10 2.79662e-05
69 *625:166 *6109:A0 4.34745e-05
70 *625:179 *735:192 0.000114092
71 *625:186 *6318:A0 5.50049e-05
72 *5950:A1 *625:114 0
73 *5954:A0 *625:114 0.000165744
74 *5954:A0 *625:116 0.000274078
75 *5954:A1 *625:116 0.000143655
76 *5967:A1 *625:51 0
77 *5984:S0 *625:45 0.000104123
78 *5985:A3 *625:72 0.000193702
79 *5985:A3 *625:82 0.000207257
80 *5987:S1 *6071:A1 6.07611e-06
81 *6031:S *625:51 9.63918e-05
82 *6290:S *625:122 0.000357921
83 *6388:D *625:114 9.41704e-05
84 *6525:A *625:100 8.51049e-05
85 *6604:A *625:82 0.000260321
86 *6630:A *625:82 4.21378e-05
87 *6650:A *625:122 7.03663e-05
88 *33:8 *625:32 0.000191157
89 *57:8 *625:82 0
90 *216:60 *625:10 1.14452e-05
91 *216:77 *625:21 3.91386e-05
92 *223:10 *6217:A1 2.93747e-05
93 *223:10 *625:21 2.93845e-05
94 *223:10 *625:32 0.0003731
95 *225:79 *625:45 0.000116403
96 *225:79 *625:51 0.000355023
97 *226:114 *625:51 0
98 *226:204 *625:100 8.51049e-05
99 *230:41 *625:51 0.000598901
100 *230:41 *625:66 2.46345e-05
101 *230:55 *6146:A1 5.3304e-05
102 *230:66 *625:66 0.000445811
103 *230:66 *625:82 0
104 *230:140 *625:192 0
105 *232:157 *6053:A1 0.000182428
106 *232:157 *625:142 3.69935e-05
107 *232:167 *625:142 0.000119921
108 *233:181 *6053:A1 0
109 *233:181 *6071:A1 7.21872e-05
110 *233:212 *625:192 0.000237628
111 *237:124 *625:116 2.93845e-05
112 *237:138 *625:116 0.000186941
113 *237:138 *625:192 0
114 *250:8 *625:114 0.000210875
115 *265:12 *625:51 0.000876735
116 *284:8 *6071:A1 0.000119467
117 *284:16 *625:122 0
118 *284:16 *625:142 0.000107538
119 *284:16 *625:179 5.56306e-05
120 *300:8 *625:122 2.5415e-05
121 *309:52 *625:51 7.20415e-05
122 *309:52 *625:66 2.24973e-05
123 *309:52 *625:82 8.36011e-05
124 *309:65 *625:100 0.000796855
125 *309:101 *625:100 6.68822e-05
126 *309:101 *625:114 9.17998e-05
127 *316:10 *625:82 5.26204e-05
128 *362:51 *6128:A1 9.84851e-05
129 *369:8 *6128:A1 4.05745e-05
130 *369:8 *625:66 2.93747e-05
131 *391:59 *625:45 8.62783e-05
132 *391:73 *625:32 8.62783e-05
133 *391:73 *625:45 0.000134896
134 *411:143 *625:32 0
135 *428:105 *6247:A1 0.000216471
136 *428:105 *625:51 0.000373694
137 *428:117 *625:45 0
138 *462:8 *625:122 4.334e-05
139 *470:34 *625:192 3.6061e-05
140 *482:93 *625:192 7.85305e-05
141 *485:14 *6053:A1 0.000107641
142 *494:99 *625:51 5.2011e-05
143 *510:14 *625:116 0.000141164
144 *534:12 *6053:A1 0
145 *537:8 *625:122 0
146 *542:27 *625:142 6.25829e-05
147 *590:28 *625:32 2.04774e-05
148 *590:28 *625:45 3.95159e-06
149 *598:10 *625:32 0
150 *598:27 *625:45 3.31127e-05
151 *606:20 *625:45 0.00019747
152 *614:35 *625:192 0
153 *622:30 *625:166 1.40958e-05
154 *622:30 *625:173 1.21972e-05
155 *622:30 *625:186 0.000576673
*RES
1 *6655:X *625:6 46.9664 
2 *625:6 *625:8 15 
3 *625:8 *625:10 47.6843 
4 *625:10 *625:12 15 
5 *625:12 *5918:A1 23 
6 *625:12 *625:21 2.54786 
7 *625:21 *6217:A1 27.9093 
8 *625:21 *625:32 22.54 
9 *625:32 *6181:A1 39.0979 
10 *625:32 *625:45 24.3007 
11 *625:45 *625:51 39.07 
12 *625:51 *6146:A1 41.48 
13 *625:51 *625:66 25.44 
14 *625:66 *625:72 35.075 
15 *625:72 *625:82 41.7864 
16 *625:82 *6199:A1 23 
17 *625:72 *6035:A1 23 
18 *625:72 *625:100 49.9271 
19 *625:100 *625:114 40.7921 
20 *625:114 *625:116 14.4379 
21 *625:116 *625:122 48.4564 
22 *625:122 *625:124 2.52714 
23 *625:124 *6016:A1 27.4329 
24 *625:124 *6300:A1 23 
25 *625:122 *625:142 22.6746 
26 *625:142 *6053:A1 43.2511 
27 *625:142 *6071:A1 46.5861 
28 *625:116 *625:166 1.09786 
29 *625:166 *6109:A1 23 
30 *625:166 *625:173 0.621429 
31 *625:173 *625:179 31.5536 
32 *625:179 *6089:A1 23 
33 *625:173 *625:186 6.815 
34 *625:186 *625:192 38.9486 
35 *625:192 *6164:A1 23 
36 *625:186 *6318:A1 23 
37 *625:66 *6128:A1 25.0507 
38 *625:45 *6247:A1 25.5271 
*END

*D_NET *626 0.00108415
*CONN
*I *6237:A0 I *D sky130_fd_sc_hd__mux2_1
*I *6623:X O *D sky130_fd_sc_hd__dlygate4sd3_1
*CAP
1 *6237:A0 0
2 *6623:X 0.00036712
3 *626:6 0.00036712
4 *5939:A0 *626:6 0.000123934
5 *6623:A *626:6 0.000128401
6 *241:10 *626:6 9.75779e-05
*RES
1 *6623:X *626:6 31.2443 
2 *626:6 *6237:A0 23 
*END

*D_NET *627 0.000565192
*CONN
*I *6320:A0 I *D sky130_fd_sc_hd__mux2_1
*I *6624:X O *D sky130_fd_sc_hd__dlygate4sd3_1
*CAP
1 *6320:A0 0
2 *6624:X 0.000268646
3 *627:10 0.000268646
4 *225:160 *627:10 2.79004e-05
5 *237:84 *627:10 0
*RES
1 *6624:X *627:10 41.7286 
2 *627:10 *6320:A0 38 
*END

*D_NET *628 0.000827516
*CONN
*I *6171:A0 I *D sky130_fd_sc_hd__mux2_1
*I *6625:X O *D sky130_fd_sc_hd__dlygate4sd3_1
*CAP
1 *6171:A0 0
2 *6625:X 0.000208191
3 *628:6 0.000208191
4 *628:6 *6171:A1 5.67058e-05
5 *5939:A3 *628:6 0.000103647
6 *6625:A *628:6 5.41288e-05
7 *391:73 *628:6 5.70419e-05
8 *393:10 *628:6 0.00013961
*RES
1 *6625:X *628:6 28.8621 
2 *628:6 *6171:A0 23 
*END

*D_NET *629 0.00170041
*CONN
*I *6215:A0 I *D sky130_fd_sc_hd__mux2_1
*I *6626:X O *D sky130_fd_sc_hd__dlygate4sd3_1
*CAP
1 *6215:A0 0.000617702
2 *6626:X 7.99831e-05
3 *629:8 0.000697685
4 *6431:CLK *6215:A0 2.65505e-05
5 *6431:D *6215:A0 0.000167361
6 *6626:A *629:8 0
7 *237:84 *629:8 0
8 *411:77 *6215:A0 5.41288e-05
9 *411:92 *6215:A0 5.69999e-05
*RES
1 *6626:X *629:8 39.2014 
2 *629:8 *6215:A0 46.8864 
*END

*D_NET *630 0.00129067
*CONN
*I *6049:A0 I *D sky130_fd_sc_hd__mux2_1
*I *6627:X O *D sky130_fd_sc_hd__dlygate4sd3_1
*CAP
1 *6049:A0 0.000136594
2 *6627:X 0.000277283
3 *630:8 0.000413876
4 *6049:A0 *6049:A1 5.67058e-05
5 *63:8 *630:8 0.000113244
6 *319:59 *6049:A0 1.56665e-05
7 *319:78 *6049:A0 0.000227208
8 *324:10 *630:8 5.00904e-05
9 *548:29 *630:8 0
*RES
1 *6627:X *630:8 43.075 
2 *630:8 *6049:A0 41.48 
*END

*D_NET *631 0.00108384
*CONN
*I *6111:A0 I *D sky130_fd_sc_hd__mux2_1
*I *6628:X O *D sky130_fd_sc_hd__dlygate4sd3_1
*CAP
1 *6111:A0 0
2 *6628:X 0.000227216
3 *631:6 0.000227216
4 *631:6 *636:65 0.000219383
5 *6628:A *631:6 5.3304e-05
6 *180:10 *631:6 5.50106e-05
7 *401:62 *631:6 0.00030171
*RES
1 *6628:X *631:6 28.8621 
2 *631:6 *6111:A0 23 
*END

*D_NET *632 0.00123414
*CONN
*I *6152:A0 I *D sky130_fd_sc_hd__mux2_1
*I *6629:X O *D sky130_fd_sc_hd__dlygate4sd3_1
*CAP
1 *6152:A0 0.000502769
2 *6629:X 6.55146e-05
3 *632:8 0.000568284
4 *6152:A0 *724:206 5.67058e-05
5 *239:228 *632:8 4.08641e-05
*RES
1 *6629:X *632:8 39.2014 
2 *632:8 *6152:A0 44.3386 
*END

*D_NET *633 0.00118193
*CONN
*I *6035:A0 I *D sky130_fd_sc_hd__mux2_1
*I *6630:X O *D sky130_fd_sc_hd__dlygate4sd3_1
*CAP
1 *6035:A0 0
2 *6630:X 0.000125571
3 *633:6 0.000125571
4 *6630:A *633:6 0.000228001
5 *309:65 *633:6 0.000164259
6 *625:82 *633:6 5.50049e-05
7 *625:100 *633:6 0.000483526
*RES
1 *6630:X *633:6 28.8621 
2 *633:6 *6035:A0 23 
*END

*D_NET *634 0.000773252
*CONN
*I *6160:A0 I *D sky130_fd_sc_hd__mux2_1
*I *6631:X O *D sky130_fd_sc_hd__dlygate4sd3_1
*CAP
1 *6160:A0 0
2 *6631:X 0.000335162
3 *634:6 0.000335162
4 *634:6 *6160:A1 2.93845e-05
5 *6160:S *634:6 1.40958e-05
6 *230:89 *634:6 5.94488e-05
*RES
1 *6631:X *634:6 28.8621 
2 *634:6 *6160:A0 23 
*END

*D_NET *635 0.00155747
*CONN
*I *6099:A0 I *D sky130_fd_sc_hd__mux2_1
*I *6633:X O *D sky130_fd_sc_hd__dlygate4sd3_1
*CAP
1 *6099:A0 0.000293021
2 *6633:X 5.15155e-05
3 *635:8 0.000344537
4 *6099:A0 *735:129 5.67058e-05
5 *6099:A0 *735:133 1.72202e-05
6 *6099:S *6099:A0 4.17736e-05
7 *6308:S *6099:A0 0.000164732
8 *6403:CLK *635:8 4.334e-05
9 *351:133 *6099:A0 5.67058e-05
10 *470:52 *6099:A0 0.00044458
11 *609:28 *635:8 4.334e-05
*RES
1 *6633:X *635:8 39.2014 
2 *635:8 *6099:A0 46.4929 
*END

*D_NET *636 0.0392784
*CONN
*I *6073:A1 I *D sky130_fd_sc_hd__mux2_1
*I *6091:A1 I *D sky130_fd_sc_hd__mux2_1
*I *6111:A1 I *D sky130_fd_sc_hd__mux2_1
*I *6320:A1 I *D sky130_fd_sc_hd__mux2_1
*I *6037:A1 I *D sky130_fd_sc_hd__mux2_1
*I *6148:A1 I *D sky130_fd_sc_hd__mux2_1
*I *6201:A1 I *D sky130_fd_sc_hd__mux2_1
*I *5920:A1 I *D sky130_fd_sc_hd__mux2_1
*I *6183:A1 I *D sky130_fd_sc_hd__mux2_1
*I *6219:A1 I *D sky130_fd_sc_hd__mux2_1
*I *6249:A1 I *D sky130_fd_sc_hd__mux2_1
*I *6130:A1 I *D sky130_fd_sc_hd__mux2_1
*I *6166:A1 I *D sky130_fd_sc_hd__mux2_1
*I *6055:A1 I *D sky130_fd_sc_hd__mux2_1
*I *6018:A1 I *D sky130_fd_sc_hd__mux2_1
*I *6302:A1 I *D sky130_fd_sc_hd__mux2_1
*I *6656:X O *D sky130_fd_sc_hd__buf_4
*CAP
1 *6073:A1 2.34823e-05
2 *6091:A1 0
3 *6111:A1 0
4 *6320:A1 0.000732419
5 *6037:A1 0.00017574
6 *6148:A1 0
7 *6201:A1 0.000322751
8 *5920:A1 0
9 *6183:A1 1.88006e-05
10 *6219:A1 0
11 *6249:A1 0
12 *6130:A1 0.000118114
13 *6166:A1 0
14 *6055:A1 1.50833e-05
15 *6018:A1 9.43202e-05
16 *6302:A1 0
17 *6656:X 0
18 *636:156 0.000128217
19 *636:138 0.000346114
20 *636:130 0.000805853
21 *636:126 0.000935058
22 *636:117 0.000828609
23 *636:111 0.00156277
24 *636:109 0.000691005
25 *636:107 0.000472977
26 *636:90 0.000852805
27 *636:84 0.000944083
28 *636:80 0.00128004
29 *636:73 0.000328537
30 *636:65 0.000669082
31 *636:57 0.000520591
32 *636:53 0.00162307
33 *636:51 0.0015075
34 *636:47 0.000297072
35 *636:38 0.000701268
36 *636:23 0.000745307
37 *636:12 0.000489208
38 *636:6 0.00321783
39 *636:4 0.00294353
40 *6183:A1 *667:6 5.67058e-05
41 *6201:A1 *6201:A0 7.97157e-05
42 *636:23 *644:6 0.000272377
43 *636:47 *694:6 3.22879e-05
44 *636:57 *638:10 2.64616e-05
45 *636:65 *658:26 0
46 *636:84 *790:46 0.000180415
47 *636:84 *791:50 0.000313923
48 *636:107 *6148:A0 0.000181131
49 *636:117 *731:8 0.000326973
50 *636:130 *667:6 0.000575797
51 *5997:A2 *636:73 2.89436e-05
52 *5997:A2 *636:84 0.000167443
53 *5997:A3 *636:65 0.000230858
54 *5997:A3 *636:84 0.000141869
55 *6055:S *6055:A1 2.28308e-05
56 *6055:S *636:38 6.64208e-05
57 *6055:S *636:47 3.22879e-05
58 *6091:S *636:57 1.21972e-05
59 *6130:S *6130:A1 0.000187129
60 *6183:S *636:130 4.00259e-06
61 *6201:S *6201:A1 5.90675e-06
62 *6393:CLK *636:107 6.29166e-05
63 *6495:D *6320:A1 1.74843e-05
64 *6505:A *636:84 0
65 *6505:A *636:90 0
66 *74:10 *636:53 0
67 *98:10 *636:107 0.000181857
68 *114:12 *636:84 0
69 *216:27 *636:156 0.000129402
70 *224:10 *636:156 3.70094e-05
71 *225:37 *636:117 0
72 *226:83 *6201:A1 9.41704e-05
73 *226:85 *6201:A1 0
74 *226:85 *636:111 0
75 *226:85 *636:117 0
76 *226:93 *636:117 0.000487153
77 *230:16 *6130:A1 0.000135547
78 *230:16 *636:90 0.000188572
79 *233:14 *636:84 0.000240341
80 *237:66 *6130:A1 0
81 *237:78 *6130:A1 2.87907e-06
82 *239:168 *6130:A1 2.4754e-05
83 *287:8 *6037:A1 0.000221406
84 *287:20 *636:84 2.93154e-05
85 *290:8 *636:90 0
86 *292:10 *636:53 0.00104692
87 *292:18 *636:73 0.000426569
88 *292:18 *636:84 0
89 *295:8 *636:111 2.11799e-05
90 *298:18 *6018:A1 6.07611e-06
91 *329:10 *636:53 0.00184503
92 *337:8 *636:53 0
93 *339:12 *636:53 0.00199633
94 *351:31 *636:53 0.000128921
95 *362:12 *636:53 0.00160689
96 *362:22 *636:84 0
97 *362:22 *636:90 0
98 *370:12 *6037:A1 0
99 *370:12 *636:90 3.89785e-06
100 *372:88 *6201:A1 4.43717e-05
101 *372:88 *636:111 0.000141397
102 *382:141 *636:65 0.000238194
103 *382:151 *636:73 0.000156143
104 *390:12 *6320:A1 0.000181125
105 *390:12 *636:73 0.000140259
106 *390:12 *636:80 5.3304e-05
107 *391:30 *6183:A1 9.84851e-05
108 *391:45 *636:138 0
109 *399:10 *636:138 9.67719e-05
110 *401:22 *6201:A1 4.67488e-05
111 *401:36 *6037:A1 0.000486246
112 *401:36 *6201:A1 8.218e-05
113 *411:26 *636:138 0.000619178
114 *411:30 *636:138 3.22879e-05
115 *428:65 *6201:A1 0
116 *428:75 *636:111 0
117 *428:75 *636:117 0
118 *460:8 *6018:A1 0
119 *460:31 *6055:A1 0
120 *460:31 *636:38 0.000453711
121 *460:31 *636:47 0.000124979
122 *470:18 *6320:A1 5.70419e-05
123 *478:10 *6320:A1 0.000113251
124 *480:16 *636:156 0
125 *488:39 *636:117 0
126 *503:16 *6201:A1 0
127 *503:16 *636:107 5.14746e-06
128 *503:29 *6130:A1 0.000279202
129 *503:29 *636:90 0.000139647
130 *511:10 *636:57 4.37586e-06
131 *519:10 *636:65 0.000111852
132 *527:14 *6018:A1 0
133 *551:12 *6018:A1 5.56306e-05
134 *551:12 *636:23 2.60152e-05
135 *631:6 *636:65 0.000219383
*RES
1 *6656:X *636:4 23 
2 *636:4 *636:6 53.505 
3 *636:6 *636:12 35.075 
4 *636:12 *6302:A1 23 
5 *636:12 *636:23 19.5571 
6 *636:23 *6018:A1 39.9057 
7 *636:23 *636:38 22.3121 
8 *636:38 *6055:A1 23.4971 
9 *636:38 *636:47 4.90929 
10 *636:47 *636:51 15.4971 
11 *636:51 *636:53 54.7271 
12 *636:53 *636:57 16.5743 
13 *636:57 *636:65 37.25 
14 *636:65 *636:73 37.3536 
15 *636:73 *6166:A1 23 
16 *636:73 *636:80 0.621429 
17 *636:80 *636:84 28.7025 
18 *636:84 *636:90 4.73321 
19 *636:90 *6130:A1 42.4536 
20 *636:90 *636:107 21.3386 
21 *636:107 *636:109 15 
22 *636:109 *636:111 7.18786 
23 *636:111 *636:117 30.3907 
24 *636:117 *6249:A1 23 
25 *636:111 *636:126 20.3857 
26 *636:126 *636:130 9.57 
27 *636:130 *636:138 38.8657 
28 *636:138 *6219:A1 23 
29 *636:130 *6183:A1 24.0979 
30 *636:126 *636:156 33.3143 
31 *636:156 *5920:A1 23 
32 *636:109 *6201:A1 45.3121 
33 *636:107 *6148:A1 23 
34 *636:84 *6037:A1 44.3282 
35 *636:80 *6320:A1 35.2214 
36 *636:65 *6111:A1 23 
37 *636:57 *6091:A1 23 
38 *636:47 *6073:A1 23.4971 
*END

*D_NET *637 0.00115509
*CONN
*I *6010:A0 I *D sky130_fd_sc_hd__mux2_1
*I *6634:X O *D sky130_fd_sc_hd__dlygate4sd3_1
*CAP
1 *6010:A0 0.000288946
2 *6634:X 4.82822e-05
3 *637:8 0.000337229
4 *6010:A0 *757:33 0.00035673
5 *6010:A0 *757:50 1.21972e-05
6 *232:143 *637:8 8.62876e-05
7 *319:105 *637:8 2.5415e-05
*RES
1 *6634:X *637:8 39.2014 
2 *637:8 *6010:A0 42.4329 
*END

*D_NET *638 0.000920695
*CONN
*I *6091:A0 I *D sky130_fd_sc_hd__mux2_1
*I *6635:X O *D sky130_fd_sc_hd__dlygate4sd3_1
*CAP
1 *6091:A0 0
2 *6635:X 0.000307874
3 *638:10 0.000307874
4 *6091:S *638:10 9.41704e-05
5 *6216:A *638:10 0.00010018
6 *6635:A *638:10 8.41336e-05
7 *636:57 *638:10 2.64616e-05
*RES
1 *6635:X *638:10 29.5043 
2 *638:10 *6091:A0 23 
*END

*D_NET *639 0.00146534
*CONN
*I *6077:A0 I *D sky130_fd_sc_hd__mux2_1
*I *6636:X O *D sky130_fd_sc_hd__dlygate4sd3_1
*CAP
1 *6077:A0 0.000529633
2 *6636:X 4.50246e-05
3 *639:8 0.000574657
4 *6077:A0 *6077:A1 5.67058e-05
5 *6077:S *6077:A0 1.76557e-05
6 *6639:A *6077:A0 0.00011451
7 *235:10 *639:8 4.08641e-05
8 *382:74 *639:8 8.62876e-05
*RES
1 *6636:X *639:8 39.2014 
2 *639:8 *6077:A0 45.2914 
*END

*D_NET *640 0.000906352
*CONN
*I *6205:A0 I *D sky130_fd_sc_hd__mux2_1
*I *6637:X O *D sky130_fd_sc_hd__dlygate4sd3_1
*CAP
1 *6205:A0 0
2 *6637:X 0.000266519
3 *640:6 0.000266519
4 *640:6 *6205:A1 9.67842e-05
5 *640:6 *658:22 8.19907e-05
6 *6205:S *640:6 4.5051e-05
7 *411:121 *640:6 7.53384e-06
8 *592:12 *640:6 0.000141954
*RES
1 *6637:X *640:6 28.8621 
2 *640:6 *6205:A0 23 
*END

*D_NET *641 0.00182314
*CONN
*I *6213:A0 I *D sky130_fd_sc_hd__mux2_1
*I *6638:X O *D sky130_fd_sc_hd__dlygate4sd3_1
*CAP
1 *6213:A0 6.65722e-05
2 *6638:X 0.000669221
3 *641:10 0.000735793
4 *6213:A0 *768:107 7.88828e-05
5 *641:10 *768:107 0
6 *119:10 *641:10 9.20311e-06
7 *411:42 *6213:A0 0.00010018
8 *416:8 *641:10 0
9 *488:39 *641:10 1.01436e-05
10 *596:12 *641:10 0.000153145
*RES
1 *6638:X *641:10 48.1086 
2 *641:10 *6213:A0 40.0507 
*END

*D_NET *642 0.00200884
*CONN
*I *6306:A0 I *D sky130_fd_sc_hd__mux2_1
*I *6639:X O *D sky130_fd_sc_hd__dlygate4sd3_1
*CAP
1 *6306:A0 0.000405038
2 *6639:X 0.000158309
3 *642:8 0.000563347
4 *6488:CLK *6306:A0 0.000271476
5 *6639:A *642:8 0.000211979
6 *173:8 *6306:A0 0.000187731
7 *233:264 *642:8 0
8 *233:274 *642:8 0
9 *235:10 *642:8 0.000114092
10 *471:12 *6306:A0 1.28176e-05
11 *616:10 *642:8 8.4047e-05
*RES
1 *6639:X *642:8 42.0186 
2 *642:8 *6306:A0 44.3386 
*END

*D_NET *643 0.00182443
*CONN
*I *6079:A0 I *D sky130_fd_sc_hd__mux2_1
*I *6640:X O *D sky130_fd_sc_hd__dlygate4sd3_1
*CAP
1 *6079:A0 0
2 *6640:X 0.000562558
3 *643:12 0.000562558
4 *6080:A *643:12 0.000483632
5 *232:192 *643:12 4.334e-05
6 *247:6 *643:12 0.000144437
7 *339:91 *643:12 2.79004e-05
*RES
1 *6640:X *643:12 49.3721 
2 *643:12 *6079:A0 38 
*END

*D_NET *644 0.00088849
*CONN
*I *6302:A0 I *D sky130_fd_sc_hd__mux2_1
*I *6641:X O *D sky130_fd_sc_hd__dlygate4sd3_1
*CAP
1 *6302:A0 0
2 *6641:X 0.00017087
3 *644:6 0.00017087
4 *460:14 *644:6 5.29672e-05
5 *460:31 *644:6 0.000221406
6 *636:23 *644:6 0.000272377
*RES
1 *6641:X *644:6 28.8621 
2 *644:6 *6302:A0 23 
*END

*D_NET *645 0.00199678
*CONN
*I *6043:A0 I *D sky130_fd_sc_hd__mux2_1
*I *6642:X O *D sky130_fd_sc_hd__dlygate4sd3_1
*CAP
1 *6043:A0 0
2 *6642:X 0.0008261
3 *645:10 0.0008261
4 *5942:A1 *645:10 6.39993e-05
5 *5942:S1 *645:10 8.59625e-05
6 *230:126 *645:10 4.334e-05
7 *232:167 *645:10 8.62876e-05
8 *529:16 *645:10 5.3304e-05
9 *537:29 *645:10 1.16872e-05
*RES
1 *6642:X *645:10 49.3514 
2 *645:10 *6043:A0 38 
*END

*D_NET *646 0.000824764
*CONN
*I *6061:A0 I *D sky130_fd_sc_hd__mux2_1
*I *6644:X O *D sky130_fd_sc_hd__dlygate4sd3_1
*CAP
1 *6061:A0 0
2 *6644:X 0.000383861
3 *646:6 0.000383861
4 *6061:S *646:6 5.70419e-05
*RES
1 *6644:X *646:6 28.8621 
2 *646:6 *6061:A0 23 
*END

*D_NET *647 0.0139495
*CONN
*I *6479:RESET_B I *D sky130_fd_sc_hd__dfrtp_4
*I *6514:A I *D sky130_fd_sc_hd__clkbuf_8
*I *6657:X O *D sky130_fd_sc_hd__clkbuf_2
*CAP
1 *6479:RESET_B 0.000151523
2 *6514:A 0
3 *6657:X 0
4 *647:27 0.0011714
5 *647:16 0.00206111
6 *647:8 0.00515465
7 *647:6 0.00411341
8 *647:16 *712:10 7.24484e-05
9 *647:27 *6558:A 5.15096e-05
10 *647:27 *716:10 1.01436e-05
11 *647:27 *814:16 0.000318429
12 *6462:CLK *647:16 1.12349e-05
13 *6462:CLK *647:27 0.000748
14 *6656:A *647:8 1.53128e-05
15 *21:13 *647:8 0
16 *211:10 *647:27 7.03766e-05
*RES
1 *6657:X *647:6 38 
2 *647:6 *647:8 80.7857 
3 *647:8 *647:16 34.72 
4 *647:16 *6514:A 23 
5 *647:16 *647:27 36.0871 
6 *647:27 *6479:RESET_B 17.4546 
*END

*D_NET *648 0.0011083
*CONN
*I *6189:A0 I *D sky130_fd_sc_hd__mux2_1
*I *6645:X O *D sky130_fd_sc_hd__dlygate4sd3_1
*CAP
1 *6189:A0 0
2 *6645:X 0.00032766
3 *648:6 0.00032766
4 *648:6 *6025:A1 0.000257724
5 *648:6 *6189:A1 5.3304e-05
6 *569:12 *648:6 0.000141954
*RES
1 *6645:X *648:6 29.3386 
2 *648:6 *6189:A0 23 
*END

*D_NET *649 0.00153411
*CONN
*I *6290:A0 I *D sky130_fd_sc_hd__mux2_1
*I *6646:X O *D sky130_fd_sc_hd__dlygate4sd3_1
*CAP
1 *6290:A0 4.0118e-05
2 *6646:X 0.000392353
3 *649:10 0.000432471
4 *6290:A0 *6043:A1 5.3304e-05
5 *649:10 *735:192 0.000110024
6 *649:10 *735:207 0.000140348
7 *166:8 *649:10 8.76088e-05
8 *284:16 *649:10 0
9 *482:59 *649:10 0.000138718
10 *537:12 *6290:A0 9.84794e-05
11 *545:16 *649:10 4.06849e-05
12 *625:122 *649:10 0
*RES
1 *6646:X *649:10 46.2857 
2 *649:10 *6290:A0 39.0979 
*END

*D_NET *650 0.00143889
*CONN
*I *6241:A0 I *D sky130_fd_sc_hd__mux2_1
*I *6647:X O *D sky130_fd_sc_hd__dlygate4sd3_1
*CAP
1 *6241:A0 0.000268257
2 *6647:X 0.000206703
3 *650:8 0.00047496
4 *6241:A0 *757:97 5.50106e-05
5 *6241:S *6241:A0 9.88574e-06
6 *6339:CLK *6241:A0 2.93845e-05
7 *6339:CLK *650:8 0.000136486
8 *147:8 *650:8 8.85189e-05
9 *485:30 *650:8 0.000169683
*RES
1 *6647:X *650:8 42.0186 
2 *650:8 *6241:A0 41.48 
*END

*D_NET *651 0.00090051
*CONN
*I *6142:A0 I *D sky130_fd_sc_hd__mux2_1
*I *6648:X O *D sky130_fd_sc_hd__dlygate4sd3_1
*CAP
1 *6142:A0 0.000106905
2 *6648:X 5.56909e-05
3 *651:8 0.000162596
4 *225:160 *651:8 0.000114083
5 *295:14 *6142:A0 0.000269775
6 *406:10 *6142:A0 0.000139357
7 *488:14 *651:8 5.21024e-05
*RES
1 *6648:X *651:8 39.5536 
2 *651:8 *6142:A0 41.0036 
*END

*D_NET *652 0.00134018
*CONN
*I *6187:A0 I *D sky130_fd_sc_hd__mux2_1
*I *6649:X O *D sky130_fd_sc_hd__dlygate4sd3_1
*CAP
1 *6187:A0 8.90451e-05
2 *6649:X 0.000248223
3 *652:12 0.000337268
4 *652:12 *6187:A1 0.000150888
5 *6187:S *6187:A0 5.70419e-05
6 *51:8 *652:12 0.000114083
7 *310:10 *652:12 5.50049e-05
8 *373:8 *652:12 0
9 *552:10 *652:12 0
10 *560:14 *652:12 9.98891e-05
11 *568:8 *652:12 5.90675e-06
12 *568:23 *652:12 0.000182826
*RES
1 *6649:X *652:12 44.9186 
2 *652:12 *6187:A0 39.5743 
*END

*D_NET *653 0.0012773
*CONN
*I *6300:A0 I *D sky130_fd_sc_hd__mux2_1
*I *6650:X O *D sky130_fd_sc_hd__dlygate4sd3_1
*CAP
1 *6300:A0 0.000119394
2 *6650:X 6.48172e-05
3 *653:8 0.000184211
4 *6300:A0 *659:10 0.000303411
5 *6016:A1 *6300:A0 5.50106e-05
6 *6290:S *653:8 3.21223e-05
7 *232:167 *653:8 0.000110913
8 *625:124 *6300:A0 0.0002263
9 *625:142 *6300:A0 0.000181125
*RES
1 *6650:X *653:8 39.5536 
2 *653:8 *6300:A0 42.9093 
*END

*D_NET *654 0.000633665
*CONN
*I *6053:A0 I *D sky130_fd_sc_hd__mux2_1
*I *6651:X O *D sky130_fd_sc_hd__dlygate4sd3_1
*CAP
1 *6053:A0 0.00016072
2 *6651:X 4.82822e-05
3 *654:8 0.000209002
4 *233:181 *654:8 2.5415e-05
5 *319:124 *6053:A0 9.5877e-05
6 *485:10 *654:8 8.62876e-05
7 *526:22 *6053:A0 8.08139e-06
*RES
1 *6651:X *654:8 39.2014 
2 *654:8 *6053:A0 40.0507 
*END

*D_NET *655 0.00104659
*CONN
*I *6158:A0 I *D sky130_fd_sc_hd__mux2_1
*I *6652:X O *D sky130_fd_sc_hd__dlygate4sd3_1
*CAP
1 *6158:A0 0.000414436
2 *6652:X 8.17907e-05
3 *655:8 0.000496227
4 *6158:S *6158:A0 5.41385e-05
*RES
1 *6652:X *655:8 39.2014 
2 *655:8 *6158:A0 46.0164 
*END

*D_NET *656 0.000598475
*CONN
*I *6045:A0 I *D sky130_fd_sc_hd__mux2_1
*I *6653:X O *D sky130_fd_sc_hd__dlygate4sd3_1
*CAP
1 *6045:A0 0.000161111
2 *6653:X 7.42513e-05
3 *656:8 0.000235362
4 *6045:A0 *746:227 5.82853e-05
5 *319:84 *6045:A0 1.61385e-05
6 *319:95 *6045:A0 5.33272e-05
*RES
1 *6653:X *656:8 39.2014 
2 *656:8 *6045:A0 40.5271 
*END

*D_NET *657 0.00106221
*CONN
*I *6243:A0 I *D sky130_fd_sc_hd__mux2_1
*I *6519:X O *D sky130_fd_sc_hd__dlygate4sd3_1
*CAP
1 *6243:A0 0
2 *6519:X 0.000238741
3 *657:6 0.000238741
4 *657:6 *768:136 5.50049e-05
5 *265:8 *657:6 0.00052972
*RES
1 *6519:X *657:6 28.8621 
2 *657:6 *6243:A0 23 
*END

*D_NET *658 0.0320389
*CONN
*I *5904:A I *D sky130_fd_sc_hd__buf_8
*I *6658:X O *D sky130_fd_sc_hd__clkbuf_2
*CAP
1 *5904:A 1.80505e-05
2 *6658:X 0.00115432
3 *658:26 0.00226574
4 *658:24 0.00224769
5 *658:22 0.00293896
6 *658:16 0.00303397
7 *658:10 0.00529775
8 *658:8 0.00635707
9 *658:10 *6118:A0 0.00087581
10 *658:10 *706:12 0.000358425
11 *658:26 *6142:A1 3.90425e-05
12 *658:26 *768:93 4.32851e-05
13 *658:26 *779:91 0
14 *658:26 *791:50 0
15 *6205:S *658:22 4.96717e-05
16 *6322:D *658:22 4.97789e-05
17 *6398:D *658:22 8.90341e-05
18 *6505:A *658:26 0.000177796
19 *26:13 *658:8 3.22879e-05
20 *58:8 *658:26 0
21 *103:8 *658:26 0
22 *114:12 *658:26 0.000455285
23 *120:8 *658:26 8.41115e-05
24 *180:10 *658:26 3.35885e-05
25 *215:10 *5904:A 5.50049e-05
26 *216:44 *658:22 0.000742789
27 *225:136 *658:16 9.63918e-05
28 *226:133 *658:16 9.04083e-05
29 *237:78 *658:26 0.000291317
30 *290:8 *658:26 0
31 *293:8 *658:26 6.58373e-05
32 *295:30 *658:10 0.00364516
33 *296:10 *658:10 0.00010018
34 *309:14 *658:26 0
35 *317:10 *658:26 9.96443e-05
36 *377:8 *658:26 4.334e-05
37 *382:141 *658:26 0
38 *391:114 *5904:A 2.93747e-05
39 *411:121 *658:22 0.000115872
40 *412:10 *658:22 2.92911e-06
41 *417:8 *658:26 8.85189e-05
42 *478:10 *658:26 0.000346945
43 *479:86 *658:26 4.36401e-06
44 *481:52 *658:22 6.70017e-05
45 *488:8 *658:26 0
46 *488:14 *658:26 0
47 *488:123 *658:26 1.83564e-05
48 *489:14 *658:26 0
49 *564:12 *658:22 0.000146774
50 *564:12 *658:26 6.93449e-05
51 *564:27 *658:22 0.0001809
52 *592:12 *658:22 5.47808e-05
53 *636:65 *658:26 0
54 *640:6 *658:22 8.19907e-05
*RES
1 *6658:X *658:8 38.6496 
2 *658:8 *658:10 107.58 
3 *658:10 *658:16 32.61 
4 *658:16 *658:22 48.5336 
5 *658:22 *658:24 15 
6 *658:24 *658:26 43.1064 
7 *658:26 *5904:A 38.6214 
*END

*D_NET *659 0.00159434
*CONN
*I *6016:A0 I *D sky130_fd_sc_hd__mux2_1
*I *6520:X O *D sky130_fd_sc_hd__dlygate4sd3_1
*CAP
1 *6016:A0 0
2 *6520:X 0.000370955
3 *659:10 0.000370955
4 *6016:A1 *659:10 0.000192022
5 *6300:A0 *659:10 0.000303411
6 *6300:S *659:10 0.000123784
7 *298:94 *659:10 0.000141954
8 *467:10 *659:10 6.32895e-05
9 *625:142 *659:10 2.79662e-05
*RES
1 *6520:X *659:10 33.7921 
2 *659:10 *6016:A0 23 
*END

*D_NET *660 0.000756007
*CONN
*I *6047:A0 I *D sky130_fd_sc_hd__mux2_1
*I *6521:X O *D sky130_fd_sc_hd__dlygate4sd3_1
*CAP
1 *6047:A0 0
2 *6521:X 0.000182133
3 *660:6 0.000182133
4 *660:6 *757:169 5.67058e-05
5 *660:6 *779:12 0.000272295
6 *6047:S *660:6 6.27395e-05
*RES
1 *6521:X *660:6 28.8621 
2 *660:6 *6047:A0 23 
*END

*D_NET *661 0.00180232
*CONN
*I *6288:A0 I *D sky130_fd_sc_hd__mux2_1
*I *6522:X O *D sky130_fd_sc_hd__dlygate4sd3_1
*CAP
1 *6288:A0 0.000176118
2 *6522:X 0.000280048
3 *661:8 0.000456166
4 *6480:CLK *6288:A0 0.000223698
5 *232:157 *661:8 0.000188916
6 *319:105 *661:8 6.83914e-05
7 *319:109 *661:8 0.000163884
8 *320:10 *661:8 0.000189974
9 *528:26 *661:8 5.51294e-05
*RES
1 *6522:X *661:8 44.8357 
2 *661:8 *6288:A0 40.5271 
*END

*D_NET *662 0.00124305
*CONN
*I *6041:A0 I *D sky130_fd_sc_hd__mux2_1
*I *6523:X O *D sky130_fd_sc_hd__dlygate4sd3_1
*CAP
1 *6041:A0 0.000385609
2 *6523:X 5.94633e-05
3 *662:8 0.000445072
4 *6041:A0 *724:151 2.93845e-05
5 *6041:A0 *724:164 0.000237236
6 *233:171 *662:8 8.62876e-05
7 *329:85 *662:8 0
*RES
1 *6523:X *662:8 39.2014 
2 *662:8 *6041:A0 43.3857 
*END

*D_NET *663 0.00100923
*CONN
*I *6087:A0 I *D sky130_fd_sc_hd__mux2_1
*I *6524:X O *D sky130_fd_sc_hd__dlygate4sd3_1
*CAP
1 *6087:A0 0.000367755
2 *6524:X 8.53737e-05
3 *663:8 0.000453129
4 *6087:A0 *6087:A1 5.3304e-05
5 *6087:S *6087:A0 4.96717e-05
6 *232:69 *663:8 0
7 *613:23 *663:8 0
*RES
1 *6524:X *663:8 39.2014 
2 *663:8 *6087:A0 44.3593 
*END

*D_NET *664 0.0020423
*CONN
*I *6027:A0 I *D sky130_fd_sc_hd__mux2_1
*I *6525:X O *D sky130_fd_sc_hd__dlygate4sd3_1
*CAP
1 *6027:A0 0.000315877
2 *6525:X 0.000293704
3 *664:10 0.000609581
4 *6027:A0 *746:72 5.50049e-05
5 *5954:A0 *6027:A0 3.85898e-05
6 *6388:CLK *6027:A0 0.000119477
7 *6388:D *6027:A0 5.73018e-05
8 *226:200 *664:10 6.71408e-06
9 *226:204 *664:10 0.000124182
10 *249:18 *664:10 2.26406e-05
11 *312:12 *6027:A0 2.03764e-06
12 *312:12 *664:10 0.000138174
13 *562:25 *6027:A0 2.32101e-05
14 *625:114 *664:10 0.000235804
*RES
1 *6525:X *664:10 44.4007 
2 *664:10 *6027:A0 43.4271 
*END

*D_NET *665 0.000632657
*CONN
*I *6298:A0 I *D sky130_fd_sc_hd__mux2_1
*I *6526:X O *D sky130_fd_sc_hd__dlygate4sd3_1
*CAP
1 *6298:A0 0.000159083
2 *6526:X 5.50451e-05
3 *665:8 0.000214128
4 *6298:A0 *6298:A1 0.00010766
5 *64:8 *665:8 8.57577e-05
6 *549:29 *6298:A0 1.09834e-05
*RES
1 *6526:X *665:8 39.2014 
2 *665:8 *6298:A0 40.5271 
*END

*D_NET *666 0.001197
*CONN
*I *6097:A0 I *D sky130_fd_sc_hd__mux2_1
*I *6527:X O *D sky130_fd_sc_hd__dlygate4sd3_1
*CAP
1 *6097:A0 0
2 *6527:X 0.000167655
3 *666:10 0.000167655
4 *666:10 *6097:A1 5.90675e-06
5 *666:10 *724:179 3.22879e-05
6 *666:10 *724:188 0.000431604
7 *6402:CLK *666:10 0.000293416
8 *504:12 *666:10 9.84794e-05
*RES
1 *6527:X *666:10 29.5043 
2 *666:10 *6097:A0 23 
*END

*D_NET *667 0.00109537
*CONN
*I *6183:A0 I *D sky130_fd_sc_hd__mux2_1
*I *6528:X O *D sky130_fd_sc_hd__dlygate4sd3_1
*CAP
1 *6183:A0 0
2 *6528:X 0.000179615
3 *667:6 0.000179615
4 *6183:A1 *667:6 5.67058e-05
5 *391:30 *667:6 2.4754e-05
6 *391:45 *667:6 7.88828e-05
7 *636:130 *667:6 0.000575797
*RES
1 *6528:X *667:6 29.3386 
2 *667:6 *6183:A0 23 
*END

*D_NET *668 0.00163022
*CONN
*I *6156:A0 I *D sky130_fd_sc_hd__mux2_1
*I *6530:X O *D sky130_fd_sc_hd__dlygate4sd3_1
*CAP
1 *6156:A0 0.000390086
2 *6530:X 0.000339025
3 *668:10 0.000729111
4 *6156:A0 *6156:A1 2.30292e-05
5 *6157:A *668:10 4.08641e-05
6 *6530:A *668:10 8.91468e-07
7 *298:73 *668:10 2.29192e-05
8 *339:63 *6156:A0 1.02949e-05
9 *385:8 *6156:A0 7.39944e-05
*RES
1 *6530:X *668:10 42.6814 
2 *668:10 *6156:A0 43.4064 
*END

*D_NET *669 0.0402493
*CONN
*I *828:DIODE I *D sky130_fd_sc_hd__diode_2
*I *6669:A I *D sky130_fd_sc_hd__clkbuf_4
*I *5899:Y O *D sky130_fd_sc_hd__inv_2
*CAP
1 *828:DIODE 0.000193382
2 *6669:A 0
3 *5899:Y 2.42157e-05
4 *669:18 0.000193382
5 *669:16 0.00664123
6 *669:14 0.0195769
7 *669:10 0.0129599
8 *669:10 *709:229 9.33529e-06
9 empty *669:16 0
10 *1:8 *828:DIODE 5.50106e-05
11 *232:47 *669:14 0.000595958
12 *249:18 *669:14 0
13 *351:133 *669:14 0
14 *470:34 *669:14 0
*RES
1 *5899:Y *669:10 46.3211 
2 *669:10 *669:14 39.6549 
3 *669:14 *669:16 129.557 
4 *669:16 *669:18 15 
5 *669:18 *6669:A 23 
6 *669:18 *828:DIODE 26.48 
*END

*D_NET *670 0.00151586
*CONN
*I *6083:A0 I *D sky130_fd_sc_hd__mux2_1
*I *6531:X O *D sky130_fd_sc_hd__dlygate4sd3_1
*CAP
1 *6083:A0 0.000112354
2 *6531:X 0.000331968
3 *670:10 0.000444321
4 *6531:A *670:10 0
5 *474:8 *670:10 3.71369e-05
6 *486:141 *6083:A0 0.000269775
7 *507:27 *6083:A0 0.000168985
8 *611:12 *6083:A0 1.5769e-05
9 *619:16 *670:10 0.000135557
*RES
1 *6531:X *670:10 43.8207 
2 *670:10 *6083:A0 41.9564 
*END

*D_NET *671 0.00126389
*CONN
*I *6065:A0 I *D sky130_fd_sc_hd__mux2_1
*I *6532:X O *D sky130_fd_sc_hd__dlygate4sd3_1
*CAP
1 *6065:A0 0.000118092
2 *6532:X 0.000237247
3 *671:8 0.000355339
4 *6065:S *6065:A0 0.00010018
5 *70:10 *671:8 0
6 *470:145 *6065:A0 0.000358425
7 *486:106 *671:8 9.46108e-05
8 *523:8 *671:8 0
*RES
1 *6532:X *671:8 43.075 
2 *671:8 *6065:A0 41.9564 
*END

*D_NET *672 0.00104025
*CONN
*I *6179:A0 I *D sky130_fd_sc_hd__mux2_1
*I *6533:X O *D sky130_fd_sc_hd__dlygate4sd3_1
*CAP
1 *6179:A0 0.000265505
2 *6533:X 6.87722e-05
3 *672:8 0.000334277
4 *6179:A0 *6179:A1 0.000181125
5 *6179:A0 *779:109 0.00014196
6 *672:8 *779:81 2.5415e-05
7 *233:35 *672:8 0
8 *428:16 *6179:A0 2.32004e-05
*RES
1 *6533:X *672:8 39.2014 
2 *672:8 *6179:A0 41.9564 
*END

*D_NET *673 0.00131091
*CONN
*I *6173:A0 I *D sky130_fd_sc_hd__mux2_1
*I *6534:X O *D sky130_fd_sc_hd__dlygate4sd3_1
*CAP
1 *6173:A0 0.000272491
2 *6534:X 0.000259471
3 *673:10 0.000531962
4 *6173:A0 *746:127 1.6158e-05
5 *6428:CLK *6173:A0 5.37348e-06
6 *6534:A *673:10 5.12254e-05
7 *391:22 *673:10 3.83778e-05
8 *602:8 *673:10 3.83778e-05
9 *602:29 *673:10 9.74722e-05
*RES
1 *6534:X *673:10 42.205 
2 *673:10 *6173:A0 41.7286 
*END

*D_NET *674 0.0013751
*CONN
*I *6217:A0 I *D sky130_fd_sc_hd__mux2_1
*I *6535:X O *D sky130_fd_sc_hd__dlygate4sd3_1
*CAP
1 *6217:A0 0.000286212
2 *6535:X 0.000180948
3 *674:8 0.00046716
4 *6217:A1 *6217:A0 0.000201109
5 *33:8 *674:8 0.000191157
6 *411:143 *674:8 0
7 *418:10 *674:8 0
8 *598:10 *674:8 0
9 *625:32 *674:8 4.85126e-05
*RES
1 *6535:X *674:8 42.0186 
2 *674:8 *6217:A0 42.4329 
*END

*D_NET *675 0.00144848
*CONN
*I *6006:A0 I *D sky130_fd_sc_hd__mux2_1
*I *6536:X O *D sky130_fd_sc_hd__dlygate4sd3_1
*CAP
1 *6006:A0 0.000434074
2 *6536:X 6.55145e-05
3 *675:8 0.000499589
4 *6291:A *6006:A0 0.000309734
5 *233:191 *6006:A0 9.11748e-05
6 *233:191 *675:8 0
7 *521:22 *6006:A0 7.53384e-06
8 *521:22 *675:8 4.08641e-05
*RES
1 *6536:X *675:8 39.2014 
2 *675:8 *6006:A0 44.3386 
*END

*D_NET *676 0.000862411
*CONN
*I *6122:A0 I *D sky130_fd_sc_hd__mux2_1
*I *6537:X O *D sky130_fd_sc_hd__dlygate4sd3_1
*CAP
1 *6122:A0 0
2 *6537:X 0.00034227
3 *676:6 0.00034227
4 *676:6 *6122:A1 5.67058e-05
5 *6537:A *676:6 4.67488e-05
6 *499:28 *676:6 7.4416e-05
*RES
1 *6537:X *676:6 28.8621 
2 *676:6 *6122:A0 23 
*END

*D_NET *677 0.00105961
*CONN
*I *6081:A0 I *D sky130_fd_sc_hd__mux2_1
*I *6538:X O *D sky130_fd_sc_hd__dlygate4sd3_1
*CAP
1 *6081:A0 0
2 *6538:X 0.000354314
3 *677:6 0.000354314
4 *677:6 *746:37 2.4754e-05
5 *677:6 *746:43 0.000139352
6 *382:49 *677:6 0.00018688
*RES
1 *6538:X *677:6 30.2914 
2 *677:6 *6081:A0 23 
*END

*D_NET *678 0.00181314
*CONN
*I *6071:A0 I *D sky130_fd_sc_hd__mux2_1
*I *6539:X O *D sky130_fd_sc_hd__dlygate4sd3_1
*CAP
1 *6071:A0 0.000408211
2 *6539:X 0.000233378
3 *678:8 0.000641589
4 *678:8 *724:179 9.17497e-05
5 *6071:A1 *6071:A0 1.94812e-05
6 *83:8 *678:8 0.000138727
7 *231:22 *678:8 0.00016815
8 *351:111 *678:8 0
9 *351:119 *678:8 0.000111852
*RES
1 *6539:X *678:8 44.8357 
2 *678:8 *6071:A0 42.9093 
*END

*D_NET *679 0.000741397
*CONN
*I *5914:A0 I *D sky130_fd_sc_hd__mux2_1
*I *6541:X O *D sky130_fd_sc_hd__dlygate4sd3_1
*CAP
1 *5914:A0 0.000158142
2 *6541:X 5.10758e-05
3 *679:8 0.000209218
4 *5914:A0 *768:119 5.67058e-05
5 *5914:A0 *768:136 0.000184527
6 *6243:S *679:8 4.08641e-05
7 *216:44 *679:8 4.08641e-05
*RES
1 *6541:X *679:8 39.2014 
2 *679:8 *5914:A0 40.5271 
*END

*D_NET *680 0.0137711
*CONN
*I *6670:A I *D sky130_fd_sc_hd__clkbuf_4
*I *5891:Y O *D sky130_fd_sc_hd__nor2_1
*CAP
1 *6670:A 4.27562e-05
2 *5891:Y 0
3 *680:26 0.000908745
4 *680:18 0.00268242
5 *680:10 0.00349574
6 *680:6 0.00167931
7 *680:10 *725:12 8.41012e-05
8 *680:10 *746:127 3.83778e-05
9 *680:10 *791:10 0
10 *680:10 *816:27 0
11 *680:10 *820:10 9.07229e-05
12 *680:18 *711:115 0.000911477
13 *680:18 *791:10 0.000223692
14 *680:26 *6336:CLK 0.000224005
15 *680:26 *705:6 0.000128401
16 *680:26 *705:10 0.000138742
17 *680:26 *705:12 0.000111852
18 *680:26 *711:92 0.000232727
19 *6228:A2 *680:10 0.000268221
20 *6267:B *680:18 0
21 *6269:A0 *680:18 2.25419e-05
22 *6269:A0 *680:26 0.000138444
23 *6336:D *680:26 0.000143599
24 *6468:D *680:18 1.39431e-05
25 *6497:A *680:10 0.000237069
26 *2:10 *6670:A 1.39431e-05
27 *29:8 *680:10 0
28 *190:14 *680:10 4.43717e-05
29 *225:247 *680:18 5.10686e-05
30 *226:12 *680:10 0.000159938
31 *226:14 *680:18 0.000169227
32 *226:18 *680:18 2.81406e-06
33 *230:281 *680:18 0.000284811
34 *239:30 *680:26 0.000900334
35 *288:8 *680:26 0
36 *391:20 *680:10 0
37 *411:26 *680:10 0
38 *420:10 *680:10 1.01436e-05
39 *479:51 *680:10 8.51925e-05
40 *480:8 *680:10 0
41 *480:79 *680:10 0
42 *480:89 *680:10 0
43 *487:25 *680:10 0
44 *487:40 *680:10 0
45 *594:10 *680:10 0.000232421
*RES
1 *5891:Y *680:6 38 
2 *680:6 *680:10 49.3029 
3 *680:10 *680:18 29.145 
4 *680:18 *680:26 39.94 
5 *680:26 *6670:A 38.6214 
*END

*D_NET *681 0.00127747
*CONN
*I *6130:A0 I *D sky130_fd_sc_hd__mux2_1
*I *6542:X O *D sky130_fd_sc_hd__dlygate4sd3_1
*CAP
1 *6130:A0 0
2 *6542:X 0.000376482
3 *681:6 0.000376482
4 *239:168 *681:6 0.00052451
*RES
1 *6542:X *681:6 28.8621 
2 *681:6 *6130:A0 23 
*END

*D_NET *682 0.00110591
*CONN
*I *6148:A0 I *D sky130_fd_sc_hd__mux2_1
*I *6543:X O *D sky130_fd_sc_hd__dlygate4sd3_1
*CAP
1 *6148:A0 0.0001245
2 *6543:X 0.000170582
3 *682:8 0.000295082
4 *295:8 *682:8 8.85189e-05
5 *372:88 *682:8 0.000109305
6 *428:65 *682:8 2.35119e-05
7 *428:75 *682:8 0.000113275
8 *636:107 *6148:A0 0.000181131
*RES
1 *6543:X *682:8 42.3707 
2 *682:8 *6148:A0 40.5271 
*END

*D_NET *683 0.00173081
*CONN
*I *6136:A0 I *D sky130_fd_sc_hd__mux2_1
*I *6544:X O *D sky130_fd_sc_hd__dlygate4sd3_1
*CAP
1 *6136:A0 0.000456561
2 *6544:X 7.78878e-05
3 *683:8 0.000534449
4 *295:28 *6136:A0 0.000655835
5 *481:41 *683:8 0
6 *553:14 *683:8 6.07611e-06
*RES
1 *6544:X *683:8 39.2014 
2 *683:8 *6136:A0 45.2914 
*END

*D_NET *684 0.000814211
*CONN
*I *6023:A0 I *D sky130_fd_sc_hd__mux2_1
*I *6545:X O *D sky130_fd_sc_hd__dlygate4sd3_1
*CAP
1 *6023:A0 0
2 *6545:X 0.000266036
3 *684:10 0.000266036
4 *6025:S *684:10 2.5415e-05
5 *225:149 *684:10 4.334e-05
6 *286:20 *684:10 3.57732e-05
7 *479:132 *684:10 0.00017761
*RES
1 *6545:X *684:10 42.205 
2 *684:10 *6023:A0 38 
*END

*D_NET *685 0.00165583
*CONN
*I *6169:A0 I *D sky130_fd_sc_hd__mux2_1
*I *6546:X O *D sky130_fd_sc_hd__dlygate4sd3_1
*CAP
1 *6169:A0 0.000425494
2 *6546:X 7.99533e-05
3 *685:8 0.000505447
4 *6169:A0 *724:43 0.000620179
5 *225:108 *685:8 0
6 *226:154 *6169:A0 2.4754e-05
*RES
1 *6546:X *685:8 39.2014 
2 *685:8 *6169:A0 45.2914 
*END

*D_NET *686 0.00148941
*CONN
*I *6116:A0 I *D sky130_fd_sc_hd__mux2_1
*I *6547:X O *D sky130_fd_sc_hd__dlygate4sd3_1
*CAP
1 *6116:A0 0.000300553
2 *6547:X 9.67085e-05
3 *686:8 0.000397261
4 *686:8 *735:117 8.51432e-05
5 *497:27 *6116:A0 0.000609747
*RES
1 *6547:X *686:8 40.2579 
2 *686:8 *6116:A0 45.2914 
*END

*D_NET *687 0.00112295
*CONN
*I *6134:A0 I *D sky130_fd_sc_hd__mux2_1
*I *6548:X O *D sky130_fd_sc_hd__dlygate4sd3_1
*CAP
1 *6134:A0 0
2 *6548:X 0.000102128
3 *687:6 0.000102128
4 *687:6 *724:64 5.50049e-05
5 *6134:S *687:6 2.4754e-05
6 *6545:A *687:6 0.000228909
7 *237:118 *687:6 8.29052e-05
8 *286:20 *687:6 0.000527118
*RES
1 *6548:X *687:6 28.8621 
2 *687:6 *6134:A0 23 
*END

*D_NET *688 0.0025916
*CONN
*I *6059:A0 I *D sky130_fd_sc_hd__mux2_1
*I *6549:X O *D sky130_fd_sc_hd__dlygate4sd3_1
*CAP
1 *6059:A0 0.000594963
2 *6549:X 0.000182673
3 *688:8 0.000777637
4 *6059:A0 *6077:A1 0.000313255
5 *6059:A0 *724:171 0.000480242
6 *75:8 *688:8 0.000194318
7 *339:71 *688:8 4.85126e-05
8 *351:111 *688:8 0
*RES
1 *6549:X *688:8 42.0186 
2 *688:8 *6059:A0 47.1971 
*END

*D_NET *689 0.00172584
*CONN
*I *6207:A0 I *D sky130_fd_sc_hd__mux2_1
*I *6550:X O *D sky130_fd_sc_hd__dlygate4sd3_1
*CAP
1 *6207:A0 0.000226012
2 *6550:X 0.000582294
3 *689:8 0.000808306
4 *6207:A0 *782:8 2.5415e-05
5 *6427:CLK *6207:A0 0
6 *593:16 *689:8 8.38096e-05
*RES
1 *6550:X *689:8 46.2443 
2 *689:8 *6207:A0 42.0186 
*END

*D_NET *690 0.000648437
*CONN
*I *6296:A0 I *D sky130_fd_sc_hd__mux2_1
*I *6552:X O *D sky130_fd_sc_hd__dlygate4sd3_1
*CAP
1 *6296:A0 0.000207531
2 *6552:X 6.97157e-05
3 *690:8 0.000277247
4 *6296:A0 *6296:A1 1.59094e-05
5 *690:8 *768:14 2.34077e-05
6 *6296:S *6296:A0 1.1258e-05
7 *460:43 *6296:A0 1.9955e-05
8 *460:60 *6296:A0 2.34132e-05
*RES
1 *6552:X *690:8 39.2014 
2 *690:8 *6296:A0 41.8736 
*END

*D_NET *691 0.0180481
*CONN
*I *6671:A I *D sky130_fd_sc_hd__buf_2
*I *5937:A1 I *D sky130_fd_sc_hd__mux2_1
*I *6330:Q O *D sky130_fd_sc_hd__dfxtp_1
*CAP
1 *6671:A 0
2 *5937:A1 0.000499218
3 *6330:Q 0
4 *691:29 0.00217389
5 *691:27 0.00217389
6 *691:25 0.0038881
7 *691:23 0.00399891
8 *691:6 0.000610022
9 *691:29 *701:23 0.0044794
10 *691:29 *757:8 0.000169683
11 *5937:S *5937:A1 5.50106e-05
12 *4:12 *691:29 0
13 *20:13 *691:29 0
*RES
1 *6330:Q *691:6 38 
2 *691:6 *5937:A1 47.5493 
3 *691:6 *691:23 16.9057 
4 *691:23 *691:25 71.1329 
5 *691:25 *691:27 15 
6 *691:27 *691:29 62.1221 
7 *691:29 *6671:A 38 
*END

*D_NET *692 0.00100027
*CONN
*I *6067:A0 I *D sky130_fd_sc_hd__mux2_1
*I *6553:X O *D sky130_fd_sc_hd__dlygate4sd3_1
*CAP
1 *6067:A0 0
2 *6553:X 0.000256614
3 *692:6 0.000256614
4 *692:6 *6067:A1 2.93845e-05
5 *329:50 *692:6 1.22822e-05
6 *329:62 *692:6 0.000445374
*RES
1 *6553:X *692:6 28.8621 
2 *692:6 *6067:A0 23 
*END

*D_NET *693 0.00205297
*CONN
*I *6249:A0 I *D sky130_fd_sc_hd__mux2_1
*I *6554:X O *D sky130_fd_sc_hd__dlygate4sd3_1
*CAP
1 *6249:A0 9.36246e-05
2 *6554:X 9.81512e-05
3 *693:8 0.000191776
4 *693:8 *768:93 0.000166522
5 *226:93 *6249:A0 0.000752298
6 *428:75 *6249:A0 0.00010018
7 *428:84 *6249:A0 0.000650416
*RES
1 *6554:X *693:8 40.2579 
2 *693:8 *6249:A0 46.2443 
*END

*D_NET *694 0.00102861
*CONN
*I *6073:A0 I *D sky130_fd_sc_hd__mux2_1
*I *6555:X O *D sky130_fd_sc_hd__dlygate4sd3_1
*CAP
1 *6073:A0 0
2 *6555:X 0.000198208
3 *694:6 0.000198208
4 *298:37 *694:6 1.94812e-05
5 *460:31 *694:6 0.000527118
6 *527:27 *694:6 5.3304e-05
7 *636:47 *694:6 3.22879e-05
*RES
1 *6555:X *694:6 28.8621 
2 *694:6 *6073:A0 23 
*END

*D_NET *695 0.000973237
*CONN
*I *6103:A0 I *D sky130_fd_sc_hd__mux2_1
*I *6556:X O *D sky130_fd_sc_hd__dlygate4sd3_1
*CAP
1 *6103:A0 0
2 *6556:X 0.000221758
3 *695:6 0.000221758
4 *695:6 *757:24 0.000473015
5 *695:6 *757:33 5.67058e-05
*RES
1 *6556:X *695:6 28.8621 
2 *695:6 *6103:A0 23 
*END

*D_NET *696 0.000850983
*CONN
*I *6225:A0 I *D sky130_fd_sc_hd__mux2_1
*I *6557:X O *D sky130_fd_sc_hd__dlygate4sd3_1
*CAP
1 *6225:A0 0.000208499
2 *6557:X 7.99533e-05
3 *696:8 0.000288453
4 *696:8 *5874:A 0
5 *422:6 *6225:A0 0.000274078
*RES
1 *6557:X *696:8 39.2014 
2 *696:8 *6225:A0 41.48 
*END

*D_NET *697 0.00105207
*CONN
*I *6222:A0 I *D sky130_fd_sc_hd__mux2_1
*I *6558:X O *D sky130_fd_sc_hd__dlygate4sd3_1
*CAP
1 *6222:A0 0.000329591
2 *6558:X 8.49665e-05
3 *697:8 0.000414558
4 *6222:A0 *810:55 0
5 *697:8 *6558:A 0
6 *697:8 *810:55 0
7 *697:8 *814:16 0
8 *6222:S *6222:A0 0.00022295
*RES
1 *6558:X *697:8 39.2014 
2 *697:8 *6222:A0 44.3593 
*END

*D_NET *698 0.000559834
*CONN
*I *6229:A0 I *D sky130_fd_sc_hd__mux2_1
*I *6559:X O *D sky130_fd_sc_hd__dlygate4sd3_1
*CAP
1 *6229:A0 0.000102799
2 *6559:X 0.000124508
3 *698:8 0.000227307
4 *6229:A0 *6461:RESET_B 1.24376e-05
5 *698:8 *5876:A 0
6 *698:8 *710:32 0
7 *698:8 *710:34 0
8 *6229:A1 *6229:A0 7.44257e-05
9 *6229:S *698:8 1.83564e-05
*RES
1 *6559:X *698:8 40.2579 
2 *698:8 *6229:A0 40.0507 
*END

*D_NET *699 0.0122935
*CONN
*I *6672:A I *D sky130_fd_sc_hd__buf_2
*I *5946:A1 I *D sky130_fd_sc_hd__mux2_1
*I *6331:Q O *D sky130_fd_sc_hd__dfxtp_1
*CAP
1 *6672:A 0
2 *5946:A1 0.000382355
3 *6331:Q 7.99533e-05
4 *699:25 0.000265448
5 *699:19 0.00567806
6 *699:10 0.00579497
7 *699:8 7.99533e-05
8 r_data[1] *699:25 1.27424e-05
9 *239:228 *699:8 0
*RES
1 *6331:Q *699:8 39.2014 
2 *699:8 *699:10 15 
3 *699:10 *5946:A1 27.9093 
4 *699:10 *699:19 72.0857 
5 *699:19 *699:25 35.075 
6 *699:25 *6672:A 23 
*END

*D_NET *700 0.0205365
*CONN
*I *6673:A I *D sky130_fd_sc_hd__clkbuf_4
*I *5955:A1 I *D sky130_fd_sc_hd__mux2_1
*I *6332:Q O *D sky130_fd_sc_hd__dfxtp_1
*CAP
1 *6673:A 0
2 *5955:A1 0
3 *6332:Q 0
4 *700:27 0.00222445
5 *700:25 0.00222445
6 *700:23 0.00476789
7 *700:21 0.00581709
8 *700:12 0.000635035
9 *700:4 0.00168424
10 *700:12 *712:81 0.000149495
11 *700:27 *724:14 0.00281788
12 *6332:D *700:12 0.000215955
13 *26:13 *700:27 0
14 *37:8 *700:12 0
15 *239:206 *700:12 0
*RES
1 *6332:Q *700:4 23 
2 *700:4 *700:12 39.4457 
3 *700:12 *5955:A1 23 
4 *700:4 *700:21 14.1996 
5 *700:21 *700:23 63.7482 
6 *700:23 *700:25 15 
7 *700:25 *700:27 55.0793 
8 *700:27 *6673:A 38 
*END

*D_NET *701 0.0205442
*CONN
*I *6674:A I *D sky130_fd_sc_hd__clkbuf_4
*I *5964:A1 I *D sky130_fd_sc_hd__mux2_1
*I *6333:Q O *D sky130_fd_sc_hd__dfxtp_1
*CAP
1 *6674:A 0
2 *5964:A1 0.000284248
3 *6333:Q 0.000141654
4 *701:23 0.00345429
5 *701:21 0.00345429
6 *701:19 0.00413608
7 *701:10 0.00442033
8 *701:8 0.000141654
9 *5964:S *5964:A1 3.22879e-05
10 *4:12 *701:23 0
11 *691:29 *701:23 0.0044794
*RES
1 *6333:Q *701:8 40.61 
2 *701:8 *701:10 15 
3 *701:10 *5964:A1 27.9093 
4 *701:10 *701:19 70.6564 
5 *701:19 *701:21 15 
6 *701:21 *701:23 86.42 
7 *701:23 *6674:A 38 
*END

*D_NET *702 0.0180434
*CONN
*I *6513:A I *D sky130_fd_sc_hd__buf_6
*I *6472:RESET_B I *D sky130_fd_sc_hd__dfrtp_1
*I *6659:X O *D sky130_fd_sc_hd__clkbuf_2
*CAP
1 *6513:A 0.00050361
2 *6472:RESET_B 0.00101369
3 *6659:X 0.000725608
4 *702:22 0.00211137
5 *702:14 0.00175703
6 *702:10 0.00382489
7 *702:8 0.00439476
8 *6472:RESET_B *5895:A 7.99973e-05
9 *6472:RESET_B *6265:A1 9.98891e-05
10 *6472:RESET_B *709:90 0
11 *6472:RESET_B *712:27 4.83893e-05
12 *6472:RESET_B *794:34 0.000203647
13 *702:22 *711:92 0.000151909
14 *702:22 *794:16 0.000186869
15 *702:22 *794:25 0.000432103
16 *702:22 *794:34 0.000885098
17 *6270:A *6513:A 0.000146822
18 *158:8 *702:22 0
19 *204:10 *702:22 5.56203e-05
20 *207:14 *6472:RESET_B 0
21 *239:30 *702:22 0.000116413
22 *239:41 *702:22 0.000437279
23 *239:54 *6472:RESET_B 0.000758594
24 *239:54 *702:22 2.82105e-05
25 *239:67 *6472:RESET_B 8.16253e-05
*RES
1 *6659:X *702:8 47.6736 
2 *702:8 *702:10 71.9821 
3 *702:10 *702:14 17.5271 
4 *702:14 *702:22 45.3361 
5 *702:22 *6472:RESET_B 41.3279 
6 *702:14 *6513:A 31.7414 
*END

*D_NET *703 0.00967583
*CONN
*I *6675:A I *D sky130_fd_sc_hd__clkbuf_4
*I *5973:A1 I *D sky130_fd_sc_hd__mux2_1
*I *6334:Q O *D sky130_fd_sc_hd__dfxtp_1
*CAP
1 *6675:A 0
2 *5973:A1 0
3 *6334:Q 0
4 *703:27 0.00368451
5 *703:25 0.00411447
6 *703:16 0.000532039
7 *703:4 0.000962001
8 *703:16 *712:64 3.24514e-05
9 *703:25 *712:64 3.75988e-05
10 *6000:S *703:27 4.90891e-05
11 *6337:D *703:25 1.29152e-05
12 *239:184 *703:16 2.4754e-05
13 *239:193 *703:16 0.000141954
14 *271:18 *703:16 0
15 *272:10 *703:16 0
16 *296:10 *703:27 8.4047e-05
*RES
1 *6334:Q *703:4 23 
2 *703:4 *703:16 39.2179 
3 *703:16 *5973:A1 23 
4 *703:4 *703:25 20.8621 
5 *703:25 *703:27 72.6864 
6 *703:27 *6675:A 38 
*END

*D_NET *704 0.00192163
*CONN
*I *5982:A1 I *D sky130_fd_sc_hd__mux2_1
*I *6676:A I *D sky130_fd_sc_hd__clkbuf_4
*I *6335:Q O *D sky130_fd_sc_hd__dfxtp_1
*CAP
1 *5982:A1 0.000229539
2 *6676:A 0
3 *6335:Q 0
4 *704:16 0.000642522
5 *704:4 0.000872061
6 *704:16 *709:90 0
7 *704:16 *711:38 0
8 *9:10 *704:16 3.22879e-05
9 *40:8 *704:16 8.85189e-05
10 *279:24 *5982:A1 5.67058e-05
11 *280:8 *704:16 0
*RES
1 *6335:Q *704:4 23 
2 *704:4 *704:16 41.1236 
3 *704:16 *6676:A 23 
4 *704:4 *5982:A1 26.0036 
*END

*D_NET *705 0.00671144
*CONN
*I *5991:A1 I *D sky130_fd_sc_hd__mux2_1
*I *6677:A I *D sky130_fd_sc_hd__clkbuf_4
*I *6336:Q O *D sky130_fd_sc_hd__dfxtp_1
*CAP
1 *5991:A1 0
2 *6677:A 0
3 *6336:Q 0.000147496
4 *705:25 0.00021316
5 *705:12 0.00239001
6 *705:10 0.0027323
7 *705:6 0.000702946
8 *705:10 *6336:CLK 2.92911e-06
9 *705:25 *711:73 0
10 *6336:D *705:10 0.000143599
11 *2:10 *705:12 0
12 *288:8 *705:25 0
13 *680:26 *705:6 0.000128401
14 *680:26 *705:10 0.000138742
15 *680:26 *705:12 0.000111852
*RES
1 *6336:Q *705:6 25.5271 
2 *705:6 *705:10 19.9093 
3 *705:10 *705:12 46.6279 
4 *705:12 *6677:A 38 
5 *705:6 *705:25 33.6664 
6 *705:25 *5991:A1 23 
*END

*D_NET *706 0.0143121
*CONN
*I *6678:A I *D sky130_fd_sc_hd__clkbuf_4
*I *6000:A1 I *D sky130_fd_sc_hd__mux2_1
*I *6337:Q O *D sky130_fd_sc_hd__dfxtp_1
*CAP
1 *6678:A 0
2 *6000:A1 0
3 *6337:Q 0
4 *706:23 0.00371306
5 *706:21 0.00371306
6 *706:19 0.00294215
7 *706:12 0.000321618
8 *706:4 0.00326377
9 *6000:S *706:12 0
10 *658:10 *706:12 0.000358425
*RES
1 *6337:Q *706:4 23 
2 *706:4 *706:12 35.1579 
3 *706:12 *6000:A1 23 
4 *706:4 *706:19 38.7357 
5 *706:19 *706:21 15 
6 *706:21 *706:23 72.6864 
7 *706:23 *6678:A 38 
*END

*D_NET *707 0.000929114
*CONN
*I *6284:A I *D sky130_fd_sc_hd__inv_2
*I *6667:X O *D sky130_fd_sc_hd__clkbuf_1
*CAP
1 *6284:A 0
2 *6667:X 0.000235254
3 *707:8 0.000235254
4 *5874:B *707:8 0.000187129
5 *458:10 *707:8 0.000271476
*RES
1 *6667:X *707:8 29.235 
2 *707:8 *6284:A 23 
*END

*D_NET *708 0.000621612
*CONN
*I *5884:B I *D sky130_fd_sc_hd__xnor2_1
*I *5875:A1 I *D sky130_fd_sc_hd__mux2_1
*I *6668:X O *D sky130_fd_sc_hd__buf_1
*CAP
1 *5884:B 0.000148185
2 *5875:A1 2.14194e-05
3 *6668:X 8.53737e-05
4 *708:12 0.000193087
5 *708:8 0.000108856
6 *181:12 *708:8 0
7 *187:16 *5875:A1 5.90675e-06
8 *187:16 *5884:B 5.87834e-05
9 *187:16 *708:8 0
*RES
1 *6668:X *708:8 39.2014 
2 *708:8 *708:12 15.4971 
3 *708:12 *5875:A1 23.4971 
4 *708:12 *5884:B 26.0243 
*END

*D_NET *709 0.0249736
*CONN
*I *6449:RESET_B I *D sky130_fd_sc_hd__dfrtp_1
*I *6454:RESET_B I *D sky130_fd_sc_hd__dfrtp_1
*I *6467:RESET_B I *D sky130_fd_sc_hd__dfrtp_4
*I *6468:RESET_B I *D sky130_fd_sc_hd__dfrtp_1
*I *6470:RESET_B I *D sky130_fd_sc_hd__dfrtp_1
*I *6469:RESET_B I *D sky130_fd_sc_hd__dfrtp_2
*I *6452:RESET_B I *D sky130_fd_sc_hd__dfrtp_1
*I *6471:RESET_B I *D sky130_fd_sc_hd__dfrtp_1
*I *6447:RESET_B I *D sky130_fd_sc_hd__dfrtp_1
*I *6448:RESET_B I *D sky130_fd_sc_hd__dfrtp_1
*I *6453:RESET_B I *D sky130_fd_sc_hd__dfrtp_1
*I *6451:RESET_B I *D sky130_fd_sc_hd__dfrtp_1
*I *6456:RESET_B I *D sky130_fd_sc_hd__dfrtp_1
*I *6450:RESET_B I *D sky130_fd_sc_hd__dfrtp_1
*I *6455:RESET_B I *D sky130_fd_sc_hd__dfrtp_1
*I *6474:RESET_B I *D sky130_fd_sc_hd__dfrtp_1
*I *6475:RESET_B I *D sky130_fd_sc_hd__dfrtp_2
*I *6473:RESET_B I *D sky130_fd_sc_hd__dfrtp_1
*I *6513:X O *D sky130_fd_sc_hd__buf_6
*CAP
1 *6449:RESET_B 0.000246918
2 *6454:RESET_B 4.38131e-05
3 *6467:RESET_B 8.85095e-05
4 *6468:RESET_B 0
5 *6470:RESET_B 0.000257692
6 *6469:RESET_B 0.00124411
7 *6452:RESET_B 0.000248952
8 *6471:RESET_B 0.000419891
9 *6447:RESET_B 4.87639e-05
10 *6448:RESET_B 4.78252e-05
11 *6453:RESET_B 0
12 *6451:RESET_B 5.20718e-05
13 *6456:RESET_B 0
14 *6450:RESET_B 5.4374e-05
15 *6455:RESET_B 0
16 *6474:RESET_B 5.98434e-05
17 *6475:RESET_B 0.000702389
18 *6473:RESET_B 0
19 *6513:X 0.000202511
20 *709:229 0.000864634
21 *709:211 0.00112656
22 *709:187 0.000413191
23 *709:185 0.000905409
24 *709:177 0.00120106
25 *709:173 0.00043209
26 *709:113 0.000468654
27 *709:111 0.000615938
28 *709:99 0.000575453
29 *709:90 0.00104129
30 *709:80 0.00115832
31 *709:71 0.000664512
32 *709:59 0.000747253
33 *709:48 0.000545296
34 *709:38 0.00105357
35 *709:25 0.00087165
36 *709:17 0.0020031
37 *709:10 0.000447312
38 *6447:RESET_B *814:16 2.68362e-05
39 *6448:RESET_B *6448:D 2.77452e-05
40 *6449:RESET_B *6449:CLK 6.17437e-06
41 *6450:RESET_B *6450:D 1.94693e-05
42 *6451:RESET_B *6451:D 9.09623e-05
43 *6452:RESET_B *711:24 2.56078e-05
44 *6452:RESET_B *712:14 0
45 *6454:RESET_B *820:16 0.000178818
46 *6454:RESET_B *825:8 5.18019e-05
47 *6469:RESET_B *792:8 0.000434428
48 *6469:RESET_B *792:18 0.000241703
49 *6469:RESET_B *797:19 0.000244711
50 *6470:RESET_B *793:8 0
51 *6471:RESET_B *712:14 0
52 *6471:RESET_B *814:16 0.000441978
53 *709:17 *797:10 7.7086e-05
54 *709:17 *797:19 6.42902e-05
55 *709:25 *711:73 0
56 *709:25 *794:16 0.000126751
57 *709:38 *6273:A1 0.00014411
58 *709:38 *711:69 0
59 *709:38 *711:73 0
60 *709:48 *6273:A1 4.32475e-05
61 *709:48 *798:21 3.47776e-05
62 *709:59 *821:8 2.5415e-05
63 *709:80 *822:8 2.79004e-05
64 *709:90 *5894:B 0
65 *709:90 *712:14 0.000141248
66 *709:99 *712:14 3.99192e-05
67 *709:99 *819:8 4.08641e-05
68 *709:111 *712:14 0
69 *709:185 *792:45 5.70419e-05
70 *709:211 *801:10 0
71 *709:229 *712:39 0.000195248
72 *709:229 *801:10 0
73 *709:229 *806:12 0
74 *709:229 *825:16 0
75 *5899:A *709:229 3.71369e-05
76 *5991:S *709:25 5.12254e-05
77 *5991:S *709:38 5.10416e-05
78 *6174:A *709:185 7.88926e-05
79 *6469:D *6469:RESET_B 0.000110392
80 *6472:RESET_B *709:90 0
81 *6475:D *709:25 1.56149e-05
82 *6475:D *709:38 9.05654e-05
83 *40:8 *709:90 0
84 *117:10 *709:185 9.75779e-05
85 *117:10 *709:211 0
86 *156:10 *6471:RESET_B 4.58924e-05
87 *157:10 *709:90 0
88 *210:12 *709:173 5.21127e-05
89 *210:12 *709:177 0
90 *210:12 *709:211 0
91 *229:6 *709:185 1.76557e-05
92 *229:14 *709:177 0
93 *229:35 *709:185 4.21471e-05
94 *230:8 *709:185 0.000180401
95 *230:8 *709:187 7.95189e-05
96 *230:263 *6467:RESET_B 2.26011e-05
97 *237:24 *709:10 0
98 *237:24 *709:17 0
99 *239:30 *709:25 3.0647e-05
100 *239:41 *709:25 2.60152e-05
101 *239:41 *709:38 0
102 *239:54 *709:38 2.21344e-05
103 *239:54 *709:48 9.43301e-05
104 *239:54 *709:59 1.65626e-05
105 *239:54 *709:71 0
106 *239:54 *709:80 0
107 *239:54 *709:90 0
108 *239:67 *709:90 0
109 *280:8 *709:90 8.62876e-05
110 *391:30 *6470:RESET_B 0.000423372
111 *391:30 *709:185 0.000608663
112 *391:30 *709:187 0.000320911
113 *394:8 *709:177 0
114 *394:8 *709:211 0
115 *411:26 *6470:RESET_B 0
116 *411:26 *709:185 0
117 *411:26 *709:187 0
118 *447:8 *709:10 0
119 *449:8 *709:10 6.05076e-05
120 *449:8 *709:17 3.53605e-05
121 *451:10 *709:38 0.000171906
122 *454:10 *6469:RESET_B 7.91596e-05
123 *454:10 *709:25 1.04148e-05
124 *479:51 *709:185 4.67488e-05
125 *479:57 *709:229 0.00023537
126 *479:61 *709:229 5.62433e-06
127 *487:10 *709:185 0
128 *487:44 *6449:RESET_B 3.08719e-06
129 *487:65 *6449:RESET_B 5.3304e-05
130 *669:10 *709:229 9.33529e-06
131 *704:16 *709:90 0
*RES
1 *6513:X *709:10 42.06 
2 *709:10 *6473:RESET_B 15 
3 *709:10 *709:17 4.72286 
4 *709:17 *709:25 42.18 
5 *709:25 *6475:RESET_B 15 
6 *6475:RESET_B *709:38 30.1732 
7 *709:38 *6474:RESET_B 16.0254 
8 *709:38 *709:48 5.77929 
9 *709:48 *6455:RESET_B 15 
10 *709:48 *709:59 5.15786 
11 *709:59 *6450:RESET_B 16.0461 
12 *709:59 *709:71 8.24429 
13 *709:71 *6456:RESET_B 15 
14 *709:71 *709:80 4.28786 
15 *709:80 *6451:RESET_B 16.0254 
16 *709:80 *709:90 17.4 
17 *709:90 *6453:RESET_B 15 
18 *709:90 *709:99 3.23143 
19 *709:99 *6448:RESET_B 16.0461 
20 *709:99 *709:111 5.77929 
21 *709:111 *709:113 15 
22 *709:113 *6447:RESET_B 1.04607 
23 *709:113 *6471:RESET_B 39.2489 
24 *709:111 *6452:RESET_B 18.6561 
25 *709:17 *6469:RESET_B 35.1239 
26 *6469:RESET_B *709:173 35.0336 
27 *709:173 *709:177 16.5536 
28 *709:177 *709:185 46.0121 
29 *709:185 *709:187 4.37071 
30 *709:187 *6470:RESET_B 20.7793 
31 *709:187 *6468:RESET_B 15 
32 *709:185 *6467:RESET_B 16.5225 
33 *709:177 *709:211 8.59643 
34 *709:211 *6454:RESET_B 16.9782 
35 *709:211 *709:229 42.2629 
36 *709:229 *6449:RESET_B 18.8839 
*END

*D_NET *710 0.0237078
*CONN
*I *6457:RESET_B I *D sky130_fd_sc_hd__dfrtp_1
*I *6476:RESET_B I *D sky130_fd_sc_hd__dfrtp_1
*I *6478:RESET_B I *D sky130_fd_sc_hd__dfrtp_4
*I *6477:RESET_B I *D sky130_fd_sc_hd__dfrtp_4
*I *6462:RESET_B I *D sky130_fd_sc_hd__dfrtp_1
*I *6434:RESET_B I *D sky130_fd_sc_hd__dfrtp_1
*I *6435:RESET_B I *D sky130_fd_sc_hd__dfrtp_1
*I *6463:RESET_B I *D sky130_fd_sc_hd__dfrtp_1
*I *6458:RESET_B I *D sky130_fd_sc_hd__dfrtp_1
*I *6466:RESET_B I *D sky130_fd_sc_hd__dfrtp_1
*I *6461:RESET_B I *D sky130_fd_sc_hd__dfrtp_1
*I *6436:RESET_B I *D sky130_fd_sc_hd__dfrtp_1
*I *6464:RESET_B I *D sky130_fd_sc_hd__dfrtp_1
*I *6437:RESET_B I *D sky130_fd_sc_hd__dfrtp_1
*I *6465:RESET_B I *D sky130_fd_sc_hd__dfrtp_1
*I *6460:RESET_B I *D sky130_fd_sc_hd__dfrtp_1
*I *6459:RESET_B I *D sky130_fd_sc_hd__dfrtp_1
*I *6438:RESET_B I *D sky130_fd_sc_hd__dfrtp_1
*I *6514:X O *D sky130_fd_sc_hd__clkbuf_8
*CAP
1 *6457:RESET_B 0.000344497
2 *6476:RESET_B 0.000332631
3 *6478:RESET_B 0.000180881
4 *6477:RESET_B 0.000944804
5 *6462:RESET_B 0.000286099
6 *6434:RESET_B 4.01634e-05
7 *6435:RESET_B 0.000106961
8 *6463:RESET_B 0.000196084
9 *6458:RESET_B 6.80178e-05
10 *6466:RESET_B 0
11 *6461:RESET_B 0.000449475
12 *6436:RESET_B 0.000374365
13 *6464:RESET_B 0.000128285
14 *6437:RESET_B 0.000268251
15 *6465:RESET_B 0
16 *6460:RESET_B 0.000386099
17 *6459:RESET_B 0.000180493
18 *6438:RESET_B 6.67126e-05
19 *6514:X 0
20 *710:217 1.56548e-05
21 *710:185 0.000513511
22 *710:183 0.000603289
23 *710:149 0.0012892
24 *710:135 0.000701747
25 *710:109 0.000264102
26 *710:72 0.00131344
27 *710:60 0.00107904
28 *710:38 0.000663055
29 *710:36 0.000413839
30 *710:34 0.0005144
31 *710:32 0.0008053
32 *710:30 0.000598736
33 *710:16 0.0008955
34 *710:12 0.000768154
35 *710:10 0.00113053
36 *710:8 0.000866371
37 *710:6 0.000550945
38 *6436:RESET_B *816:14 0.000564884
39 *6437:RESET_B *6559:A 5.67058e-05
40 *6458:RESET_B *712:27 0.000163501
41 *6459:RESET_B *711:150 8.93326e-05
42 *6459:RESET_B *825:16 0
43 *6460:RESET_B *802:6 0.000218493
44 *6461:RESET_B *803:10 4.06849e-05
45 *6462:RESET_B *804:8 0
46 *6462:RESET_B *810:55 1.83667e-05
47 *6463:RESET_B *712:27 0.000521409
48 *6464:RESET_B *712:33 4.88179e-05
49 *6464:RESET_B *806:12 0.000136486
50 *6476:RESET_B *810:6 0
51 *6476:RESET_B *810:75 7.39034e-05
52 *6477:RESET_B *5885:B 5.70419e-05
53 *6477:RESET_B *810:12 0.00013404
54 *6478:RESET_B *810:75 0.00026916
55 *710:16 *714:10 0
56 *710:30 *6231:A0 0.000230604
57 *710:30 *813:10 0
58 *710:36 *717:10 6.26252e-05
59 *710:36 *817:10 0
60 *710:36 *825:16 0
61 *710:38 *717:10 5.45887e-05
62 *710:38 *825:16 0
63 *710:149 *6558:A 5.50106e-05
64 *710:183 *810:12 2.54046e-05
65 *6229:A0 *6461:RESET_B 1.24376e-05
66 *6229:S *710:16 0
67 *6229:S *710:30 0.000224669
68 *6229:S *710:32 9.63918e-05
69 *6230:A *6461:RESET_B 0.000272383
70 *6279:A1 *710:183 5.41288e-05
71 *6435:CLK *6435:RESET_B 5.44353e-05
72 *6457:CLK *6457:RESET_B 0
73 *6457:CLK *710:8 0
74 *6460:CLK *6460:RESET_B 0.000135815
75 *139:10 *710:8 1.02387e-05
76 *139:10 *710:10 2.5415e-05
77 *140:10 *710:10 0
78 *140:10 *710:12 0
79 *161:10 *6476:RESET_B 3.83778e-05
80 *161:10 *6478:RESET_B 4.18957e-05
81 *162:10 *710:183 0
82 *163:10 *6478:RESET_B 0
83 *182:14 *710:183 0.000148678
84 *182:26 *710:183 7.88926e-05
85 *184:12 *710:16 0
86 *198:8 *6477:RESET_B 0.000141954
87 *205:8 *710:36 0
88 *211:10 *710:10 0
89 *226:45 *6459:RESET_B 0
90 *226:45 *710:12 0.000200329
91 *226:45 *710:16 0.000338524
92 *226:45 *710:30 0
93 *226:45 *710:32 0
94 *226:45 *710:34 0
95 *226:45 *710:36 0
96 *226:45 *710:38 0
97 *420:51 *710:16 0
98 *420:85 *6478:RESET_B 0
99 *420:87 *710:183 7.36613e-05
100 *426:8 *710:30 0
101 *460:8 *6478:RESET_B 0
102 *487:65 *6436:RESET_B 0.000311549
103 *487:65 *6464:RESET_B 8.92557e-05
104 *490:12 *710:10 0
105 *490:12 *710:12 0
106 *490:20 *6458:RESET_B 0.000306634
107 *490:20 *6463:RESET_B 9.74722e-05
108 *491:20 *710:183 2.96369e-05
109 *491:22 *6477:RESET_B 0.000182083
110 *491:35 *6434:RESET_B 5.03716e-05
111 *491:35 *6477:RESET_B 9.40284e-05
112 *491:35 *710:149 0.000436887
113 *491:45 *710:8 0
114 *491:45 *710:10 0
115 *491:52 *710:8 0
116 *698:8 *710:32 0
117 *698:8 *710:34 0
*RES
1 *6514:X *710:6 38 
2 *710:6 *710:8 3.66643 
3 *710:8 *710:10 11.4136 
4 *710:10 *710:12 7.54 
5 *710:12 *710:16 23.9486 
6 *710:16 *6438:RESET_B 1.02536 
7 *710:16 *710:30 25.2329 
8 *710:30 *710:32 2.96214 
9 *710:32 *710:34 2.96214 
10 *710:34 *710:36 5.77929 
11 *710:36 *710:38 1.90571 
12 *710:38 *6459:RESET_B 19.0186 
13 *710:38 *6460:RESET_B 22.6954 
14 *710:36 *6465:RESET_B 15 
15 *710:34 *710:60 15 
16 *710:60 *6437:RESET_B 5.23036 
17 *710:60 *710:72 13.0086 
18 *710:72 *6464:RESET_B 32.9311 
19 *710:72 *6436:RESET_B 9.60107 
20 *710:32 *6461:RESET_B 24.1661 
21 *710:30 *6466:RESET_B 15 
22 *710:12 *710:109 15 
23 *710:109 *6458:RESET_B 3.4075 
24 *710:109 *6463:RESET_B 6.28679 
25 *710:10 *6435:RESET_B 16.8746 
26 *710:8 *710:135 15 
27 *710:135 *6434:RESET_B 1.5225 
28 *710:135 *710:149 12.2214 
29 *710:149 *6462:RESET_B 34.3604 
30 *710:149 *6477:RESET_B 8.97964 
31 *6477:RESET_B *710:183 39.3214 
32 *710:183 *710:185 15 
33 *710:185 *6478:RESET_B 19.3707 
34 *710:185 *6476:RESET_B 20.2511 
35 *710:6 *6457:RESET_B 19.8989 
36 *6457:RESET_B *710:217 0.331429 
*END

*D_NET *711 0.0242326
*CONN
*I *6471:CLK I *D sky130_fd_sc_hd__dfrtp_1
*I *6452:CLK I *D sky130_fd_sc_hd__dfrtp_1
*I *6447:CLK I *D sky130_fd_sc_hd__dfrtp_1
*I *6448:CLK I *D sky130_fd_sc_hd__dfrtp_1
*I *6453:CLK I *D sky130_fd_sc_hd__dfrtp_1
*I *6335:CLK I *D sky130_fd_sc_hd__dfxtp_1
*I *6451:CLK I *D sky130_fd_sc_hd__dfrtp_1
*I *6456:CLK I *D sky130_fd_sc_hd__dfrtp_1
*I *6450:CLK I *D sky130_fd_sc_hd__dfrtp_1
*I *6455:CLK I *D sky130_fd_sc_hd__dfrtp_1
*I *6475:CLK I *D sky130_fd_sc_hd__dfrtp_2
*I *6454:CLK I *D sky130_fd_sc_hd__dfrtp_1
*I *6469:CLK I *D sky130_fd_sc_hd__dfrtp_2
*I *6468:CLK I *D sky130_fd_sc_hd__dfrtp_1
*I *6470:CLK I *D sky130_fd_sc_hd__dfrtp_1
*I *6473:CLK I *D sky130_fd_sc_hd__dfrtp_1
*I *6336:CLK I *D sky130_fd_sc_hd__dfxtp_1
*I *6474:CLK I *D sky130_fd_sc_hd__dfrtp_1
*I *6515:X O *D sky130_fd_sc_hd__buf_4
*CAP
1 *6471:CLK 0
2 *6452:CLK 0
3 *6447:CLK 0
4 *6448:CLK 0
5 *6453:CLK 0.000247595
6 *6335:CLK 0
7 *6451:CLK 0
8 *6456:CLK 0
9 *6450:CLK 0.000232216
10 *6455:CLK 0
11 *6475:CLK 4.51843e-05
12 *6454:CLK 0
13 *6469:CLK 0
14 *6468:CLK 0
15 *6470:CLK 0
16 *6473:CLK 0
17 *6336:CLK 0.00050034
18 *6474:CLK 0.00012698
19 *6515:X 7.79769e-05
20 *711:150 0.000844168
21 *711:135 0.00120376
22 *711:123 0.000343401
23 *711:115 0.000587011
24 *711:109 0.00193654
25 *711:92 0.00200968
26 *711:73 0.00140294
27 *711:69 0.0013837
28 *711:54 0.00156236
29 *711:50 0.000449377
30 *711:48 0.00085255
31 *711:46 0.000840889
32 *711:38 0.000662856
33 *711:34 0.000919322
34 *711:32 0.000992499
35 *711:30 0.000435159
36 *711:28 0.000486535
37 *711:24 0.000999379
38 *711:14 0.000868291
39 *711:8 0.000139889
40 *6450:CLK *6450:D 1.04148e-05
41 *711:8 *712:14 6.6869e-05
42 *711:8 *823:10 5.56203e-05
43 *711:14 *823:10 9.67842e-05
44 *711:24 *823:10 1.14762e-05
45 *711:28 *818:10 4.48568e-05
46 *711:46 *6451:D 5.41288e-05
47 *711:109 *797:10 1.18615e-05
48 *711:115 *6254:A2 0.000141954
49 *711:115 *713:25 0.000183733
50 *711:123 *712:49 0
51 *711:123 *713:8 0
52 *711:150 *717:10 7.53384e-06
53 *711:150 *825:8 0.000100415
54 *711:150 *825:16 0
55 *5991:S *6475:CLK 1.5547e-05
56 *6253:A *711:135 7.93144e-05
57 *6254:A3 *711:115 5.50106e-05
58 *6258:B *711:109 1.14452e-05
59 *6258:C *711:109 0
60 *6452:RESET_B *711:24 2.56078e-05
61 *6459:RESET_B *711:150 8.93326e-05
62 *6473:D *711:109 0.000102222
63 *6475:D *6475:CLK 1.37232e-05
64 *9:10 *711:38 0
65 *40:8 *711:34 0
66 *40:8 *711:38 0
67 *153:10 *711:123 6.07611e-06
68 *159:10 *711:54 3.70187e-05
69 *210:12 *711:135 0
70 *210:12 *711:150 0
71 *225:237 *711:123 9.26005e-05
72 *225:247 *711:115 0.00012162
73 *225:262 *711:109 4.21594e-06
74 *225:262 *711:135 0.000186269
75 *225:262 *711:150 5.86328e-05
76 *226:14 *711:115 7.63554e-05
77 *237:14 *711:109 8.2832e-05
78 *237:24 *711:109 5.83407e-05
79 *239:30 *711:73 0
80 *239:117 *711:109 0.000259946
81 *239:117 *711:135 0.000136486
82 *239:134 *711:109 3.91386e-05
83 *239:146 *711:123 0.000108776
84 *287:30 *711:69 0
85 *287:30 *711:73 0
86 *391:30 *711:123 0
87 *437:12 *711:109 0
88 *438:8 *711:135 5.26204e-05
89 *439:10 *711:115 5.50106e-05
90 *439:10 *711:135 0
91 *448:10 *711:109 5.14746e-06
92 *680:18 *711:115 0.000911477
93 *680:26 *6336:CLK 0.000224005
94 *680:26 *711:92 0.000232727
95 *702:22 *711:92 0.000151909
96 *704:16 *711:38 0
97 *705:10 *6336:CLK 2.92911e-06
98 *705:25 *711:73 0
99 *709:25 *711:73 0
100 *709:38 *711:69 0
101 *709:38 *711:73 0
*RES
1 *6515:X *711:8 39.9057 
2 *711:8 *711:14 16.595 
3 *711:14 *711:24 12.0143 
4 *711:24 *711:28 17.9621 
5 *711:28 *711:30 5.77929 
6 *711:30 *711:32 2.61 
7 *711:32 *711:34 11.7657 
8 *711:34 *711:38 20.7793 
9 *711:38 *711:46 20.6343 
10 *711:46 *711:48 9.30071 
11 *711:48 *711:50 2.25786 
12 *711:50 *711:54 21.4836 
13 *711:54 *6474:CLK 24.9471 
14 *711:54 *711:69 32.3793 
15 *711:69 *711:73 17.9621 
16 *711:73 *6336:CLK 30.6643 
17 *711:73 *711:92 41.455 
18 *711:92 *6473:CLK 23 
19 *711:92 *711:109 35.4243 
20 *711:109 *711:115 25.6471 
21 *711:115 *711:123 36.2764 
22 *711:123 *6470:CLK 23 
23 *711:115 *6468:CLK 23 
24 *711:109 *711:135 8.24429 
25 *711:135 *6469:CLK 38 
26 *711:135 *711:150 31.9443 
27 *711:150 *6454:CLK 23 
28 *711:69 *6475:CLK 39.0305 
29 *711:50 *6455:CLK 38 
30 *711:48 *6450:CLK 41.3764 
31 *711:46 *6456:CLK 38 
32 *711:38 *6451:CLK 23 
33 *711:34 *6335:CLK 38 
34 *711:32 *6453:CLK 42.4329 
35 *711:30 *6448:CLK 38 
36 *711:28 *6447:CLK 38 
37 *711:24 *6452:CLK 23 
38 *711:14 *6471:CLK 23 
*END

*D_NET *712 0.0453182
*CONN
*I *6515:A I *D sky130_fd_sc_hd__buf_4
*I *6449:CLK I *D sky130_fd_sc_hd__dfrtp_1
*I *6467:CLK I *D sky130_fd_sc_hd__dfrtp_4
*I *6337:CLK I *D sky130_fd_sc_hd__dfxtp_1
*I *6333:CLK I *D sky130_fd_sc_hd__dfxtp_1
*I *6330:CLK I *D sky130_fd_sc_hd__dfxtp_1
*I *6331:CLK I *D sky130_fd_sc_hd__dfxtp_1
*I *6332:CLK I *D sky130_fd_sc_hd__dfxtp_1
*I *6334:CLK I *D sky130_fd_sc_hd__dfxtp_1
*I *6472:CLK I *D sky130_fd_sc_hd__dfrtp_1
*I *6516:X O *D sky130_fd_sc_hd__clkbuf_4
*CAP
1 *6515:A 4.24511e-05
2 *6449:CLK 3.80999e-05
3 *6467:CLK 0
4 *6337:CLK 0
5 *6333:CLK 0.000132579
6 *6330:CLK 0
7 *6331:CLK 0
8 *6332:CLK 0
9 *6334:CLK 0
10 *6472:CLK 0.000501097
11 *6516:X 0.000267767
12 *712:96 0.00137253
13 *712:83 0.00260553
14 *712:81 0.00152757
15 *712:72 0.000697409
16 *712:64 0.00136995
17 *712:53 0.00107956
18 *712:49 0.0066616
19 *712:39 0.00751238
20 *712:33 0.00240776
21 *712:27 0.00322146
22 *712:14 0.00342905
23 *712:10 0.00129058
24 *712:14 *5894:B 0
25 *712:14 *819:8 8.62876e-05
26 *712:14 *823:10 0
27 *712:14 *824:8 0
28 *712:27 *6458:D 0.000187976
29 *712:27 *805:8 0.000123934
30 *712:33 *5876:A 0
31 *712:33 *718:8 1.01436e-05
32 *712:33 *805:18 8.51329e-05
33 *712:33 *806:8 9.84851e-05
34 *712:33 *806:12 0
35 *712:33 *808:10 0.000196188
36 *712:49 *713:25 0
37 *5964:S *6333:CLK 0
38 *5964:S *712:96 0
39 *5967:A1 *712:49 0.000109747
40 *6332:D *712:72 9.84851e-05
41 *6332:D *712:81 0.000129006
42 *6334:D *712:53 8.1796e-05
43 *6334:D *712:64 3.54023e-05
44 *6449:RESET_B *6449:CLK 6.17437e-06
45 *6452:RESET_B *712:14 0
46 *6458:CLK *712:27 1.81362e-05
47 *6458:RESET_B *712:27 0.000163501
48 *6463:RESET_B *712:27 0.000521409
49 *6464:RESET_B *712:33 4.88179e-05
50 *6471:RESET_B *712:14 0
51 *6472:RESET_B *712:27 4.83893e-05
52 *42:12 *712:72 6.93449e-05
53 *152:10 *712:39 1.14452e-05
54 *152:10 *712:49 0.000105991
55 *153:10 *712:49 9.39056e-05
56 *156:10 *712:14 4.48671e-05
57 *187:16 *712:33 0.000238812
58 *198:16 *712:33 0
59 *201:10 *712:33 0
60 *225:237 *712:49 7.76364e-06
61 *226:131 *712:49 0.00331058
62 *229:14 *712:39 5.56203e-05
63 *230:16 *712:49 0
64 *230:37 *712:49 0.000659298
65 *239:88 *712:27 2.81066e-05
66 *239:146 *712:49 5.6652e-05
67 *239:206 *712:72 0
68 *239:206 *712:83 7.06124e-05
69 *239:219 *712:83 0
70 *239:228 *712:83 0
71 *239:228 *712:96 0
72 *240:8 *6333:CLK 2.77955e-05
73 *240:8 *712:96 0.00014411
74 *247:14 *712:83 0.000494686
75 *271:18 *712:49 0.00074088
76 *296:10 *712:72 0
77 *382:74 *6333:CLK 8.92944e-05
78 *382:74 *712:96 0.000344758
79 *382:80 *712:83 0.000634306
80 *382:80 *712:96 0.00013318
81 *382:96 *712:83 8.33469e-05
82 *391:30 *712:39 0.000213397
83 *391:30 *712:49 0
84 *394:8 *712:39 0
85 *479:57 *712:39 0.000434062
86 *487:65 *6449:CLK 1.21972e-05
87 *487:65 *712:33 0.000136825
88 *490:20 *712:27 3.05901e-05
89 *494:86 *712:49 0.000104089
90 *647:16 *712:10 7.24484e-05
91 *700:12 *712:81 0.000149495
92 *703:16 *712:64 3.24514e-05
93 *703:25 *712:64 3.75988e-05
94 *709:90 *712:14 0.000141248
95 *709:99 *712:14 3.99192e-05
96 *709:111 *712:14 0
97 *709:229 *712:39 0.000195248
98 *711:8 *712:14 6.6869e-05
99 *711:123 *712:49 0
*RES
1 *6516:X *712:10 42.3086 
2 *712:10 *712:14 33.8086 
3 *712:14 *6472:CLK 29.7114 
4 *712:14 *712:27 42.7779 
5 *712:27 *712:33 43.6479 
6 *712:33 *712:39 38.78 
7 *712:39 *712:49 42.8208 
8 *712:49 *712:53 19.9093 
9 *712:53 *6334:CLK 23 
10 *712:53 *712:64 12.325 
11 *712:64 *712:72 39.6943 
12 *712:72 *6332:CLK 23 
13 *712:72 *712:81 19.4329 
14 *712:81 *712:83 30.7814 
15 *712:83 *6331:CLK 38 
16 *712:83 *712:96 26.7421 
17 *712:96 *6330:CLK 38 
18 *712:96 *6333:CLK 40.9621 
19 *712:64 *6337:CLK 23 
20 *712:39 *6467:CLK 38 
21 *712:33 *6449:CLK 23.6214 
22 *712:10 *6515:A 38.6214 
*END

*D_NET *713 0.00917844
*CONN
*I *5936:A I *D sky130_fd_sc_hd__nand2_8
*I *6254:A2 I *D sky130_fd_sc_hd__a31o_1
*I *6660:X O *D sky130_fd_sc_hd__buf_2
*CAP
1 *5936:A 0
2 *6254:A2 4.04423e-05
3 *6660:X 0
4 *713:25 0.000234498
5 *713:10 0.00027494
6 *713:8 0.00402674
7 *713:6 0.00402674
8 *6254:A3 *713:25 0
9 *153:10 *713:25 0
10 *155:8 *713:8 0
11 *210:12 *713:25 0
12 *225:245 *713:8 9.04083e-05
13 *225:247 *6254:A2 5.50049e-05
14 *226:14 *6254:A2 1.94693e-05
15 *226:14 *713:25 6.87362e-05
16 *226:18 *6254:A2 1.5769e-05
17 *230:301 *713:8 0
18 *239:146 *713:8 0
19 *441:8 *713:8 0
20 *711:115 *6254:A2 0.000141954
21 *711:115 *713:25 0.000183733
22 *711:123 *713:8 0
23 *712:49 *713:25 0
*RES
1 *6660:X *713:6 38 
2 *713:6 *713:8 78.3207 
3 *713:8 *713:10 15 
4 *713:10 *6254:A2 24.5743 
5 *713:10 *713:25 35.0129 
6 *713:25 *5936:A 23 
*END

*D_NET *714 0.000397912
*CONN
*I *6463:D I *D sky130_fd_sc_hd__dfrtp_1
*I *6517:X O *D sky130_fd_sc_hd__dlygate4sd3_1
*CAP
1 *6463:D 0
2 *6517:X 0.00017601
3 *714:10 0.00017601
4 *420:51 *714:10 4.58924e-05
5 *710:16 *714:10 0
*RES
1 *6517:X *714:10 41.0036 
2 *714:10 *6463:D 38 
*END

*D_NET *715 0.000276497
*CONN
*I *6466:D I *D sky130_fd_sc_hd__dfrtp_1
*I *6566:X O *D sky130_fd_sc_hd__dlygate4sd3_1
*CAP
1 *6466:D 0.000123561
2 *6566:X 0.000123561
3 *6466:CLK *6466:D 2.93747e-05
*RES
1 *6566:X *6466:D 48.0507 
*END

*D_NET *716 0.000593819
*CONN
*I *6462:D I *D sky130_fd_sc_hd__dfrtp_1
*I *6577:X O *D sky130_fd_sc_hd__dlygate4sd3_1
*CAP
1 *6462:D 0
2 *6577:X 0.000291838
3 *716:10 0.000291838
4 *647:27 *716:10 1.01436e-05
*RES
1 *6577:X *716:10 42.0807 
2 *716:10 *6462:D 38 
*END

*D_NET *717 0.00113707
*CONN
*I *6465:D I *D sky130_fd_sc_hd__dfrtp_1
*I *6588:X O *D sky130_fd_sc_hd__dlygate4sd3_1
*CAP
1 *6465:D 0.000302897
2 *6588:X 0.000183359
3 *717:10 0.000486256
4 *717:10 *825:16 0
5 *210:8 *6465:D 3.98134e-05
6 *710:36 *717:10 6.26252e-05
7 *710:38 *717:10 5.45887e-05
8 *711:150 *717:10 7.53384e-06
*RES
1 *6588:X *717:10 41.5836 
2 *717:10 *6465:D 42.0238 
*END

*D_NET *718 0.000666694
*CONN
*I *6464:D I *D sky130_fd_sc_hd__dfrtp_1
*I *6599:X O *D sky130_fd_sc_hd__dlygate4sd3_1
*CAP
1 *6464:D 0.000159987
2 *6599:X 0.000108309
3 *718:8 0.000268297
4 *718:8 *5876:A 0
5 *718:8 *806:12 0
6 *487:65 *6464:D 0.000119957
7 *712:33 *718:8 1.01436e-05
*RES
1 *6599:X *718:8 39.9057 
2 *718:8 *6464:D 41.48 
*END

*D_NET *719 0.000740111
*CONN
*I *6228:A1 I *D sky130_fd_sc_hd__o21ba_1
*I *6610:X O *D sky130_fd_sc_hd__dlygate4sd3_1
*CAP
1 *6228:A1 0
2 *6610:X 0.000190259
3 *719:6 0.000190259
4 *719:6 *816:27 5.50106e-05
5 *391:114 *719:6 0.000304582
*RES
1 *6610:X *719:6 28.8621 
2 *719:6 *6228:A1 23 
*END

*D_NET *720 0.00131127
*CONN
*I *5908:A0 I *D sky130_fd_sc_hd__mux2_1
*I *6621:X O *D sky130_fd_sc_hd__dlygate4sd3_1
*CAP
1 *5908:A0 0
2 *6621:X 0.000147556
3 *720:6 0.000147556
4 *720:6 *735:81 5.67058e-05
5 *720:6 *735:92 0.00052451
6 *216:96 *720:6 2.32101e-05
7 *481:68 *720:6 9.84851e-05
8 *585:20 *720:6 0.000313249
*RES
1 *6621:X *720:6 29.3386 
2 *720:6 *5908:A0 23 
*END

*D_NET *721 0.00147899
*CONN
*I *6193:A0 I *D sky130_fd_sc_hd__mux2_1
*I *6632:X O *D sky130_fd_sc_hd__dlygate4sd3_1
*CAP
1 *6193:A0 0.000335095
2 *6632:X 0.000170733
3 *721:8 0.000505829
4 *721:8 *6029:A1 6.16439e-05
5 *721:8 *757:56 0.000103949
6 *5958:A3 *6193:A0 0.000112036
7 *6193:S *6193:A0 2.54193e-05
8 *6632:A *721:8 0
9 *309:82 *721:8 0.000164282
10 *483:63 *721:8 0
*RES
1 *6632:X *721:8 42.0186 
2 *721:8 *6193:A0 42.4329 
*END

*D_NET *722 0.00129582
*CONN
*I *6162:A0 I *D sky130_fd_sc_hd__mux2_1
*I *6643:X O *D sky130_fd_sc_hd__dlygate4sd3_1
*CAP
1 *6162:A0 0.00037293
2 *6643:X 7.99533e-05
3 *722:8 0.000452883
4 *6162:A0 *779:62 5.3304e-05
5 *6162:A0 *779:73 0.000140259
6 *232:69 *722:8 0
7 *339:37 *6162:A0 0.000196488
*RES
1 *6643:X *722:8 39.2014 
2 *722:8 *6162:A0 43.8621 
*END

*D_NET *723 0.000814013
*CONN
*I *6144:A0 I *D sky130_fd_sc_hd__mux2_1
*I *6518:X O *D sky130_fd_sc_hd__dlygate4sd3_1
*CAP
1 *6144:A0 0
2 *6518:X 0.000281698
3 *723:6 0.000281698
4 *372:20 *723:6 0.000250617
*RES
1 *6518:X *723:6 28.8621 
2 *723:6 *6144:A0 23 
*END

*D_NET *724 0.0566456
*CONN
*I *6288:A1 I *D sky130_fd_sc_hd__mux2_1
*I *6077:A1 I *D sky130_fd_sc_hd__mux2_1
*I *6306:A1 I *D sky130_fd_sc_hd__mux2_1
*I *6152:A1 I *D sky130_fd_sc_hd__mux2_1
*I *6097:A1 I *D sky130_fd_sc_hd__mux2_1
*I *6059:A1 I *D sky130_fd_sc_hd__mux2_1
*I *6041:A1 I *D sky130_fd_sc_hd__mux2_1
*I *6004:A1 I *D sky130_fd_sc_hd__mux2_1
*I *6116:A1 I *D sky130_fd_sc_hd__mux2_1
*I *6235:A1 I *D sky130_fd_sc_hd__mux2_1
*I *6169:A1 I *D sky130_fd_sc_hd__mux2_1
*I *6134:A1 I *D sky130_fd_sc_hd__mux2_1
*I *6187:A1 I *D sky130_fd_sc_hd__mux2_1
*I *6023:A1 I *D sky130_fd_sc_hd__mux2_1
*I *6205:A1 I *D sky130_fd_sc_hd__mux2_1
*I *5906:A1 I *D sky130_fd_sc_hd__mux2_1
*I *6661:X O *D sky130_fd_sc_hd__clkbuf_8
*CAP
1 *6288:A1 0
2 *6077:A1 0.00022771
3 *6306:A1 0
4 *6152:A1 0
5 *6097:A1 2.14194e-05
6 *6059:A1 0
7 *6041:A1 0
8 *6004:A1 0
9 *6116:A1 0.000119058
10 *6235:A1 0
11 *6169:A1 0
12 *6134:A1 0
13 *6187:A1 0.000345139
14 *6023:A1 0.000427619
15 *6205:A1 7.68064e-05
16 *5906:A1 0.00057528
17 *6661:X 4.44052e-05
18 *724:219 0.000162019
19 *724:206 0.000413264
20 *724:188 0.000815141
21 *724:179 0.000551828
22 *724:171 0.000731328
23 *724:164 0.000877915
24 *724:151 0.00101544
25 *724:143 0.000487142
26 *724:134 0.000268347
27 *724:124 0.000404897
28 *724:122 0.00173494
29 *724:120 0.00287965
30 *724:107 0.00219427
31 *724:68 0.000936173
32 *724:64 0.000944175
33 *724:47 0.00116021
34 *724:43 0.000802163
35 *724:41 0.000702779
36 *724:24 0.00086596
37 *724:22 0.00389941
38 *724:18 0.00658587
39 *724:16 0.00370437
40 *724:14 0.00139072
41 *724:12 0.00256366
42 *724:8 0.00121734
43 *5906:A1 *5906:A0 1.83486e-05
44 *724:41 *6235:A0 0.000223687
45 *724:43 *6235:A0 5.67058e-05
46 *724:47 *735:46 0.000274203
47 *724:64 *735:46 7.60509e-05
48 *724:107 *735:113 0.000292567
49 *724:107 *735:117 0
50 *724:120 *735:117 0
51 *724:120 *735:192 0
52 *724:122 *786:10 0.000138136
53 *724:134 *6004:A0 0.000140259
54 *724:134 *786:10 0
55 r_data[2] *724:12 2.45255e-05
56 r_data[2] *724:14 5.24542e-05
57 *5941:S *724:107 0.000161804
58 *5941:S *724:120 0.000678475
59 *6041:A0 *724:151 2.93845e-05
60 *6041:A0 *724:164 0.000237236
61 *6059:A0 *6077:A1 0.000313255
62 *6059:A0 *724:171 0.000480242
63 *6077:A0 *6077:A1 5.67058e-05
64 *6077:S *6077:A1 5.41385e-05
65 *6134:S *724:64 0.000272383
66 *6152:A0 *724:206 5.67058e-05
67 *6169:A0 *724:43 0.000620179
68 *6288:S *724:143 2.93845e-05
69 *6306:S *724:219 5.50106e-05
70 *6402:CLK *724:188 1.22822e-05
71 *6402:CLK *724:206 1.89493e-05
72 *6402:D *724:206 2.62078e-05
73 *6439:CLK *5906:A1 7.88926e-05
74 *6439:D *5906:A1 0.000165213
75 *6439:D *724:24 5.50106e-05
76 *6480:CLK *724:134 4.04206e-05
77 *6480:CLK *724:143 0.000351508
78 *6480:D *724:134 5.50106e-05
79 *6578:A *724:22 3.22879e-05
80 *6650:A *724:122 0
81 *17:21 *724:8 5.70419e-05
82 *44:8 *724:122 0
83 *52:8 *724:64 0
84 *83:8 *724:179 0.000138727
85 *107:10 *724:206 3.31683e-05
86 *144:8 *724:107 4.334e-05
87 *165:8 *724:134 0.000136486
88 *171:8 *724:122 0.000114083
89 *216:96 *5906:A1 5.50049e-05
90 *226:154 *724:43 0.00109318
91 *230:157 *724:120 0.000429611
92 *230:183 *724:120 0.00030179
93 *230:211 *724:164 0.000189173
94 *231:22 *724:179 0
95 *232:157 *724:151 6.75116e-05
96 *233:171 *724:164 0
97 *233:175 *724:164 0
98 *233:247 *724:164 0.000314157
99 *233:274 *724:206 4.58924e-05
100 *234:8 *724:164 0
101 *241:14 *724:41 0.000135557
102 *241:14 *724:107 0
103 *255:14 *6023:A1 0.00010018
104 *259:18 *724:164 0
105 *286:8 *724:120 0
106 *286:20 *724:64 0.000120867
107 *298:77 *724:122 0
108 *298:77 *724:134 4.6599e-05
109 *298:94 *724:122 0.000216847
110 *300:8 *724:122 2.5415e-05
111 *320:10 *724:151 7.15126e-05
112 *329:85 *724:164 0.000816662
113 *339:63 *724:151 2.98648e-05
114 *339:63 *724:164 0.00013173
115 *339:71 *6077:A1 5.12254e-05
116 *339:75 *724:206 0
117 *339:75 *724:219 7.461e-05
118 *340:10 *6077:A1 9.75779e-05
119 *351:111 *724:179 0.00014933
120 *352:10 *724:179 0.000409789
121 *352:10 *724:188 1.32314e-05
122 *358:8 *724:120 0
123 *362:67 *724:107 6.10346e-05
124 *372:42 *724:64 0.000813576
125 *373:8 *6187:A1 0
126 *373:8 *724:68 0
127 *383:10 *724:206 5.37348e-06
128 *401:99 *724:64 1.12487e-05
129 *401:99 *724:68 0
130 *428:121 *724:41 2.9938e-05
131 *428:121 *724:43 0.000169224
132 *428:134 *724:41 6.99492e-05
133 *429:10 *724:43 0.00010018
134 *460:78 *724:151 0.000420815
135 *460:80 *724:122 0
136 *467:10 *724:122 0.000166513
137 *482:42 *724:120 0
138 *497:27 *6116:A1 0.000136738
139 *504:31 *724:219 5.50106e-05
140 *510:14 *724:120 3.13549e-05
141 *528:26 *724:151 8.83309e-05
142 *537:8 *724:122 0.00014411
143 *544:10 *724:143 0.000125488
144 *550:10 *724:122 0
145 *560:14 *6187:A1 0
146 *560:14 *724:68 0
147 *568:23 *6023:A1 0.000355036
148 *569:12 *724:64 0
149 *576:27 *724:107 5.56203e-05
150 *592:12 *724:47 0
151 *592:12 *724:64 0
152 *608:12 *724:188 0.000180218
153 *608:12 *724:206 0.000109473
154 *625:122 *724:120 0
155 *625:122 *724:122 0
156 *640:6 *6205:A1 9.67842e-05
157 *652:12 *6187:A1 0.000150888
158 *666:10 *6097:A1 5.90675e-06
159 *666:10 *724:179 3.22879e-05
160 *666:10 *724:188 0.000431604
161 *678:8 *724:179 9.17497e-05
162 *687:6 *724:64 5.50049e-05
163 *700:27 *724:14 0.00281788
*RES
1 *6661:X *724:8 39.0979 
2 *724:8 *724:12 23.6454 
3 *724:12 *724:14 39.5954 
4 *724:14 *724:16 15 
5 *724:16 *724:18 63.2718 
6 *724:18 *724:22 49.2275 
7 *724:22 *724:24 1.57429 
8 *724:24 *5906:A1 31.265 
9 *724:24 *724:41 34.4329 
10 *724:41 *724:43 16.82 
11 *724:43 *724:47 22.1879 
12 *724:47 *6205:A1 39.0979 
13 *724:47 *724:64 33.56 
14 *724:64 *724:68 17.2579 
15 *724:68 *6023:A1 46.7414 
16 *724:68 *6187:A1 43.7793 
17 *724:64 *6134:A1 23 
18 *724:43 *6169:A1 23 
19 *724:41 *6235:A1 23 
20 *724:22 *724:107 31.6957 
21 *724:107 *6116:A1 39.5743 
22 *724:107 *724:120 24.4325 
23 *724:120 *724:122 36.3432 
24 *724:122 *724:124 15 
25 *724:124 *724:134 35.4064 
26 *724:134 *6004:A1 23 
27 *724:124 *724:143 4.45357 
28 *724:143 *724:151 38.3064 
29 *724:151 *6041:A1 23 
30 *724:151 *724:164 48.8293 
31 *724:164 *6059:A1 23 
32 *724:164 *724:171 5.38571 
33 *724:171 *724:179 39.2179 
34 *724:179 *6097:A1 23.4971 
35 *724:179 *724:188 5.86214 
36 *724:188 *724:206 39.0729 
37 *724:206 *6152:A1 23 
38 *724:188 *724:219 32.8793 
39 *724:219 *6306:A1 23 
40 *724:171 *6077:A1 29.3386 
41 *724:143 *6288:A1 23 
*END

*D_NET *725 0.00109102
*CONN
*I *6209:A0 I *D sky130_fd_sc_hd__mux2_1
*I *6529:X O *D sky130_fd_sc_hd__dlygate4sd3_1
*CAP
1 *6209:A0 0
2 *6529:X 0.000344607
3 *725:12 0.000344607
4 *219:10 *725:12 5.67058e-05
5 *229:35 *725:12 0.000213974
6 *411:26 *725:12 4.08537e-05
7 *479:51 *725:12 6.17437e-06
8 *487:10 *725:12 0
9 *487:25 *725:12 0
10 *680:10 *725:12 8.41012e-05
*RES
1 *6529:X *725:12 45.6643 
2 *725:12 *6209:A0 38 
*END

*D_NET *726 0.00118647
*CONN
*I *6033:A0 I *D sky130_fd_sc_hd__mux2_1
*I *6540:X O *D sky130_fd_sc_hd__dlygate4sd3_1
*CAP
1 *6033:A0 0.000378036
2 *6540:X 6.87722e-05
3 *726:8 0.000446809
4 *6033:A0 *779:141 5.67058e-05
5 *6033:A0 *779:156 0.000182826
6 *726:8 *768:42 2.5415e-05
7 *270:10 *726:8 0
8 *401:83 *6033:A0 2.79045e-05
*RES
1 *6540:X *726:8 39.2014 
2 *726:8 *6033:A0 43.3857 
*END

*D_NET *727 0.00100748
*CONN
*I *6120:A0 I *D sky130_fd_sc_hd__mux2_1
*I *6551:X O *D sky130_fd_sc_hd__dlygate4sd3_1
*CAP
1 *6120:A0 0
2 *6551:X 0.000350807
3 *727:10 0.000350807
4 *6551:A *727:10 6.17437e-06
5 *254:10 *727:10 0.000161814
6 *362:109 *727:10 0.000114092
7 *498:8 *727:10 2.37883e-05
*RES
1 *6551:X *727:10 43.7379 
2 *727:10 *6120:A0 38 
*END

*D_NET *728 0.00136739
*CONN
*I *6029:A0 I *D sky130_fd_sc_hd__mux2_1
*I *6560:X O *D sky130_fd_sc_hd__dlygate4sd3_1
*CAP
1 *6029:A0 0
2 *6560:X 0.000449305
3 *728:6 0.000449305
4 *728:6 *6029:A1 5.67058e-05
5 *6029:S *728:6 2.4754e-05
6 *6338:CLK *728:6 0.000387324
*RES
1 *6560:X *728:6 32.1971 
2 *728:6 *6029:A0 23 
*END

*D_NET *729 0.00119437
*CONN
*I *5912:A0 I *D sky130_fd_sc_hd__mux2_1
*I *6561:X O *D sky130_fd_sc_hd__dlygate4sd3_1
*CAP
1 *5912:A0 0
2 *6561:X 0.000572353
3 *729:6 0.000572353
4 *216:141 *729:6 4.9662e-05
*RES
1 *6561:X *729:6 31.2443 
2 *729:6 *5912:A0 23 
*END

*D_NET *730 0.000829755
*CONN
*I *6239:A0 I *D sky130_fd_sc_hd__mux2_1
*I *6562:X O *D sky130_fd_sc_hd__dlygate4sd3_1
*CAP
1 *6239:A0 0.000185051
2 *6562:X 5.43334e-05
3 *730:8 0.000239385
4 *6239:A0 *746:99 0.000228001
5 *6239:A0 *746:109 5.67058e-05
6 *428:52 *730:8 2.5415e-05
7 *489:53 *730:8 4.08641e-05
*RES
1 *6562:X *730:8 39.2014 
2 *730:8 *6239:A0 41.0036 
*END

*D_NET *731 0.00158197
*CONN
*I *5920:A0 I *D sky130_fd_sc_hd__mux2_1
*I *6563:X O *D sky130_fd_sc_hd__dlygate4sd3_1
*CAP
1 *5920:A0 0.00022983
2 *6563:X 0.000130248
3 *731:8 0.000360078
4 *216:44 *5920:A0 0.000195293
5 *224:10 *5920:A0 3.7122e-06
6 *226:85 *731:8 5.26101e-05
7 *226:93 *731:8 5.86165e-05
8 *607:25 *5920:A0 0.000224605
9 *636:117 *731:8 0.000326973
*RES
1 *6563:X *731:8 42.3707 
2 *731:8 *5920:A0 43.3857 
*END

*D_NET *732 0.00108323
*CONN
*I *6140:A0 I *D sky130_fd_sc_hd__mux2_1
*I *6564:X O *D sky130_fd_sc_hd__dlygate4sd3_1
*CAP
1 *6140:A0 0
2 *6564:X 0.000164057
3 *732:6 0.000164057
4 *732:6 *757:83 0.000486246
5 *6564:A *732:6 0.000268873
*RES
1 *6564:X *732:6 28.8621 
2 *732:6 *6140:A0 23 
*END

*D_NET *733 0.00102368
*CONN
*I *6191:A0 I *D sky130_fd_sc_hd__mux2_1
*I *6565:X O *D sky130_fd_sc_hd__dlygate4sd3_1
*CAP
1 *6191:A0 0
2 *6565:X 0.000186889
3 *733:6 0.000186889
4 *733:6 *746:64 0.000254456
5 *733:6 *746:85 2.64616e-05
6 *6191:S *733:6 4.67488e-05
7 *498:24 *733:6 0.000322232
*RES
1 *6565:X *733:6 28.8621 
2 *733:6 *6191:A0 23 
*END

*D_NET *734 0.00182503
*CONN
*I *5906:A0 I *D sky130_fd_sc_hd__mux2_1
*I *6567:X O *D sky130_fd_sc_hd__dlygate4sd3_1
*CAP
1 *5906:A0 0.000631337
2 *6567:X 4.2377e-05
3 *734:8 0.000673713
4 *5906:A1 *5906:A0 1.83486e-05
5 *5907:A *5906:A0 0
6 *6439:CLK *5906:A0 5.47927e-05
7 *6439:D *5906:A0 0.000119786
8 *144:8 *734:8 8.62876e-05
9 *216:96 *5906:A0 4.74774e-05
10 *241:14 *734:8 8.4047e-05
11 *600:23 *5906:A0 6.68617e-05
*RES
1 *6567:X *734:8 39.2014 
2 *734:8 *5906:A0 47.4457 
*END

*D_NET *735 0.0431381
*CONN
*I *6118:A1 I *D sky130_fd_sc_hd__mux2_1
*I *6043:A1 I *D sky130_fd_sc_hd__mux2_1
*I *6290:A1 I *D sky130_fd_sc_hd__mux2_1
*I *6006:A1 I *D sky130_fd_sc_hd__mux2_1
*I *6099:A1 I *D sky130_fd_sc_hd__mux2_1
*I *6308:A1 I *D sky130_fd_sc_hd__mux2_1
*I *6079:A1 I *D sky130_fd_sc_hd__mux2_1
*I *6061:A1 I *D sky130_fd_sc_hd__mux2_1
*I *6154:A1 I *D sky130_fd_sc_hd__mux2_1
*I *6237:A1 I *D sky130_fd_sc_hd__mux2_1
*I *5908:A1 I *D sky130_fd_sc_hd__mux2_1
*I *6025:A1 I *D sky130_fd_sc_hd__mux2_1
*I *6189:A1 I *D sky130_fd_sc_hd__mux2_1
*I *6136:A1 I *D sky130_fd_sc_hd__mux2_1
*I *6171:A1 I *D sky130_fd_sc_hd__mux2_1
*I *6207:A1 I *D sky130_fd_sc_hd__mux2_1
*I *6662:X O *D sky130_fd_sc_hd__buf_4
*CAP
1 *6118:A1 0
2 *6043:A1 0.000478436
3 *6290:A1 0
4 *6006:A1 0
5 *6099:A1 0
6 *6308:A1 0
7 *6079:A1 0
8 *6061:A1 0
9 *6154:A1 0.000218111
10 *6237:A1 0
11 *5908:A1 0
12 *6025:A1 0.000530064
13 *6189:A1 3.6708e-05
14 *6136:A1 0
15 *6171:A1 2.42821e-05
16 *6207:A1 0
17 *6662:X 0.000858499
18 *735:207 0.000615198
19 *735:192 0.000625246
20 *735:170 0.000516089
21 *735:162 0.00178603
22 *735:135 0.00148805
23 *735:133 0.000642322
24 *735:129 0.00154919
25 *735:117 0.00232162
26 *735:113 0.00143424
27 *735:105 0.00124251
28 *735:92 0.00175705
29 *735:81 0.00142532
30 *735:57 0.000833268
31 *735:46 0.000990283
32 *735:35 0.00101118
33 *735:27 0.000933595
34 *735:20 0.000609675
35 *735:18 0.00138011
36 *735:12 0.00197832
37 *735:6 0.00179871
38 *6154:A1 *754:6 3.22879e-05
39 *735:133 *752:14 2.93747e-05
40 *5943:A3 *735:162 5.89925e-05
41 *6099:A0 *735:129 5.67058e-05
42 *6099:A0 *735:133 1.72202e-05
43 *6118:S *735:105 5.50106e-05
44 *6290:A0 *6043:A1 5.3304e-05
45 *6308:S *735:133 0.000262097
46 *6328:CLK *735:20 0.000703618
47 *6328:CLK *735:27 0.000185428
48 *6371:D *735:162 5.92579e-05
49 *6411:D *735:27 0.000233156
50 *6411:D *735:81 0.000185434
51 *6440:D *735:92 5.16606e-05
52 *115:10 *735:46 0
53 *116:8 *735:35 0
54 *132:10 *735:35 0
55 *145:8 *735:92 0
56 *216:60 *735:18 5.08899e-05
57 *223:10 *735:18 8.62876e-05
58 *227:14 *735:105 0
59 *230:140 *735:117 0
60 *232:192 *735:170 0.000259974
61 *233:274 *735:162 0.000326799
62 *241:14 *735:92 1.14452e-05
63 *241:14 *735:105 0.00119371
64 *243:14 *735:129 2.33476e-05
65 *284:16 *735:117 3.54658e-05
66 *284:16 *735:192 3.99495e-05
67 *286:8 *735:117 0.000782781
68 *295:30 *735:105 0.000178517
69 *311:10 *6025:A1 0.000315857
70 *339:81 *735:162 2.81066e-05
71 *351:119 *735:170 0.000336358
72 *351:133 *735:129 0.00106501
73 *351:133 *735:192 0.000167954
74 *353:10 *735:129 9.8971e-06
75 *358:8 *735:117 0
76 *358:8 *735:192 0
77 *362:61 *735:105 0.000137651
78 *362:67 *735:113 0.000291646
79 *372:42 *735:46 6.07611e-06
80 *372:42 *735:57 0.000303927
81 *382:80 *735:162 0
82 *391:73 *6171:A1 1.41077e-05
83 *391:79 *735:35 2.22079e-05
84 *391:79 *735:46 0.000123977
85 *393:10 *6171:A1 9.84851e-05
86 *411:109 *735:46 0.000191166
87 *411:109 *735:57 0.000620197
88 *411:143 *735:18 0
89 *413:14 *735:27 2.75145e-05
90 *413:14 *735:35 3.62745e-05
91 *428:134 *735:92 3.72639e-05
92 *429:10 *735:105 0
93 *430:10 *735:105 0
94 *470:34 *735:129 2.24903e-05
95 *470:52 *735:133 0.000447976
96 *472:10 *735:162 2.68708e-05
97 *481:68 *735:92 2.4754e-05
98 *482:59 *735:192 0.000428157
99 *482:76 *735:117 0.000354769
100 *494:18 *735:46 0
101 *494:20 *735:46 0
102 *494:22 *735:35 0
103 *494:22 *735:46 0
104 *497:19 *735:117 0.000314076
105 *497:27 *6025:A1 0.000225863
106 *505:23 *735:162 0.000111134
107 *513:10 *735:162 0.000192022
108 *529:10 *735:170 0.000108681
109 *537:12 *6043:A1 0.00012189
110 *537:29 *6043:A1 0.000509572
111 *569:12 *6025:A1 0.000141954
112 *577:8 *735:92 0
113 *584:10 *735:105 0
114 *585:20 *735:81 2.4754e-05
115 *609:28 *6154:A1 3.98818e-05
116 *609:28 *735:162 0
117 *622:8 *735:129 2.11157e-05
118 *622:30 *735:192 7.86449e-05
119 *625:10 *735:12 0.00056043
120 *625:10 *735:18 0.000976405
121 *625:32 *735:18 2.60152e-05
122 *625:122 *735:192 0.000394646
123 *625:122 *735:207 5.41614e-05
124 *625:179 *735:192 0.000114092
125 *628:6 *6171:A1 5.67058e-05
126 *648:6 *6025:A1 0.000257724
127 *648:6 *6189:A1 5.3304e-05
128 *649:10 *735:192 0.000110024
129 *649:10 *735:207 0.000140348
130 *686:8 *735:117 8.51432e-05
131 *720:6 *735:81 5.67058e-05
132 *720:6 *735:92 0.00052451
133 *724:47 *735:46 0.000274203
134 *724:64 *735:46 7.60509e-05
135 *724:107 *735:113 0.000292567
136 *724:107 *735:117 0
137 *724:120 *735:117 0
138 *724:120 *735:192 0
*RES
1 *6662:X *735:6 38.8671 
2 *735:6 *735:12 38.6454 
3 *735:12 *735:18 42.4154 
4 *735:18 *735:20 7.76786 
5 *735:20 *6207:A1 23 
6 *735:20 *735:27 5.86214 
7 *735:27 *735:35 20.2614 
8 *735:35 *6171:A1 39.0979 
9 *735:35 *735:46 16.3436 
10 *735:46 *6136:A1 38 
11 *735:46 *735:57 23.5964 
12 *735:57 *6189:A1 23.6214 
13 *735:57 *6025:A1 36.6507 
14 *735:27 *735:81 7.45714 
15 *735:81 *5908:A1 23 
16 *735:81 *735:92 31.3021 
17 *735:92 *6237:A1 38 
18 *735:92 *735:105 33.0421 
19 *735:105 *735:113 38.9279 
20 *735:113 *735:117 36.4496 
21 *735:117 *735:129 37.699 
22 *735:129 *735:133 10.6471 
23 *735:133 *735:135 15 
24 *735:135 *6154:A1 41.2521 
25 *735:135 *735:162 36.1907 
26 *735:162 *735:170 43.3607 
27 *735:170 *6061:A1 23 
28 *735:162 *6079:A1 23 
29 *735:133 *6308:A1 23 
30 *735:129 *6099:A1 23 
31 *735:117 *735:192 14.4068 
32 *735:192 *6006:A1 38 
33 *735:192 *735:207 18.0243 
34 *735:207 *6290:A1 23 
35 *735:207 *6043:A1 31.8864 
36 *735:105 *6118:A1 23 
*END

*D_NET *736 0.00219525
*CONN
*I *6118:A0 I *D sky130_fd_sc_hd__mux2_1
*I *6568:X O *D sky130_fd_sc_hd__dlygate4sd3_1
*CAP
1 *6118:A0 0.000579766
2 *6568:X 7.99533e-05
3 *736:8 0.000659719
4 *658:10 *6118:A0 0.00087581
*RES
1 *6568:X *736:8 39.2014 
2 *736:8 *6118:A0 47.6736 
*END

*D_NET *737 0.00157331
*CONN
*I *6201:A0 I *D sky130_fd_sc_hd__mux2_1
*I *6569:X O *D sky130_fd_sc_hd__dlygate4sd3_1
*CAP
1 *6201:A0 0.000352966
2 *6569:X 0.00022452
3 *737:8 0.000577486
4 *737:8 *790:33 0.000110922
5 *6201:A1 *6201:A0 7.97157e-05
6 *226:83 *6201:A0 0.000135037
7 *226:279 *737:8 0
8 *232:12 *737:8 4.91627e-05
9 *401:36 *6201:A0 2.81406e-06
10 *503:16 *6201:A0 4.06849e-05
11 *559:10 *737:8 0
*RES
1 *6569:X *737:8 42.0186 
2 *737:8 *6201:A0 42.9093 
*END

*D_NET *738 0.000888766
*CONN
*I *6318:A0 I *D sky130_fd_sc_hd__mux2_1
*I *6570:X O *D sky130_fd_sc_hd__dlygate4sd3_1
*CAP
1 *6318:A0 0.000208734
2 *6570:X 4.50246e-05
3 *738:8 0.000253759
4 *243:14 *738:8 8.62876e-05
5 *622:12 *6318:A0 9.84851e-05
6 *622:30 *6318:A0 0.000100607
7 *622:45 *738:8 4.08641e-05
8 *625:186 *6318:A0 5.50049e-05
*RES
1 *6570:X *738:8 39.2014 
2 *738:8 *6318:A0 41.0036 
*END

*D_NET *739 0.00102357
*CONN
*I *6014:A0 I *D sky130_fd_sc_hd__mux2_1
*I *6571:X O *D sky130_fd_sc_hd__dlygate4sd3_1
*CAP
1 *6014:A0 0
2 *6571:X 0.000121757
3 *739:6 0.000121757
4 *739:6 *6014:A1 0.000488848
5 *329:29 *739:6 0.000291211
*RES
1 *6571:X *739:6 28.8621 
2 *739:6 *6014:A0 23 
*END

*D_NET *740 0.00147637
*CONN
*I *6197:A0 I *D sky130_fd_sc_hd__mux2_1
*I *6572:X O *D sky130_fd_sc_hd__dlygate4sd3_1
*CAP
1 *6197:A0 0.000162273
2 *6572:X 0.00026163
3 *740:10 0.000423904
4 *6197:A0 *779:134 5.67058e-05
5 *6197:A0 *779:141 0.000182826
6 *6572:A *740:10 0.000114656
7 *56:8 *740:10 7.75329e-06
8 *232:69 *740:10 0
9 *382:24 *740:10 0.00014196
10 *557:18 *740:10 8.62876e-05
11 *573:18 *740:10 3.83778e-05
*RES
1 *6572:X *740:10 43.5929 
2 *740:10 *6197:A0 40.5271 
*END

*D_NET *741 0.00240008
*CONN
*I *6195:A0 I *D sky130_fd_sc_hd__mux2_1
*I *6573:X O *D sky130_fd_sc_hd__dlygate4sd3_1
*CAP
1 *6195:A0 0.000497166
2 *6573:X 0.000244172
3 *741:10 0.000741338
4 *6195:A0 *768:79 5.50049e-05
5 *5967:A1 *6195:A0 1.10105e-05
6 *5967:A3 *741:10 8.4047e-05
7 *6573:A *741:10 1.01436e-05
8 *295:14 *6195:A0 0.000361545
9 *295:28 *741:10 0.000268868
10 *500:28 *6195:A0 4.27353e-05
11 *564:27 *741:10 8.4047e-05
*RES
1 *6573:X *741:10 42.205 
2 *741:10 *6195:A0 46.41 
*END

*D_NET *742 0.00136142
*CONN
*I *6164:A0 I *D sky130_fd_sc_hd__mux2_1
*I *6574:X O *D sky130_fd_sc_hd__dlygate4sd3_1
*CAP
1 *6164:A0 0
2 *6574:X 0.00016554
3 *742:6 0.00016554
4 *6574:A *742:6 0.000139352
5 *231:12 *742:6 8.71938e-05
6 *382:96 *742:6 0.000803793
*RES
1 *6574:X *742:6 30.7679 
2 *742:6 *6164:A0 23 
*END

*D_NET *743 0.000840533
*CONN
*I *6316:A0 I *D sky130_fd_sc_hd__mux2_1
*I *6575:X O *D sky130_fd_sc_hd__dlygate4sd3_1
*CAP
1 *6316:A0 0
2 *6575:X 0.000274589
3 *743:6 0.000274589
4 *470:100 *743:6 7.44257e-05
5 *470:109 *743:6 0.00021693
*RES
1 *6575:X *743:6 28.8621 
2 *743:6 *6316:A0 23 
*END

*D_NET *744 0.00126106
*CONN
*I *6101:A0 I *D sky130_fd_sc_hd__mux2_1
*I *6576:X O *D sky130_fd_sc_hd__dlygate4sd3_1
*CAP
1 *6101:A0 0.000325661
2 *6576:X 0.000115832
3 *744:8 0.000441493
4 *6101:A0 *746:31 0.000308946
5 *744:8 *757:50 1.17444e-05
6 *744:8 *757:56 0
7 *5952:A2 *6101:A0 7.44161e-06
8 *232:118 *744:8 0
9 *351:79 *6101:A0 1.76557e-05
10 *618:22 *6101:A0 3.22879e-05
*RES
1 *6576:X *744:8 39.9057 
2 *744:8 *6101:A0 42.9093 
*END

*D_NET *745 0.00178161
*CONN
*I *6235:A0 I *D sky130_fd_sc_hd__mux2_1
*I *6578:X O *D sky130_fd_sc_hd__dlygate4sd3_1
*CAP
1 *6235:A0 0.000670656
2 *6578:X 7.99533e-05
3 *745:8 0.00075061
4 *724:41 *6235:A0 0.000223687
5 *724:43 *6235:A0 5.67058e-05
*RES
1 *6578:X *745:8 39.2014 
2 *745:8 *6235:A0 47.1971 
*END

*D_NET *746 0.051196
*CONN
*I *6045:A1 I *D sky130_fd_sc_hd__mux2_1
*I *6063:A1 I *D sky130_fd_sc_hd__mux2_1
*I *6292:A1 I *D sky130_fd_sc_hd__mux2_1
*I *6008:A1 I *D sky130_fd_sc_hd__mux2_1
*I *6310:A1 I *D sky130_fd_sc_hd__mux2_1
*I *6156:A1 I *D sky130_fd_sc_hd__mux2_1
*I *6081:A1 I *D sky130_fd_sc_hd__mux2_1
*I *6191:A1 I *D sky130_fd_sc_hd__mux2_1
*I *6138:A1 I *D sky130_fd_sc_hd__mux2_1
*I *6239:A1 I *D sky130_fd_sc_hd__mux2_1
*I *5910:A1 I *D sky130_fd_sc_hd__mux2_1
*I *6209:A1 I *D sky130_fd_sc_hd__mux2_1
*I *6173:A1 I *D sky130_fd_sc_hd__mux2_1
*I *6027:A1 I *D sky130_fd_sc_hd__mux2_1
*I *6120:A1 I *D sky130_fd_sc_hd__mux2_1
*I *6101:A1 I *D sky130_fd_sc_hd__mux2_1
*I *6663:X O *D sky130_fd_sc_hd__buf_4
*CAP
1 *6045:A1 0
2 *6063:A1 0.000236867
3 *6292:A1 0
4 *6008:A1 1.50079e-05
5 *6310:A1 0.000577574
6 *6156:A1 0.000292982
7 *6081:A1 0
8 *6191:A1 0
9 *6138:A1 3.19725e-05
10 *6239:A1 0
11 *5910:A1 0
12 *6209:A1 0
13 *6173:A1 0
14 *6027:A1 0
15 *6120:A1 0.000513358
16 *6101:A1 0
17 *6663:X 0
18 *746:227 0.000640959
19 *746:205 0.000236867
20 *746:145 0.000271532
21 *746:127 0.00067228
22 *746:117 0.00125035
23 *746:109 0.00131155
24 *746:99 0.00252533
25 *746:93 0.00266624
26 *746:85 0.00112063
27 *746:72 0.000291059
28 *746:64 0.00140573
29 *746:45 0.00278385
30 *746:43 0.00171042
31 *746:37 0.000214671
32 *746:31 0.000820686
33 *746:20 0.000793595
34 *746:16 0.0010406
35 *746:14 0.000558214
36 *746:12 0.000790795
37 *746:10 0.00394991
38 *746:8 0.0030101
39 *746:6 0.00341324
40 *746:4 0.00341324
41 *6008:A1 *6008:A0 5.50049e-05
42 *6063:A1 *6292:A0 0.000528025
43 *6063:A1 *759:6 5.67058e-05
44 *6063:A1 *779:12 0.000317629
45 *6138:A1 *771:6 5.56356e-05
46 *6310:A1 *6008:A0 0.000315857
47 *6310:A1 *781:6 5.50049e-05
48 *746:14 *773:10 0
49 *746:20 *757:50 0
50 *746:31 *757:56 0.000143425
51 *746:45 *757:97 0
52 *746:85 *771:6 0.000528976
53 *746:93 *768:42 5.89907e-05
54 *746:93 *768:44 0
55 *746:145 *753:6 9.84794e-05
56 *5952:A2 *746:31 6.343e-05
57 *5952:A3 *746:31 0
58 *5952:S0 *746:31 0
59 *5957:S1 *746:45 7.65564e-05
60 *6027:A0 *746:72 5.50049e-05
61 *6028:A *6120:A1 0
62 *6045:A0 *746:227 5.82853e-05
63 *6101:A0 *746:31 0.000308946
64 *6121:A *6120:A1 2.21565e-05
65 *6122:S *746:45 0
66 *6138:S *6138:A1 5.56356e-05
67 *6138:S *746:85 4.00259e-06
68 *6139:A *746:85 1.37232e-05
69 *6139:A *746:93 5.67058e-05
70 *6156:A0 *6156:A1 2.30292e-05
71 *6173:A0 *746:127 1.6158e-05
72 *6191:S *746:85 8.06804e-06
73 *6239:A0 *746:99 0.000228001
74 *6239:A0 *746:109 5.67058e-05
75 *6356:CLK *746:227 0.000154612
76 *6356:D *746:227 0.00019422
77 *6364:CLK *746:14 0
78 *6388:CLK *746:72 8.2832e-05
79 *6412:CLK *746:117 0
80 *6424:D *746:99 5.92579e-05
81 *6428:CLK *746:127 0.000137188
82 *6428:D *746:127 5.92579e-05
83 *6441:CLK *746:117 1.94812e-05
84 *6441:D *746:109 0.000249519
85 *6441:D *746:117 0.000143599
86 *6490:CLK *746:20 0
87 *6501:A *746:31 2.55642e-05
88 *6501:A *746:37 0.000196549
89 *6538:A *746:31 0
90 *6538:A *746:37 0
91 *6562:A *746:109 0.000181934
92 *6576:A *746:20 4.90891e-05
93 *6585:A *746:145 0.00010403
94 *6604:A *746:93 2.07357e-05
95 *3:11 *746:6 0.00010018
96 *167:8 *746:12 0
97 *216:14 *746:109 0.000117765
98 *216:27 *746:145 0.000139647
99 *225:12 *746:145 0
100 *226:219 *6120:A1 0
101 *226:219 *746:45 0
102 *226:240 *746:45 4.76829e-05
103 *226:244 *746:45 0.00059785
104 *226:279 *746:109 0.000167443
105 *230:66 *746:93 0
106 *254:10 *746:45 0
107 *298:67 *6310:A1 0.000213941
108 *301:10 *746:14 0
109 *319:84 *746:227 0.000173264
110 *329:62 *6008:A1 5.50049e-05
111 *329:70 *6063:A1 7.13587e-05
112 *339:50 *746:45 9.39159e-05
113 *339:61 *746:37 0
114 *339:63 *6156:A1 0.000190672
115 *351:79 *746:31 5.70419e-05
116 *351:99 *746:31 7.43025e-06
117 *362:109 *6120:A1 9.58714e-05
118 *362:109 *746:45 0
119 *366:10 *746:45 6.93553e-05
120 *382:49 *746:37 0.00014196
121 *382:49 *746:43 6.68919e-05
122 *385:8 *6156:A1 0.000228001
123 *401:93 *746:72 7.86084e-05
124 *404:10 *746:85 0.000317553
125 *411:20 *746:117 4.58259e-05
126 *411:20 *746:145 0.000123006
127 *411:26 *746:117 2.54193e-05
128 *411:26 *746:127 3.70553e-06
129 *411:109 *746:72 0.000443553
130 *428:65 *746:99 0.000120867
131 *431:10 *746:109 1.85916e-05
132 *432:8 *746:45 9.92573e-05
133 *460:66 *746:12 0.000167548
134 *460:66 *746:14 1.83564e-05
135 *460:76 *6063:A1 0.00035556
136 *480:89 *746:117 0.000101003
137 *483:8 *746:43 0
138 *483:53 *746:37 2.93747e-05
139 *483:53 *746:45 0
140 *483:63 *746:45 0
141 *484:6 *6156:A1 0.000153155
142 *484:34 *746:14 0
143 *484:34 *746:16 0
144 *484:34 *746:20 0
145 *487:25 *746:127 0
146 *489:40 *746:99 0.000653227
147 *489:53 *746:99 0.000305335
148 *489:75 *746:99 0.000172415
149 *495:88 *746:72 0.000265999
150 *498:8 *6120:A1 0
151 *498:24 *746:64 0.000130353
152 *498:24 *746:85 7.0626e-06
153 *499:10 *746:45 0
154 *530:16 *746:14 0
155 *530:16 *746:227 7.1529e-05
156 *538:12 *746:14 4.83778e-05
157 *555:27 *746:45 0
158 *562:25 *746:72 0.000268074
159 *574:10 *746:99 6.19043e-05
160 *578:10 *746:109 0.000223034
161 *587:14 *746:45 8.4047e-05
162 *587:27 *746:45 0
163 *595:31 *746:45 3.17768e-05
164 *610:12 *746:31 4.13358e-05
165 *624:8 *746:6 0.00202983
166 *625:82 *746:93 8.4047e-05
167 *677:6 *746:37 2.4754e-05
168 *677:6 *746:43 0.000139352
169 *680:10 *746:127 3.83778e-05
170 *733:6 *746:64 0.000254456
171 *733:6 *746:85 2.64616e-05
*RES
1 *6663:X *746:4 23 
2 *746:4 *746:6 69.7036 
3 *746:6 *746:8 15 
4 *746:8 *746:10 58.6007 
5 *746:10 *746:12 5.77929 
6 *746:12 *746:14 8.59643 
7 *746:14 *746:16 0.849286 
8 *746:16 *746:20 22.54 
9 *746:20 *6101:A1 23 
10 *746:20 *746:31 24.9636 
11 *746:31 *746:37 19.1843 
12 *746:37 *746:43 17.0714 
13 *746:43 *746:45 35.7114 
14 *746:45 *6120:A1 46.3893 
15 *746:45 *746:64 24.1971 
16 *746:64 *746:72 39.135 
17 *746:72 *6027:A1 23 
18 *746:64 *746:85 11.165 
19 *746:85 *746:93 40.585 
20 *746:93 *746:99 31.2786 
21 *746:99 *746:109 40.005 
22 *746:109 *746:117 9.38357 
23 *746:117 *746:127 39.1143 
24 *746:127 *6173:A1 23 
25 *746:117 *6209:A1 23 
26 *746:109 *746:145 35.8207 
27 *746:145 *5910:A1 23 
28 *746:99 *6239:A1 23 
29 *746:85 *6138:A1 24.0979 
30 *746:64 *6191:A1 23 
31 *746:37 *6081:A1 23 
32 *746:31 *6156:A1 46.2443 
33 *746:16 *6310:A1 49.2686 
34 *746:14 *6008:A1 38.6214 
35 *746:12 *746:205 15 
36 *746:205 *6292:A1 23 
37 *746:205 *6063:A1 33.7921 
38 *746:10 *746:227 28.5057 
39 *746:227 *6045:A1 23 
*END

*D_NET *747 0.00290916
*CONN
*I *6025:A0 I *D sky130_fd_sc_hd__mux2_1
*I *6579:X O *D sky130_fd_sc_hd__dlygate4sd3_1
*CAP
1 *6025:A0 0
2 *6579:X 0.00100275
3 *747:12 5.2996e-05
4 *747:6 0.00105575
5 *5940:A3 *747:6 5.37348e-06
6 *225:149 *747:12 2.79004e-05
7 *226:183 *747:12 2.5415e-05
8 *239:180 *747:6 3.68634e-05
9 *239:184 *747:6 8.26171e-05
10 *553:31 *747:6 0.000608851
11 *561:25 *747:6 1.06415e-05
*RES
1 *6579:X *747:6 37.4379 
2 *747:6 *747:12 31.2014 
3 *747:12 *6025:A0 23 
*END

*D_NET *748 0.00119058
*CONN
*I *6107:A0 I *D sky130_fd_sc_hd__mux2_1
*I *6580:X O *D sky130_fd_sc_hd__dlygate4sd3_1
*CAP
1 *6107:A0 0
2 *6580:X 0.000170637
3 *748:6 0.000170637
4 *748:6 *6107:A1 0.000483643
5 *6107:S *748:6 5.50106e-05
6 *509:27 *748:6 0.000310653
*RES
1 *6580:X *748:6 28.8621 
2 *748:6 *6107:A0 23 
*END

*D_NET *749 0.00128578
*CONN
*I *6219:A0 I *D sky130_fd_sc_hd__mux2_1
*I *6581:X O *D sky130_fd_sc_hd__dlygate4sd3_1
*CAP
1 *6219:A0 0
2 *6581:X 0.000555369
3 *749:10 0.000555369
4 *391:45 *749:10 0
5 *391:47 *749:10 0.000120042
6 *599:16 *749:10 5.50049e-05
*RES
1 *6581:X *749:10 46.0164 
2 *749:10 *6219:A0 38 
*END

*D_NET *750 0.00134929
*CONN
*I *6175:A0 I *D sky130_fd_sc_hd__mux2_1
*I *6582:X O *D sky130_fd_sc_hd__dlygate4sd3_1
*CAP
1 *6175:A0 0.00012993
2 *6582:X 0.000425001
3 *750:10 0.000554931
4 *6175:A0 *6211:A0 5.50049e-05
5 *6175:A0 *757:110 7.27182e-05
6 *30:8 *750:10 2.5415e-05
7 *309:82 *750:10 0
8 *401:87 *750:10 0
9 *603:12 *750:10 8.62876e-05
*RES
1 *6582:X *750:10 44.5457 
2 *750:10 *6175:A0 40.0507 
*END

*D_NET *751 0.00133569
*CONN
*I *6055:A0 I *D sky130_fd_sc_hd__mux2_1
*I *6583:X O *D sky130_fd_sc_hd__dlygate4sd3_1
*CAP
1 *6055:A0 0.000249422
2 *6583:X 0.000186135
3 *751:8 0.000435557
4 *6583:A *751:8 0
5 *48:8 *751:8 6.53445e-05
6 *329:29 *751:8 0
7 *460:31 *6055:A0 0.000355822
8 *493:27 *751:8 4.3407e-05
*RES
1 *6583:X *751:8 42.0186 
2 *751:8 *6055:A0 41.9564 
*END

*D_NET *752 0.00164117
*CONN
*I *6308:A0 I *D sky130_fd_sc_hd__mux2_1
*I *6584:X O *D sky130_fd_sc_hd__dlygate4sd3_1
*CAP
1 *6308:A0 0
2 *6584:X 8.17907e-05
3 *752:14 0.000675317
4 *752:8 0.000757107
5 *6308:S *752:14 9.75779e-05
6 *239:219 *752:8 0
7 *735:133 *752:14 2.93747e-05
*RES
1 *6584:X *752:8 39.2014 
2 *752:8 *752:14 27.3043 
3 *752:14 *6308:A0 23 
*END

*D_NET *753 0.00110592
*CONN
*I *5910:A0 I *D sky130_fd_sc_hd__mux2_1
*I *6585:X O *D sky130_fd_sc_hd__dlygate4sd3_1
*CAP
1 *5910:A0 0
2 *6585:X 0.000257982
3 *753:6 0.000257982
4 *229:35 *753:6 0.000491478
5 *746:145 *753:6 9.84794e-05
*RES
1 *6585:X *753:6 28.8621 
2 *753:6 *5910:A0 23 
*END

*D_NET *754 0.000787738
*CONN
*I *6154:A0 I *D sky130_fd_sc_hd__mux2_1
*I *6586:X O *D sky130_fd_sc_hd__dlygate4sd3_1
*CAP
1 *6154:A0 0
2 *6586:X 0.000314904
3 *754:6 0.000314904
4 *6154:A1 *754:6 3.22879e-05
5 *6586:A *754:6 9.62666e-05
6 *609:28 *754:6 2.93747e-05
*RES
1 *6586:X *754:6 28.8621 
2 *754:6 *6154:A0 23 
*END

*D_NET *755 0.00174129
*CONN
*I *6146:A0 I *D sky130_fd_sc_hd__mux2_1
*I *6587:X O *D sky130_fd_sc_hd__dlygate4sd3_1
*CAP
1 *6146:A0 9.68033e-05
2 *6587:X 0.000202144
3 *755:8 0.000298947
4 *6146:A1 *6146:A0 0.000146971
5 *230:55 *6146:A0 9.5877e-05
6 *309:52 *755:8 0.000140528
7 *372:64 *6146:A0 0.000297404
8 *372:72 *6146:A0 0.00010018
9 *625:66 *755:8 0.000362434
*RES
1 *6587:X *755:8 43.075 
2 *755:8 *6146:A0 42.4329 
*END

*D_NET *756 0.000875606
*CONN
*I *6314:A0 I *D sky130_fd_sc_hd__mux2_1
*I *6589:X O *D sky130_fd_sc_hd__dlygate4sd3_1
*CAP
1 *6314:A0 0
2 *6589:X 0.000254333
3 *756:6 0.000254333
4 *756:6 *768:26 2.93747e-05
5 *470:109 *756:6 2.32101e-05
6 *470:126 *756:6 0.000218483
7 *508:35 *756:6 9.58714e-05
*RES
1 *6589:X *756:6 28.8621 
2 *756:6 *6314:A0 23 
*END

*D_NET *757 0.0371284
*CONN
*I *6083:A1 I *D sky130_fd_sc_hd__mux2_1
*I *6158:A1 I *D sky130_fd_sc_hd__mux2_1
*I *6312:A1 I *D sky130_fd_sc_hd__mux2_1
*I *6065:A1 I *D sky130_fd_sc_hd__mux2_1
*I *6047:A1 I *D sky130_fd_sc_hd__mux2_1
*I *6294:A1 I *D sky130_fd_sc_hd__mux2_1
*I *6193:A1 I *D sky130_fd_sc_hd__mux2_1
*I *6140:A1 I *D sky130_fd_sc_hd__mux2_1
*I *6122:A1 I *D sky130_fd_sc_hd__mux2_1
*I *5912:A1 I *D sky130_fd_sc_hd__mux2_1
*I *6175:A1 I *D sky130_fd_sc_hd__mux2_1
*I *6211:A1 I *D sky130_fd_sc_hd__mux2_1
*I *6241:A1 I *D sky130_fd_sc_hd__mux2_1
*I *6029:A1 I *D sky130_fd_sc_hd__mux2_1
*I *6010:A1 I *D sky130_fd_sc_hd__mux2_1
*I *6103:A1 I *D sky130_fd_sc_hd__mux2_1
*I *6664:X O *D sky130_fd_sc_hd__buf_4
*CAP
1 *6083:A1 0
2 *6158:A1 0.000276651
3 *6312:A1 0
4 *6065:A1 0
5 *6047:A1 0
6 *6294:A1 0
7 *6193:A1 0
8 *6140:A1 0
9 *6122:A1 0.000258323
10 *5912:A1 0
11 *6175:A1 2.25431e-05
12 *6211:A1 0.000138174
13 *6241:A1 0
14 *6029:A1 8.67184e-05
15 *6010:A1 0
16 *6103:A1 0
17 *6664:X 8.82946e-05
18 *757:213 0.000525848
19 *757:196 0.000964989
20 *757:182 0.00019527
21 *757:169 0.000386708
22 *757:154 0.000689083
23 *757:110 0.000613433
24 *757:97 0.00061253
25 *757:89 0.0011521
26 *757:87 0.000485765
27 *757:83 0.00100292
28 *757:79 0.000608159
29 *757:75 0.000672708
30 *757:56 0.00121824
31 *757:50 0.00211144
32 *757:33 0.00234008
33 *757:24 0.00156941
34 *757:22 0.000846326
35 *757:20 0.00116352
36 *757:16 0.00358966
37 *757:14 0.00355011
38 *757:8 0.000930058
39 *6211:A1 *6211:A0 0.000443673
40 *757:20 *776:6 0.000259945
41 *757:22 *776:6 0.000213069
42 *757:24 *776:6 5.67058e-05
43 *757:110 *6211:A0 1.24376e-05
44 *757:169 *779:12 0.000706221
45 *5957:A0 *757:110 0.000125134
46 *5958:A3 *757:75 3.46181e-05
47 *5958:A3 *757:79 1.44546e-05
48 *5960:A3 *757:169 6.33614e-05
49 *5962:A1 *757:213 0
50 *6010:A0 *757:33 0.00035673
51 *6010:A0 *757:50 1.21972e-05
52 *6010:S *757:33 2.90712e-05
53 *6010:S *757:50 0.000661051
54 *6011:A *757:33 0
55 *6011:A *757:50 0.000230604
56 *6029:S *6029:A1 0.00014196
57 *6029:S *757:75 9.41704e-05
58 *6030:A *757:75 2.32004e-05
59 *6047:S *757:169 0.000294145
60 *6158:S *6158:A1 3.70094e-05
61 *6175:A0 *757:110 7.27182e-05
62 *6241:A0 *757:97 5.50106e-05
63 *6241:S *757:97 0.000224005
64 *6490:D *757:50 4.9054e-06
65 *6491:D *757:213 0.000170773
66 *6501:A *757:56 0.000138839
67 *6564:A *6122:A1 2.32101e-05
68 *6564:A *757:83 6.68822e-05
69 *6564:A *757:87 3.70094e-05
70 *6576:A *757:50 7.52846e-06
71 *6576:A *757:56 0.000197575
72 *6602:A *757:169 0.000166435
73 *6632:A *757:56 0
74 *6632:A *757:75 3.84694e-05
75 *20:13 *757:8 0
76 *54:8 *757:79 0
77 *126:8 *757:75 0
78 *175:8 *757:50 0
79 *225:181 *757:97 0
80 *225:198 *757:87 0
81 *225:198 *757:89 0
82 *225:198 *757:97 0
83 *226:219 *757:97 2.54046e-05
84 *226:240 *757:97 0.000141404
85 *226:244 *757:87 0.000188363
86 *232:118 *757:50 0
87 *260:8 *757:182 5.31444e-05
88 *309:82 *757:79 0
89 *319:105 *757:154 0
90 *319:105 *757:169 0
91 *329:85 *757:182 5.56306e-05
92 *366:10 *6122:A1 5.67058e-05
93 *395:8 *6211:A1 0.000126847
94 *401:87 *757:79 0.000148402
95 *460:76 *757:154 1.14452e-05
96 *460:76 *757:169 0.000363877
97 *460:78 *757:154 0.000431852
98 *470:126 *757:50 0.000113169
99 *470:145 *757:182 0.000182832
100 *470:151 *757:196 0
101 *474:8 *757:24 0.000447976
102 *479:218 *757:56 0
103 *479:228 *757:56 2.89564e-05
104 *479:238 *757:56 5.16045e-05
105 *483:53 *757:56 0
106 *484:19 *757:56 0
107 *486:141 *757:213 0.000114083
108 *499:28 *6122:A1 0.000142635
109 *499:28 *757:87 8.72173e-05
110 *506:10 *757:56 0.000351608
111 *571:8 *757:75 2.72257e-05
112 *587:14 *6175:A1 0
113 *587:14 *757:110 2.79543e-05
114 *603:25 *757:87 8.94487e-05
115 *603:25 *757:89 0.000138727
116 *603:25 *757:97 6.10781e-05
117 *618:8 *757:50 4.96717e-05
118 *619:16 *757:213 0.000359332
119 *619:29 *6158:A1 3.47781e-05
120 *619:29 *757:196 0.000242926
121 *619:29 *757:213 0.000185428
122 *660:6 *757:169 5.67058e-05
123 *676:6 *6122:A1 5.67058e-05
124 *691:29 *757:8 0.000169683
125 *695:6 *757:24 0.000473015
126 *695:6 *757:33 5.67058e-05
127 *721:8 *6029:A1 6.16439e-05
128 *721:8 *757:56 0.000103949
129 *728:6 *6029:A1 5.67058e-05
130 *732:6 *757:83 0.000486246
131 *744:8 *757:50 1.17444e-05
132 *744:8 *757:56 0
133 *746:20 *757:50 0
134 *746:31 *757:56 0.000143425
135 *746:45 *757:97 0
*RES
1 *6664:X *757:8 40.2579 
2 *757:8 *757:14 30.1732 
3 *757:14 *757:16 50.17 
4 *757:16 *757:20 15.5254 
5 *757:20 *757:22 2.52714 
6 *757:22 *757:24 15.3907 
7 *757:24 *6103:A1 23 
8 *757:24 *757:33 12.4286 
9 *757:33 *6010:A1 23 
10 *757:33 *757:50 40.7168 
11 *757:50 *757:56 16.8511 
12 *757:56 *6029:A1 40.4236 
13 *757:56 *757:75 37.395 
14 *757:75 *757:79 20.4271 
15 *757:79 *757:83 7.31214 
16 *757:83 *757:87 24.3007 
17 *757:87 *757:89 1.90571 
18 *757:89 *757:97 27.615 
19 *757:97 *6241:A1 23 
20 *757:89 *757:110 22.8093 
21 *757:110 *6211:A1 27.9093 
22 *757:110 *6175:A1 23.4971 
23 *757:87 *5912:A1 38 
24 *757:83 *6122:A1 28.3857 
25 *757:79 *6140:A1 23 
26 *757:75 *6193:A1 38 
27 *757:33 *757:154 20.7793 
28 *757:154 *6294:A1 38 
29 *757:154 *757:169 29.3964 
30 *757:169 *6047:A1 23 
31 *757:24 *757:182 33.6043 
32 *757:182 *6065:A1 23 
33 *757:22 *6312:A1 23 
34 *757:20 *757:196 19.0186 
35 *757:196 *6158:A1 43.075 
36 *757:196 *757:213 41.7036 
37 *757:213 *6083:A1 38 
*END

*D_NET *758 0.00124
*CONN
*I *6126:A0 I *D sky130_fd_sc_hd__mux2_1
*I *6590:X O *D sky130_fd_sc_hd__dlygate4sd3_1
*CAP
1 *6126:A0 0.00020175
2 *6590:X 0.000205837
3 *758:8 0.000407587
4 *6126:A0 *779:156 5.67058e-05
5 *758:8 *768:42 0
6 *96:10 *758:8 0
7 *270:10 *758:8 9.57363e-05
8 *274:8 *758:8 0
9 *362:99 *6126:A0 0.000272383
10 *501:10 *758:8 0
*RES
1 *6590:X *758:8 42.0186 
2 *758:8 *6126:A0 43.1579 
*END

*D_NET *759 0.00102379
*CONN
*I *6063:A0 I *D sky130_fd_sc_hd__mux2_1
*I *6591:X O *D sky130_fd_sc_hd__dlygate4sd3_1
*CAP
1 *6063:A0 0
2 *6591:X 0.000130714
3 *759:6 0.000130714
4 *759:6 *779:12 0.000317346
5 *6063:A1 *759:6 5.67058e-05
6 *329:70 *759:6 0.00010018
7 *460:76 *759:6 0.000288134
*RES
1 *6591:X *759:6 29.815 
2 *759:6 *6063:A0 23 
*END

*D_NET *760 0.00134071
*CONN
*I *6128:A0 I *D sky130_fd_sc_hd__mux2_1
*I *6592:X O *D sky130_fd_sc_hd__dlygate4sd3_1
*CAP
1 *6128:A0 0.000181369
2 *6592:X 0.000302362
3 *760:12 0.000483731
4 *6128:A1 *6128:A0 5.67058e-05
5 *6394:D *760:12 7.53384e-06
6 *6512:A *760:12 8.85189e-05
7 *97:8 *760:12 8.85189e-05
8 *270:18 *760:12 7.75329e-06
9 *362:51 *6128:A0 2.4754e-05
10 *369:8 *6128:A0 7.92721e-05
11 *372:30 *760:12 7.75329e-06
12 *502:12 *760:12 1.24376e-05
*RES
1 *6592:X *760:12 43.4064 
2 *760:12 *6128:A0 41.48 
*END

*D_NET *761 0.00156712
*CONN
*I *6292:A0 I *D sky130_fd_sc_hd__mux2_1
*I *6593:X O *D sky130_fd_sc_hd__dlygate4sd3_1
*CAP
1 *6292:A0 0.000120113
2 *6593:X 7.2867e-05
3 *761:8 0.00019298
4 *6292:A0 *779:12 0.000568892
5 *6063:A1 *6292:A0 0.000528025
6 *530:16 *761:8 5.21127e-05
7 *546:25 *761:8 3.21327e-05
*RES
1 *6593:X *761:8 39.5536 
2 *761:8 *6292:A0 44.3386 
*END

*D_NET *762 0.000799298
*CONN
*I *6181:A0 I *D sky130_fd_sc_hd__mux2_1
*I *6594:X O *D sky130_fd_sc_hd__dlygate4sd3_1
*CAP
1 *6181:A0 0
2 *6594:X 0.000335569
3 *762:6 0.000335569
4 *6181:A1 *762:6 9.58714e-05
5 *606:20 *762:6 3.22879e-05
*RES
1 *6594:X *762:6 28.8621 
2 *762:6 *6181:A0 23 
*END

*D_NET *763 0.00172103
*CONN
*I *6031:A0 I *D sky130_fd_sc_hd__mux2_1
*I *6595:X O *D sky130_fd_sc_hd__dlygate4sd3_1
*CAP
1 *6031:A0 0
2 *6595:X 0.000221511
3 *763:6 0.000221511
4 *763:6 *6031:A1 3.22879e-05
5 *763:6 *768:61 0.000783656
6 *6031:S *763:6 4.79544e-05
7 *6595:A *763:6 0.000308946
8 *237:97 *763:6 0.000105159
*RES
1 *6595:X *763:6 32.1971 
2 *763:6 *6031:A0 23 
*END

*D_NET *764 0.00104746
*CONN
*I *6177:A0 I *D sky130_fd_sc_hd__mux2_1
*I *6596:X O *D sky130_fd_sc_hd__dlygate4sd3_1
*CAP
1 *6177:A0 0
2 *6596:X 8.46338e-05
3 *764:6 8.46338e-05
4 *764:6 *768:95 0.000478219
5 *764:6 *768:107 5.67058e-05
6 *391:47 *764:6 0.00010018
7 *391:59 *764:6 0.000243083
*RES
1 *6596:X *764:6 28.8621 
2 *764:6 *6177:A0 23 
*END

*D_NET *765 0.000851753
*CONN
*I *6245:A0 I *D sky130_fd_sc_hd__mux2_1
*I *6597:X O *D sky130_fd_sc_hd__dlygate4sd3_1
*CAP
1 *6245:A0 0
2 *6597:X 0.000243581
3 *765:6 0.000243581
4 *765:6 *5916:A0 0.000119313
5 *765:6 *6245:A1 5.67058e-05
6 *428:16 *765:6 9.84794e-05
7 *581:26 *765:6 9.00923e-05
*RES
1 *6597:X *765:6 28.8621 
2 *765:6 *6245:A0 23 
*END

*D_NET *766 0.000807606
*CONN
*I *6247:A0 I *D sky130_fd_sc_hd__mux2_1
*I *6598:X O *D sky130_fd_sc_hd__dlygate4sd3_1
*CAP
1 *6247:A0 0
2 *6598:X 0.000297955
3 *766:6 0.000297955
4 *6247:A1 *766:6 5.67058e-05
5 *6426:D *766:6 9.84851e-05
6 *428:105 *766:6 2.4754e-05
7 *428:117 *766:6 3.17516e-05
*RES
1 *6598:X *766:6 28.8621 
2 *766:6 *6247:A0 23 
*END

*D_NET *767 0.00200665
*CONN
*I *6085:A0 I *D sky130_fd_sc_hd__mux2_1
*I *6600:X O *D sky130_fd_sc_hd__dlygate4sd3_1
*CAP
1 *6085:A0 0.000655825
2 *6600:X 7.99533e-05
3 *767:8 0.000735778
4 *6085:A0 *6085:A1 5.50049e-05
5 *339:37 *6085:A0 2.4754e-05
6 *339:50 *6085:A0 0.000455339
7 *483:31 *767:8 0
*RES
1 *6600:X *767:8 39.2014 
2 *767:8 *6085:A0 48.15 
*END

*D_NET *768 0.048377
*CONN
*I *6296:A1 I *D sky130_fd_sc_hd__mux2_1
*I *6049:A1 I *D sky130_fd_sc_hd__mux2_1
*I *6012:A1 I *D sky130_fd_sc_hd__mux2_1
*I *6067:A1 I *D sky130_fd_sc_hd__mux2_1
*I *6314:A1 I *D sky130_fd_sc_hd__mux2_1
*I *6160:A1 I *D sky130_fd_sc_hd__mux2_1
*I *6105:A1 I *D sky130_fd_sc_hd__mux2_1
*I *6085:A1 I *D sky130_fd_sc_hd__mux2_1
*I *6031:A1 I *D sky130_fd_sc_hd__mux2_1
*I *6195:A1 I *D sky130_fd_sc_hd__mux2_1
*I *6142:A1 I *D sky130_fd_sc_hd__mux2_1
*I *6243:A1 I *D sky130_fd_sc_hd__mux2_1
*I *5914:A1 I *D sky130_fd_sc_hd__mux2_1
*I *6177:A1 I *D sky130_fd_sc_hd__mux2_1
*I *6213:A1 I *D sky130_fd_sc_hd__mux2_1
*I *6124:A1 I *D sky130_fd_sc_hd__mux2_1
*I *6665:X O *D sky130_fd_sc_hd__buf_4
*CAP
1 *6296:A1 3.00574e-05
2 *6049:A1 7.30029e-05
3 *6012:A1 0.000138255
4 *6067:A1 0.000190513
5 *6314:A1 0
6 *6160:A1 0.000118742
7 *6105:A1 0.000328927
8 *6085:A1 1.77228e-05
9 *6031:A1 1.38505e-05
10 *6195:A1 0
11 *6142:A1 5.23417e-05
12 *6243:A1 0
13 *5914:A1 0
14 *6177:A1 0
15 *6213:A1 0
16 *6124:A1 0.000279994
17 *6665:X 0
18 *768:136 0.000408706
19 *768:119 0.000628322
20 *768:107 0.000659935
21 *768:95 0.000938576
22 *768:93 0.00107884
23 *768:85 0.000725855
24 *768:79 0.00037134
25 *768:69 0.000686108
26 *768:61 0.00105269
27 *768:44 0.0019105
28 *768:42 0.00291097
29 *768:38 0.00240043
30 *768:36 0.000909819
31 *768:32 0.000592714
32 *768:26 0.00059771
33 *768:20 0.000605471
34 *768:18 0.000579844
35 *768:16 0.000583103
36 *768:14 0.00163035
37 *768:12 0.00188104
38 *768:6 0.00562854
39 *768:4 0.00509785
40 *6012:A1 *6012:A0 0.000358425
41 *6105:A1 *6105:A0 0.000399291
42 *6124:A1 *769:6 5.50049e-05
43 *768:18 *780:8 0.000282712
44 *768:20 *780:8 1.01436e-05
45 *768:42 *779:156 0.00010383
46 *768:42 *783:8 2.5415e-05
47 *5914:A0 *768:119 5.67058e-05
48 *5914:A0 *768:136 0.000184527
49 *5970:A0 *6105:A1 3.08847e-05
50 *5980:S *6105:A1 6.17437e-06
51 *5985:A3 *768:44 7.05967e-05
52 *6049:A0 *6049:A1 5.67058e-05
53 *6085:A0 *6085:A1 5.50049e-05
54 *6126:S *768:42 0
55 *6160:S *6160:A1 5.50106e-05
56 *6178:A *768:107 1.37232e-05
57 *6195:A0 *768:79 5.50049e-05
58 *6213:A0 *768:107 7.88828e-05
59 *6243:S *768:136 0.000244517
60 *6244:A *768:119 0.00030974
61 *6244:A *768:136 0.000169595
62 *6296:A0 *6296:A1 1.59094e-05
63 *6414:D *768:107 8.55313e-05
64 *6416:CLK *768:136 2.60152e-05
65 *6604:A *768:44 3.98913e-05
66 *6615:A *768:42 0
67 *16:15 *768:42 0
68 *96:10 *768:42 4.5882e-05
69 *101:8 *768:42 3.82326e-05
70 *101:8 *768:44 0.000195037
71 *119:10 *768:107 0
72 *121:8 *768:136 0
73 *127:10 *768:79 0.000225399
74 *149:10 *768:42 0.000164282
75 *221:10 *768:93 1.19796e-05
76 *221:10 *768:119 0.000139357
77 *225:58 *768:93 0
78 *225:58 *768:119 6.69016e-05
79 *225:160 *768:69 0.000439425
80 *225:160 *768:79 0.000114092
81 *225:160 *768:93 0
82 *230:66 *768:42 0
83 *230:81 *6105:A1 0
84 *230:89 *6160:A1 1.56665e-05
85 *232:39 *768:44 9.61094e-05
86 *232:77 *6105:A1 0.000187986
87 *232:77 *768:32 0
88 *232:77 *768:36 1.59094e-05
89 *232:77 *768:38 9.03784e-05
90 *232:85 *768:32 9.03979e-05
91 *232:258 *768:32 0.0001642
92 *233:62 *6160:A1 0.000182826
93 *233:62 *768:36 0.000268074
94 *233:62 *768:38 0
95 *233:62 *768:42 0
96 *233:66 *768:32 0
97 *233:81 *768:32 0
98 *237:80 *768:69 0.000148688
99 *237:97 *6031:A1 5.70419e-05
100 *237:97 *768:69 0.000173278
101 *265:8 *768:136 2.4754e-05
102 *265:12 *6124:A1 0
103 *273:8 *768:42 0
104 *274:8 *768:42 8.85189e-05
105 *295:14 *768:79 2.18506e-05
106 *295:20 *768:79 0
107 *298:37 *6012:A1 3.06338e-05
108 *298:50 *6012:A1 8.84808e-05
109 *309:52 *768:44 0
110 *314:10 *768:69 9.01041e-05
111 *319:59 *6049:A1 0.000182826
112 *329:46 *768:18 0
113 *329:46 *768:20 0
114 *329:46 *768:26 0
115 *329:50 *6067:A1 0.000438462
116 *339:37 *6085:A1 5.50049e-05
117 *339:50 *6085:A1 1.24376e-05
118 *351:75 *6105:A1 0.000179627
119 *362:45 *768:44 0
120 *362:51 *6124:A1 0.000564969
121 *362:51 *768:44 0.000924014
122 *362:59 *6124:A1 1.01436e-05
123 *362:95 *768:42 0
124 *367:10 *6124:A1 0.000373937
125 *368:8 *768:42 0.000176883
126 *387:8 *768:38 0
127 *391:47 *768:107 2.18506e-05
128 *391:59 *768:95 5.29672e-05
129 *391:59 *768:119 1.03836e-05
130 *391:59 *768:136 2.42041e-05
131 *401:36 *768:69 0.000426933
132 *406:10 *6142:A1 8.85189e-05
133 *428:32 *768:42 0.000345286
134 *434:10 *768:42 6.1732e-05
135 *460:43 *6296:A1 5.3304e-05
136 *460:43 *768:16 0
137 *460:43 *768:18 0
138 *475:10 *768:26 7.03766e-05
139 *484:44 *6012:A1 4.00259e-06
140 *484:56 *768:20 0.000218952
141 *484:56 *768:26 0.000167443
142 *484:69 *768:16 0.000133112
143 *484:69 *768:18 0.000589142
144 *484:69 *768:20 5.24393e-05
145 *488:14 *6142:A1 6.02277e-06
146 *488:14 *768:85 2.24608e-05
147 *488:14 *768:93 8.34602e-06
148 *488:20 *768:93 0.000134646
149 *488:39 *768:107 3.22879e-05
150 *488:52 *768:107 9.69102e-05
151 *488:123 *768:93 0
152 *494:99 *6124:A1 0
153 *494:99 *768:44 0
154 *495:68 *768:44 7.28526e-05
155 *500:28 *6124:A1 5.67058e-05
156 *508:35 *768:26 4.2062e-05
157 *508:35 *768:32 0.00031761
158 *516:16 *768:32 0.000187986
159 *516:16 *768:38 0
160 *532:14 *768:18 0
161 *532:25 *768:14 1.00286e-05
162 *532:25 *768:16 2.51913e-05
163 *548:16 *768:14 0.000235777
164 *548:16 *768:16 0.000157147
165 *564:12 *768:93 0.000138718
166 *566:27 *768:44 2.53762e-05
167 *580:10 *768:136 4.08537e-05
168 *581:10 *768:42 0.000109182
169 *604:12 *768:107 0
170 *625:72 *768:44 0.000380342
171 *634:6 *6160:A1 2.93845e-05
172 *641:10 *768:107 0
173 *657:6 *768:136 5.50049e-05
174 *658:26 *6142:A1 3.90425e-05
175 *658:26 *768:93 4.32851e-05
176 *690:8 *768:14 2.34077e-05
177 *692:6 *6067:A1 2.93845e-05
178 *693:8 *768:93 0.000166522
179 *726:8 *768:42 2.5415e-05
180 *746:93 *768:42 5.89907e-05
181 *746:93 *768:44 0
182 *756:6 *768:26 2.93747e-05
183 *758:8 *768:42 0
184 *763:6 *6031:A1 3.22879e-05
185 *763:6 *768:61 0.000783656
186 *764:6 *768:95 0.000478219
187 *764:6 *768:107 5.67058e-05
*RES
1 *6665:X *768:4 23 
2 *768:4 *768:6 93.525 
3 *768:6 *768:12 25.1604 
4 *768:12 *768:14 27.7261 
5 *768:14 *768:16 5.075 
6 *768:16 *768:18 7.89214 
7 *768:18 *768:20 3.66643 
8 *768:20 *768:26 19.3086 
9 *768:26 *768:32 39.3007 
10 *768:32 *768:36 18.0036 
11 *768:36 *768:38 8.24429 
12 *768:38 *768:42 38.1454 
13 *768:42 *768:44 23.8111 
14 *768:44 *6124:A1 46.5136 
15 *768:44 *768:61 25.3986 
16 *768:61 *768:69 43.1743 
17 *768:69 *768:79 35.1786 
18 *768:79 *768:85 16.4189 
19 *768:85 *768:93 27.0039 
20 *768:93 *768:95 6.815 
21 *768:95 *768:107 40.9993 
22 *768:107 *6213:A1 23 
23 *768:95 *6177:A1 23 
24 *768:93 *768:119 5.38571 
25 *768:119 *5914:A1 23 
26 *768:119 *768:136 39.0936 
27 *768:136 *6243:A1 23 
28 *768:85 *6142:A1 39.7296 
29 *768:69 *6195:A1 23 
30 *768:61 *6031:A1 24.0979 
31 *768:38 *6085:A1 38.6214 
32 *768:36 *6105:A1 46.6586 
33 *768:32 *6160:A1 26.0036 
34 *768:26 *6314:A1 23 
35 *768:20 *6067:A1 42.9093 
36 *768:18 *6012:A1 42.93 
37 *768:16 *6049:A1 40.0507 
38 *768:14 *6296:A1 38.6214 
*END

*D_NET *769 0.00103063
*CONN
*I *6124:A0 I *D sky130_fd_sc_hd__mux2_1
*I *6601:X O *D sky130_fd_sc_hd__dlygate4sd3_1
*CAP
1 *6124:A0 0
2 *6601:X 0.00011518
3 *769:6 0.00011518
4 *6124:A1 *769:6 5.50049e-05
5 *295:28 *769:6 0.000527112
6 *362:59 *769:6 0.00012359
7 *500:28 *769:6 9.45591e-05
*RES
1 *6601:X *769:6 28.8621 
2 *769:6 *6124:A0 23 
*END

*D_NET *770 0.00175347
*CONN
*I *6294:A0 I *D sky130_fd_sc_hd__mux2_1
*I *6602:X O *D sky130_fd_sc_hd__dlygate4sd3_1
*CAP
1 *6294:A0 0.000149209
2 *6602:X 0.000338335
3 *770:10 0.000487544
4 *5960:A3 *770:10 8.62876e-05
5 *6047:S *770:10 9.0102e-05
6 *6602:A *770:10 0.000224345
7 *232:141 *6294:A0 0.000180224
8 *319:105 *770:10 0.000142418
9 *323:10 *770:10 5.50106e-05
*RES
1 *6602:X *770:10 44.5457 
2 *770:10 *6294:A0 40.0507 
*END

*D_NET *771 0.00101466
*CONN
*I *6138:A0 I *D sky130_fd_sc_hd__mux2_1
*I *6603:X O *D sky130_fd_sc_hd__dlygate4sd3_1
*CAP
1 *6138:A0 0
2 *6603:X 0.000204117
3 *771:6 0.000204117
4 *6138:A1 *771:6 5.56356e-05
5 *6138:S *771:6 2.1819e-05
6 *746:85 *771:6 0.000528976
*RES
1 *6603:X *771:6 28.8621 
2 *771:6 *6138:A0 23 
*END

*D_NET *772 0.00127353
*CONN
*I *6199:A0 I *D sky130_fd_sc_hd__mux2_1
*I *6604:X O *D sky130_fd_sc_hd__dlygate4sd3_1
*CAP
1 *6199:A0 0
2 *6604:X 0.000233813
3 *772:10 0.000233813
4 *6604:A *772:10 0.000139352
5 *362:37 *772:10 0.000269301
6 *401:62 *772:10 9.84794e-05
7 *495:68 *772:10 0.000139346
8 *625:82 *772:10 0.000159426
*RES
1 *6604:X *772:10 30.9336 
2 *772:10 *6199:A0 23 
*END

*D_NET *773 0.00185029
*CONN
*I *6008:A0 I *D sky130_fd_sc_hd__mux2_1
*I *6605:X O *D sky130_fd_sc_hd__dlygate4sd3_1
*CAP
1 *6008:A0 9.33976e-05
2 *6605:X 0.000355949
3 *773:10 0.000449347
4 *6008:A1 *6008:A0 5.50049e-05
5 *6008:S *6008:A0 0.000230604
6 *6310:A1 *6008:A0 0.000315857
7 *6364:CLK *773:10 6.34734e-05
8 *6490:CLK *773:10 0.000112906
9 *233:139 *773:10 8.08139e-06
10 *298:50 *773:10 0.000108681
11 *298:67 *6008:A0 2.18409e-05
12 *329:62 *6008:A0 3.51496e-05
13 *538:12 *773:10 0
14 *746:14 *773:10 0
*RES
1 *6605:X *773:10 44.1729 
2 *773:10 *6008:A0 42.4329 
*END

*D_NET *774 0.000873672
*CONN
*I *6018:A0 I *D sky130_fd_sc_hd__mux2_1
*I *6606:X O *D sky130_fd_sc_hd__dlygate4sd3_1
*CAP
1 *6018:A0 0
2 *6606:X 0.000303507
3 *774:6 0.000303507
4 *298:33 *774:6 0.000215589
5 *551:27 *774:6 5.10686e-05
*RES
1 *6606:X *774:6 28.8621 
2 *774:6 *6018:A0 23 
*END

*D_NET *775 0.00104236
*CONN
*I *6089:A0 I *D sky130_fd_sc_hd__mux2_1
*I *6607:X O *D sky130_fd_sc_hd__dlygate4sd3_1
*CAP
1 *6089:A0 0
2 *6607:X 0.000260469
3 *775:6 0.000260469
4 *6089:S *775:6 8.09334e-05
5 *237:150 *775:6 0.00014196
6 *482:59 *775:6 5.50106e-05
7 *518:12 *775:6 0.000201747
8 *518:25 *775:6 4.17736e-05
*RES
1 *6607:X *775:6 28.8621 
2 *775:6 *6089:A0 23 
*END

*D_NET *776 0.000944796
*CONN
*I *6312:A0 I *D sky130_fd_sc_hd__mux2_1
*I *6608:X O *D sky130_fd_sc_hd__dlygate4sd3_1
*CAP
1 *6312:A0 0
2 *6608:X 0.000207538
3 *776:6 0.000207538
4 *757:20 *776:6 0.000259945
5 *757:22 *776:6 0.000213069
6 *757:24 *776:6 5.67058e-05
*RES
1 *6608:X *776:6 28.8621 
2 *776:6 *6312:A0 23 
*END

*D_NET *777 0.00171136
*CONN
*I *6105:A0 I *D sky130_fd_sc_hd__mux2_1
*I *6609:X O *D sky130_fd_sc_hd__dlygate4sd3_1
*CAP
1 *6105:A0 0.000303641
2 *6609:X 0.000225851
3 *777:8 0.000529492
4 *5980:S *6105:A0 1.57571e-05
5 *6105:A1 *6105:A0 0.000399291
6 *177:8 *777:8 0.000194318
7 *232:258 *777:8 0
8 *351:75 *777:8 4.6318e-06
9 *484:56 *777:8 0
10 *620:14 *777:8 3.83778e-05
*RES
1 *6609:X *777:8 42.0186 
2 *777:8 *6105:A0 42.9093 
*END

*D_NET *778 0.00223077
*CONN
*I *6211:A0 I *D sky130_fd_sc_hd__mux2_1
*I *6611:X O *D sky130_fd_sc_hd__dlygate4sd3_1
*CAP
1 *6211:A0 0.000220438
2 *6611:X 0.000286757
3 *778:10 0.000507195
4 *6175:A0 *6211:A0 5.50049e-05
5 *6211:A1 *6211:A0 0.000443673
6 *6241:S *778:10 5.83407e-05
7 *30:8 *778:10 0
8 *391:151 *778:10 0.000141879
9 *395:8 *6211:A0 1.76557e-05
10 *401:87 *778:10 0.000125025
11 *495:88 *778:10 0.000163352
12 *595:16 *778:10 0.000199018
13 *757:110 *6211:A0 1.24376e-05
*RES
1 *6611:X *778:10 45.3536 
2 *778:10 *6211:A0 43.3857 
*END

*D_NET *779 0.0440332
*CONN
*I *6069:A1 I *D sky130_fd_sc_hd__mux2_1
*I *6298:A1 I *D sky130_fd_sc_hd__mux2_1
*I *6051:A1 I *D sky130_fd_sc_hd__mux2_1
*I *6316:A1 I *D sky130_fd_sc_hd__mux2_1
*I *6087:A1 I *D sky130_fd_sc_hd__mux2_1
*I *6126:A1 I *D sky130_fd_sc_hd__mux2_1
*I *6033:A1 I *D sky130_fd_sc_hd__mux2_1
*I *6197:A1 I *D sky130_fd_sc_hd__mux2_1
*I *6144:A1 I *D sky130_fd_sc_hd__mux2_1
*I *6245:A1 I *D sky130_fd_sc_hd__mux2_1
*I *5916:A1 I *D sky130_fd_sc_hd__mux2_1
*I *6179:A1 I *D sky130_fd_sc_hd__mux2_1
*I *6215:A1 I *D sky130_fd_sc_hd__mux2_1
*I *6162:A1 I *D sky130_fd_sc_hd__mux2_1
*I *6107:A1 I *D sky130_fd_sc_hd__mux2_1
*I *6014:A1 I *D sky130_fd_sc_hd__mux2_1
*I *6666:X O *D sky130_fd_sc_hd__buf_4
*CAP
1 *6069:A1 0
2 *6298:A1 0.000204646
3 *6051:A1 0
4 *6316:A1 0
5 *6087:A1 0.000122413
6 *6126:A1 0
7 *6033:A1 0
8 *6197:A1 0
9 *6144:A1 0
10 *6245:A1 0.000126359
11 *5916:A1 0
12 *6179:A1 5.14265e-05
13 *6215:A1 0
14 *6162:A1 0
15 *6107:A1 0.000491301
16 *6014:A1 0.000292196
17 *6666:X 0
18 *779:181 0.000393821
19 *779:156 0.000477431
20 *779:141 0.000810551
21 *779:134 0.000405479
22 *779:109 0.000321231
23 *779:100 0.000246298
24 *779:91 0.000650979
25 *779:81 0.000866708
26 *779:79 0.000649312
27 *779:73 0.000783491
28 *779:62 0.000535385
29 *779:54 0.000627041
30 *779:43 0.00126448
31 *779:33 0.00103587
32 *779:31 0.000698655
33 *779:22 0.000312179
34 *779:20 0.00125434
35 *779:12 0.00514813
36 *779:10 0.00391378
37 *779:8 0.00323089
38 *779:6 0.00323089
39 *6245:A1 *5916:A0 0.000392386
40 *6298:A1 *6051:A0 3.26241e-05
41 *779:20 *784:6 0.000475617
42 *779:22 *784:6 5.67058e-05
43 *779:109 *5916:A0 5.50049e-05
44 *5977:A1 *779:156 0.000182832
45 *5979:S1 *779:43 0
46 *5979:S1 *779:54 6.85338e-05
47 *6033:A0 *779:141 5.67058e-05
48 *6033:A0 *779:156 0.000182826
49 *6034:A *779:141 5.67058e-05
50 *6051:S *6298:A1 2.14669e-05
51 *6051:S *779:181 0.000138513
52 *6063:A1 *779:12 0.000317629
53 *6087:A0 *6087:A1 5.3304e-05
54 *6087:S *6087:A1 2.98648e-05
55 *6087:S *779:62 0.00035793
56 *6126:A0 *779:156 5.67058e-05
57 *6162:A0 *779:62 5.3304e-05
58 *6162:A0 *779:73 0.000140259
59 *6163:A *779:62 2.02517e-05
60 *6179:A0 *6179:A1 0.000181125
61 *6179:A0 *779:109 0.00014196
62 *6197:A0 *779:134 5.67058e-05
63 *6197:A0 *779:141 0.000182826
64 *6198:A *779:134 1.37232e-05
65 *6292:A0 *779:12 0.000568892
66 *6293:A *779:20 0.000133057
67 *6298:A0 *6298:A1 0.00010766
68 *6317:A *6107:A1 0.000181125
69 *6327:CLK *779:91 0.000477634
70 *6572:A *779:73 0
71 *71:10 *779:20 1.05235e-05
72 *222:8 *779:91 0
73 *225:164 *779:91 0.000193749
74 *230:66 *779:156 0
75 *230:81 *779:156 0
76 *233:35 *779:79 0
77 *233:35 *779:81 0
78 *233:45 *779:156 1.80023e-05
79 *233:62 *779:156 0.000248198
80 *233:106 *779:33 0.000262606
81 *233:106 *779:43 0
82 *237:84 *779:79 0.000343333
83 *237:84 *779:81 0.000449495
84 *237:84 *779:91 0.000472558
85 *275:10 *779:79 8.51329e-05
86 *276:12 *779:33 0
87 *276:12 *779:43 5.50049e-05
88 *278:8 *779:43 1.61361e-05
89 *278:12 *779:73 1.4471e-05
90 *309:14 *779:91 0.000218952
91 *319:49 *6014:A1 0.000181125
92 *319:51 *779:33 3.47781e-05
93 *319:51 *779:181 0.000177852
94 *325:10 *6298:A1 5.45644e-05
95 *329:29 *6014:A1 3.66767e-05
96 *329:29 *779:22 1.03955e-05
97 *329:46 *779:20 0.000191957
98 *335:8 *779:33 4.41619e-05
99 *339:37 *779:62 0.000139346
100 *339:37 *779:73 0.000127821
101 *368:8 *779:156 0.000353839
102 *372:16 *779:79 0.000141879
103 *372:16 *779:81 9.168e-05
104 *382:14 *779:73 0.000170827
105 *382:14 *779:79 0.000232833
106 *391:114 *779:91 2.43944e-05
107 *391:143 *779:91 0
108 *401:79 *779:79 4.58924e-05
109 *401:83 *779:141 0.000148543
110 *401:83 *779:156 3.93271e-05
111 *428:16 *6179:A1 0.000181125
112 *428:16 *6245:A1 0.000206582
113 *428:16 *779:109 0.000516489
114 *460:37 *6014:A1 0.000393293
115 *460:37 *779:20 0.00100794
116 *460:37 *779:22 9.84851e-05
117 *460:76 *779:12 0.000199409
118 *460:76 *779:20 0
119 *470:96 *779:43 0.000282617
120 *470:96 *779:54 9.33491e-05
121 *470:96 *779:62 0.000215867
122 *476:8 *779:54 1.58805e-05
123 *493:71 *779:33 0
124 *493:73 *779:33 0
125 *509:27 *6107:A1 0.000136524
126 *509:27 *779:43 2.02872e-05
127 *509:27 *779:54 0.000185183
128 *533:18 *779:33 0
129 *533:29 *779:181 0.000270813
130 *549:29 *6298:A1 0.000102944
131 *565:10 *779:79 0
132 *573:18 *779:73 0
133 *573:18 *779:79 3.80173e-05
134 *581:26 *779:91 3.88504e-05
135 *621:29 *779:43 0
136 *658:26 *779:91 0
137 *660:6 *779:12 0.000272295
138 *672:8 *779:81 2.5415e-05
139 *739:6 *6014:A1 0.000488848
140 *748:6 *6107:A1 0.000483643
141 *757:169 *779:12 0.000706221
142 *759:6 *779:12 0.000317346
143 *765:6 *6245:A1 5.67058e-05
144 *768:42 *779:156 0.00010383
*RES
1 *6666:X *779:6 38 
2 *779:6 *779:8 63.5307 
3 *779:8 *779:10 15 
4 *779:10 *779:12 59.2221 
5 *779:12 *779:20 29.0207 
6 *779:20 *779:22 1.09786 
7 *779:22 *6014:A1 31.7207 
8 *779:22 *779:31 15 
9 *779:31 *779:33 11.0614 
10 *779:33 *779:43 23.9486 
11 *779:43 *6107:A1 33.15 
12 *779:43 *779:54 20.4271 
13 *779:54 *779:62 22.8507 
14 *779:62 *6162:A1 23 
15 *779:62 *779:73 22.0014 
16 *779:73 *779:79 12.18 
17 *779:79 *779:81 6.13143 
18 *779:81 *779:91 45.7843 
19 *779:91 *6215:A1 38 
20 *779:81 *779:100 15 
21 *779:100 *6179:A1 25.0507 
22 *779:100 *779:109 5.86214 
23 *779:109 *5916:A1 23 
24 *779:109 *6245:A1 27.4329 
25 *779:79 *6144:A1 38 
26 *779:73 *779:134 16.595 
27 *779:134 *6197:A1 23 
28 *779:134 *779:141 7.29143 
29 *779:141 *6033:A1 23 
30 *779:141 *779:156 44.0029 
31 *779:156 *6126:A1 23 
32 *779:54 *6087:A1 39.5743 
33 *779:33 *6316:A1 38 
34 *779:31 *779:181 20.075 
35 *779:181 *6051:A1 23 
36 *779:181 *6298:A1 28.4064 
37 *779:20 *6069:A1 23 
*END

*D_NET *780 0.00157193
*CONN
*I *6012:A0 I *D sky130_fd_sc_hd__mux2_1
*I *6612:X O *D sky130_fd_sc_hd__dlygate4sd3_1
*CAP
1 *6012:A0 0.000271304
2 *6612:X 0.000139819
3 *780:8 0.000411123
4 *6012:A1 *6012:A0 0.000358425
5 *298:37 *6012:A0 5.14746e-06
6 *329:46 *780:8 9.32509e-05
7 *768:18 *780:8 0.000282712
8 *768:20 *780:8 1.01436e-05
*RES
1 *6612:X *780:8 42.0186 
2 *780:8 *6012:A0 42.4329 
*END

*D_NET *781 0.00101805
*CONN
*I *6310:A0 I *D sky130_fd_sc_hd__mux2_1
*I *6613:X O *D sky130_fd_sc_hd__dlygate4sd3_1
*CAP
1 *6310:A0 0
2 *6613:X 0.000287616
3 *781:6 0.000287616
4 *6310:A1 *781:6 5.50049e-05
5 *6341:CLK *781:6 5.50106e-05
6 *6613:A *781:6 0.00017761
7 *298:67 *781:6 1.57571e-05
8 *470:145 *781:6 0.000139437
*RES
1 *6613:X *781:6 28.8621 
2 *781:6 *6310:A0 23 
*END

*D_NET *782 0.00160966
*CONN
*I *5918:A0 I *D sky130_fd_sc_hd__mux2_1
*I *6614:X O *D sky130_fd_sc_hd__dlygate4sd3_1
*CAP
1 *5918:A0 0.000326858
2 *6614:X 0.000247718
3 *782:8 0.000574576
4 *6207:A0 *782:8 2.5415e-05
5 *6427:CLK *782:8 0
6 *216:60 *782:8 0
7 *216:77 *5918:A0 0.000402806
8 *411:121 *782:8 0
9 *590:10 *782:8 0
10 *625:21 *5918:A0 3.22879e-05
*RES
1 *6614:X *782:8 42.0186 
2 *782:8 *5918:A0 43.3857 
*END

*D_NET *783 0.00176362
*CONN
*I *5916:A0 I *D sky130_fd_sc_hd__mux2_1
*I *6615:X O *D sky130_fd_sc_hd__dlygate4sd3_1
*CAP
1 *5916:A0 0.000494326
2 *6615:X 4.82822e-05
3 *783:8 0.000542608
4 *6245:A1 *5916:A0 0.000392386
5 *362:95 *783:8 8.62876e-05
6 *765:6 *5916:A0 0.000119313
7 *768:42 *783:8 2.5415e-05
8 *779:109 *5916:A0 5.50049e-05
*RES
1 *6615:X *783:8 39.2014 
2 *783:8 *5916:A0 45.2914 
*END

*D_NET *784 0.00104252
*CONN
*I *6069:A0 I *D sky130_fd_sc_hd__mux2_1
*I *6616:X O *D sky130_fd_sc_hd__dlygate4sd3_1
*CAP
1 *6069:A0 0
2 *6616:X 0.000103503
3 *784:6 0.000103503
4 *329:29 *784:6 5.70419e-05
5 *329:46 *784:6 0.00024615
6 *779:20 *784:6 0.000475617
7 *779:22 *784:6 5.67058e-05
*RES
1 *6616:X *784:6 28.8621 
2 *784:6 *6069:A0 23 
*END

*D_NET *785 0.000552249
*CONN
*I *6109:A0 I *D sky130_fd_sc_hd__mux2_1
*I *6617:X O *D sky130_fd_sc_hd__dlygate4sd3_1
*CAP
1 *6109:A0 5.53399e-05
2 *6617:X 5.53399e-05
3 *237:138 *6109:A0 8.31018e-05
4 *510:14 *6109:A0 5.50049e-05
5 *622:30 *6109:A0 2.93845e-05
6 *625:116 *6109:A0 0.000230604
7 *625:166 *6109:A0 4.34745e-05
*RES
1 *6617:X *6109:A0 49.0036 
*END

*D_NET *786 0.00190013
*CONN
*I *6004:A0 I *D sky130_fd_sc_hd__mux2_1
*I *6618:X O *D sky130_fd_sc_hd__dlygate4sd3_1
*CAP
1 *6004:A0 0.000224424
2 *6618:X 0.000429165
3 *786:10 0.000653589
4 *6004:S *6004:A0 2.93845e-05
5 *165:8 *786:10 1.44813e-05
6 *460:80 *786:10 0
7 *461:10 *786:10 0.000111852
8 *536:8 *786:10 1.32314e-05
9 *536:23 *786:10 0.000145611
10 *544:10 *786:10 0
11 *724:122 *786:10 0.000138136
12 *724:134 *6004:A0 0.000140259
13 *724:134 *786:10 0
*RES
1 *6618:X *786:10 45.3743 
2 *786:10 *6004:A0 41.9564 
*END

*D_NET *787 0.00214812
*CONN
*I *6037:A0 I *D sky130_fd_sc_hd__mux2_1
*I *6619:X O *D sky130_fd_sc_hd__dlygate4sd3_1
*CAP
1 *6037:A0 0.000579465
2 *6619:X 6.87722e-05
3 *787:8 0.000648237
4 *237:84 *787:8 2.5415e-05
5 *287:8 *6037:A0 0.000826229
*RES
1 *6619:X *787:8 39.2014 
2 *787:8 *6037:A0 47.1971 
*END

*D_NET *788 0.000709871
*CONN
*I *6166:A0 I *D sky130_fd_sc_hd__mux2_1
*I *6620:X O *D sky130_fd_sc_hd__dlygate4sd3_1
*CAP
1 *6166:A0 0.000111165
2 *6620:X 4.11681e-05
3 *788:8 0.000152334
4 *5997:A3 *788:8 8.85189e-05
5 *382:151 *6166:A0 8.88148e-05
6 *390:12 *6166:A0 0.000139352
7 *489:66 *788:8 8.85189e-05
*RES
1 *6620:X *788:8 39.2014 
2 *788:8 *6166:A0 40.7757 
*END

*D_NET *789 0.000894113
*CONN
*I *6051:A0 I *D sky130_fd_sc_hd__mux2_1
*I *6622:X O *D sky130_fd_sc_hd__dlygate4sd3_1
*CAP
1 *6051:A0 0.000349509
2 *6622:X 7.79692e-05
3 *789:8 0.000427478
4 *6051:S *6051:A0 6.53345e-06
5 *6298:A1 *6051:A0 3.26241e-05
*RES
1 *6622:X *789:8 39.2014 
2 *789:8 *6051:A0 42.4329 
*END

*D_NET *790 0.00486264
*CONN
*I *5997:S0 I *D sky130_fd_sc_hd__mux4_1
*I *5929:A I *D sky130_fd_sc_hd__buf_8
*I *5922:A I *D sky130_fd_sc_hd__buf_8
*I *6467:Q O *D sky130_fd_sc_hd__dfrtp_4
*CAP
1 *5997:S0 0
2 *5929:A 0
3 *5922:A 0
4 *6467:Q 0.000530971
5 *790:46 0.000374175
6 *790:33 0.000876996
7 *790:14 0.00050282
8 *790:12 0.000530971
9 *790:12 *791:14 2.93845e-05
10 *790:12 *791:35 0.00030254
11 *790:33 *791:35 0.000224364
12 *106:8 *790:12 1.69668e-05
13 *216:27 *790:12 3.93703e-05
14 *225:12 *790:33 0.000137651
15 *226:12 *790:12 3.34129e-05
16 *226:83 *790:12 1.76557e-05
17 *226:279 *790:33 0
18 *232:12 *790:33 0.000134929
19 *232:12 *790:46 8.34394e-05
20 *232:21 *790:46 6.51763e-05
21 *287:20 *790:12 4.70953e-05
22 *287:24 *790:33 5.3304e-05
23 *292:18 *790:46 6.95768e-05
24 *362:22 *790:46 5.77379e-05
25 *428:65 *790:33 6.00922e-06
26 *575:16 *790:33 0.000436756
27 *636:84 *790:46 0.000180415
28 *737:8 *790:33 0.000110922
*RES
1 *6467:Q *790:12 46.7414 
2 *790:12 *790:14 15 
3 *790:14 *5922:A 23 
4 *790:14 *790:33 42.47 
5 *790:33 *5929:A 23 
6 *790:33 *790:46 38.0786 
7 *790:46 *5997:S0 23 
*END

*D_NET *791 0.00627297
*CONN
*I *5997:S1 I *D sky130_fd_sc_hd__mux4_1
*I *5930:A I *D sky130_fd_sc_hd__buf_6
*I *5923:A I *D sky130_fd_sc_hd__buf_6
*I *6468:Q O *D sky130_fd_sc_hd__dfrtp_1
*CAP
1 *5997:S1 0
2 *5930:A 0
3 *5923:A 0
4 *6468:Q 0.000462418
5 *791:50 0.000648366
6 *791:35 0.00137034
7 *791:14 0.000739995
8 *791:10 0.000480436
9 *6202:A *791:10 5.37348e-06
10 *6425:D *791:10 2.65879e-05
11 *6505:A *791:50 0
12 *106:8 *791:35 6.68793e-05
13 *216:27 *791:35 1.69668e-05
14 *226:12 *791:14 5.50106e-05
15 *226:12 *791:35 0.000130423
16 *226:83 *791:35 0.000268873
17 *233:6 *791:50 5.50049e-05
18 *233:31 *791:50 0.000125213
19 *287:24 *791:35 9.41704e-05
20 *480:8 *791:10 0
21 *559:10 *791:35 0.000352421
22 *559:10 *791:50 0.000223682
23 *575:16 *791:35 2.87922e-05
24 *575:16 *791:50 2.81066e-05
25 *636:84 *791:50 0.000313923
26 *658:26 *791:50 0
27 *680:10 *791:10 0
28 *680:18 *791:10 0.000223692
29 *790:12 *791:14 2.93845e-05
30 *790:12 *791:35 0.00030254
31 *790:33 *791:35 0.000224364
*RES
1 *6468:Q *791:10 44.6907 
2 *791:10 *791:14 15.6214 
3 *791:14 *5923:A 23 
4 *791:14 *791:35 46.675 
5 *791:35 *5930:A 23 
6 *791:35 *791:50 44.6036 
7 *791:50 *5997:S1 23 
*END

*D_NET *792 0.00418452
*CONN
*I *5926:A I *D sky130_fd_sc_hd__inv_2
*I *6257:A I *D sky130_fd_sc_hd__xnor2_1
*I *6271:A3 I *D sky130_fd_sc_hd__a31o_1
*I *6264:A I *D sky130_fd_sc_hd__xnor2_1
*I *6469:Q O *D sky130_fd_sc_hd__dfrtp_2
*CAP
1 *5926:A 0
2 *6257:A 0
3 *6271:A3 0
4 *6264:A 0.000135368
5 *6469:Q 0
6 *792:45 0.000175529
7 *792:18 0.000484781
8 *792:8 0.00120787
9 *792:4 0.00103399
10 *792:18 *797:19 0.000141879
11 *6469:RESET_B *792:8 0.000434428
12 *6469:RESET_B *792:18 0.000241703
13 *229:14 *792:45 0
14 *444:10 *6264:A 0.000247239
15 *450:8 *6264:A 2.46906e-05
16 *709:185 *792:45 5.70419e-05
*RES
1 *6469:Q *792:4 23 
2 *792:4 *792:8 12.4286 
3 *792:8 *792:18 37.6643 
4 *792:18 *6264:A 26.48 
5 *792:18 *6271:A3 23 
6 *792:8 *6257:A 23 
7 *792:4 *792:45 33.1486 
8 *792:45 *5926:A 23 
*END

*D_NET *793 0.00156864
*CONN
*I *5934:A I *D sky130_fd_sc_hd__clkbuf_8
*I *6470:Q O *D sky130_fd_sc_hd__dfrtp_1
*CAP
1 *5934:A 0.000243688
2 *6470:Q 0.000117922
3 *793:8 0.00036161
4 *6470:RESET_B *793:8 0
5 *152:10 *5934:A 5.70419e-05
6 *237:12 *5934:A 0.000399291
7 *237:66 *5934:A 0.000228903
8 *411:26 *793:8 0.000160182
*RES
1 *6470:Q *793:8 40.2579 
2 *793:8 *5934:A 44.815 
*END

*D_NET *794 0.00475473
*CONN
*I *6461:D I *D sky130_fd_sc_hd__dfrtp_1
*I *5895:A I *D sky130_fd_sc_hd__xor2_1
*I *6272:A I *D sky130_fd_sc_hd__xor2_1
*I *6277:A I *D sky130_fd_sc_hd__xnor2_1
*I *6475:Q O *D sky130_fd_sc_hd__dfrtp_2
*CAP
1 *6461:D 3.67333e-05
2 *5895:A 0.000119494
3 *6272:A 0
4 *6277:A 0
5 *6475:Q 0.000258879
6 *794:34 0.000938509
7 *794:25 0.000978747
8 *794:16 0.000455344
9 *6472:RESET_B *5895:A 7.99973e-05
10 *6472:RESET_B *794:34 0.000203647
11 *6475:D *794:16 5.25626e-05
12 *160:8 *794:16 0
13 *445:16 *5895:A 0
14 *445:16 *794:34 0
15 *490:62 *5895:A 0
16 *702:22 *794:16 0.000186869
17 *702:22 *794:25 0.000432103
18 *702:22 *794:34 0.000885098
19 *709:25 *794:16 0.000126751
*RES
1 *6475:Q *794:16 44.4007 
2 *794:16 *6277:A 38 
3 *794:16 *794:25 5.77929 
4 *794:25 *6272:A 38 
5 *794:25 *794:34 19.6889 
6 *794:34 *5895:A 41.1382 
7 *794:34 *6461:D 38.9425 
*END

*D_NET *795 0.00278332
*CONN
*I *6457:D I *D sky130_fd_sc_hd__dfrtp_1
*I *5896:B I *D sky130_fd_sc_hd__xor2_1
*I *6261:A1 I *D sky130_fd_sc_hd__mux2_1
*I *6471:Q O *D sky130_fd_sc_hd__dfrtp_1
*CAP
1 *6457:D 0.00047421
2 *5896:B 0.000218856
3 *6261:A1 0.000279731
4 *6471:Q 9.19008e-05
5 *795:21 0.000812544
6 *795:8 0.000491109
7 *5896:B *5896:A 5.73309e-05
8 *6457:CLK *6457:D 8.15864e-05
9 *208:8 *5896:B 0.00018701
10 *239:96 *6261:A1 8.90445e-05
*RES
1 *6471:Q *795:8 39.0979 
2 *795:8 *6261:A1 42.9921 
3 *795:8 *795:21 1.90571 
4 *795:21 *5896:B 43.075 
5 *795:21 *6457:D 45.9543 
*END

*D_NET *796 0.00156084
*CONN
*I *6458:D I *D sky130_fd_sc_hd__dfrtp_1
*I *5894:B I *D sky130_fd_sc_hd__xor2_1
*I *6265:A1 I *D sky130_fd_sc_hd__mux2_1
*I *6472:Q O *D sky130_fd_sc_hd__dfrtp_1
*CAP
1 *6458:D 5.49641e-05
2 *5894:B 0.000136825
3 *6265:A1 0.00027544
4 *6472:Q 3.76283e-05
5 *796:8 0.000412265
6 *796:6 9.25924e-05
7 *5894:B *824:8 3.92407e-05
8 *6265:S *6265:A1 0.000102389
9 *6458:CLK *6458:D 3.63733e-05
10 *6458:CLK *796:6 1.14154e-05
11 *6472:RESET_B *6265:A1 9.98891e-05
12 *206:10 *6265:A1 0
13 *207:14 *6265:A1 0
14 *239:67 *6265:A1 3.47032e-05
15 *239:96 *5894:B 0
16 *239:96 *6265:A1 0
17 *446:8 *6265:A1 3.91386e-05
18 *490:35 *6265:A1 0
19 *709:90 *5894:B 0
20 *712:14 *5894:B 0
21 *712:27 *6458:D 0.000187976
*RES
1 *6472:Q *796:6 23.8493 
2 *796:6 *796:8 15 
3 *796:8 *6265:A1 43.51 
4 *796:8 *5894:B 40.61 
5 *796:6 *6458:D 25.0507 
*END

*D_NET *797 0.00509855
*CONN
*I *5893:B I *D sky130_fd_sc_hd__xor2_1
*I *6459:D I *D sky130_fd_sc_hd__dfrtp_1
*I *6269:A1 I *D sky130_fd_sc_hd__mux2_1
*I *6473:Q O *D sky130_fd_sc_hd__dfrtp_1
*CAP
1 *5893:B 0.000249429
2 *6459:D 0.000197158
3 *6269:A1 0
4 *6473:Q 0.000188255
5 *797:19 0.00116781
6 *797:10 0.000909479
7 *6459:CLK *5893:B 0.000134687
8 *6459:CLK *6459:D 7.44257e-05
9 *6469:RESET_B *797:19 0.000244711
10 *226:28 *797:19 0
11 *226:45 *5893:B 0.00064384
12 *226:45 *797:19 0.000381644
13 *237:24 *797:19 0
14 *237:32 *797:19 0.000146951
15 *239:16 *797:19 0.000188256
16 *239:30 *797:10 8.62876e-05
17 *239:30 *797:19 1.14452e-05
18 *487:71 *5893:B 0.000111158
19 *487:73 *5893:B 6.79006e-05
20 *709:17 *797:10 7.7086e-05
21 *709:17 *797:19 6.42902e-05
22 *711:109 *797:10 1.18615e-05
23 *792:18 *797:19 0.000141879
*RES
1 *6473:Q *797:10 41.3557 
2 *797:10 *6269:A1 38 
3 *797:10 *797:19 16.6957 
4 *797:19 *6459:D 41.5007 
5 *797:19 *5893:B 46.5964 
*END

*D_NET *798 0.00174727
*CONN
*I *6460:D I *D sky130_fd_sc_hd__dfrtp_1
*I *5892:B I *D sky130_fd_sc_hd__xor2_1
*I *6273:A1 I *D sky130_fd_sc_hd__mux2_1
*I *6474:Q O *D sky130_fd_sc_hd__dfrtp_1
*CAP
1 *6460:D 0.000260671
2 *5892:B 0.000131128
3 *6273:A1 0.000116619
4 *6474:Q 0
5 *798:21 0.000435746
6 *798:6 0.000160565
7 *5892:B *5892:A 1.94693e-05
8 *6460:D *5892:A 3.16784e-05
9 *6460:CLK *6460:D 4.62951e-05
10 *204:10 *5892:B 0
11 *204:10 *6460:D 1.14154e-05
12 *239:54 *6273:A1 0.000225265
13 *239:54 *798:21 8.62783e-05
14 *709:38 *6273:A1 0.00014411
15 *709:48 *6273:A1 4.32475e-05
16 *709:48 *798:21 3.47776e-05
*RES
1 *6474:Q *798:6 38 
2 *798:6 *6273:A1 41.5836 
3 *798:6 *798:21 16.2014 
4 *798:21 *5892:B 24.9471 
5 *798:21 *6460:D 27.4743 
*END

*D_NET *799 0.000169491
*CONN
*I *6577:A I *D sky130_fd_sc_hd__dlygate4sd3_1
*I *6457:Q O *D sky130_fd_sc_hd__dfrtp_1
*CAP
1 *6577:A 8.47456e-05
2 *6457:Q 8.47456e-05
*RES
1 *6457:Q *6577:A 47.5743 
*END

*D_NET *800 0.000627134
*CONN
*I *6517:A I *D sky130_fd_sc_hd__dlygate4sd3_1
*I *6458:Q O *D sky130_fd_sc_hd__dfrtp_1
*CAP
1 *6517:A 0.000203691
2 *6458:Q 6.56165e-05
3 *800:8 0.000269308
4 *226:45 *800:8 8.85189e-05
*RES
1 *6458:Q *800:8 39.2014 
2 *800:8 *6517:A 41.3764 
*END

*D_NET *801 0.000673261
*CONN
*I *6599:A I *D sky130_fd_sc_hd__dlygate4sd3_1
*I *6459:Q O *D sky130_fd_sc_hd__dfrtp_1
*CAP
1 *6599:A 0
2 *6459:Q 0.000290005
3 *801:10 0.000290005
4 *801:10 *825:16 0
5 *210:12 *801:10 9.32509e-05
6 *709:211 *801:10 0
7 *709:229 *801:10 0
*RES
1 *6459:Q *801:10 43.3443 
2 *801:10 *6599:A 38 
*END

*D_NET *802 0.000622384
*CONN
*I *6588:A I *D sky130_fd_sc_hd__dlygate4sd3_1
*I *6460:Q O *D sky130_fd_sc_hd__dfrtp_1
*CAP
1 *6588:A 0
2 *6460:Q 0.000201945
3 *802:6 0.000201945
4 *6460:RESET_B *802:6 0.000218493
*RES
1 *6460:Q *802:6 27.4329 
2 *802:6 *6588:A 23 
*END

*D_NET *803 0.000713754
*CONN
*I *6566:A I *D sky130_fd_sc_hd__dlygate4sd3_1
*I *6461:Q O *D sky130_fd_sc_hd__dfrtp_1
*CAP
1 *6566:A 6.33213e-05
2 *6461:Q 0.000155114
3 *803:10 0.000218435
4 *6461:RESET_B *803:10 4.06849e-05
5 *209:16 *803:10 0.000139704
6 *226:45 *803:10 0
7 *490:62 *6566:A 9.64943e-05
*RES
1 *6461:Q *803:10 41.0036 
2 *803:10 *6566:A 39.0979 
*END

*D_NET *804 0.000435157
*CONN
*I *5885:B I *D sky130_fd_sc_hd__xnor2_1
*I *6462:Q O *D sky130_fd_sc_hd__dfrtp_1
*CAP
1 *5885:B 1.89342e-05
2 *6462:Q 0.000120884
3 *804:8 0.000139818
4 *6462:RESET_B *804:8 0
5 *6477:RESET_B *5885:B 5.70419e-05
6 *491:35 *5885:B 9.84794e-05
*RES
1 *6462:Q *804:8 39.9057 
2 *804:8 *5885:B 39.0979 
*END

*D_NET *805 0.0010305
*CONN
*I *5883:A_N I *D sky130_fd_sc_hd__nand3b_1
*I *5882:B1_N I *D sky130_fd_sc_hd__a21bo_1
*I *6463:Q O *D sky130_fd_sc_hd__dfrtp_1
*CAP
1 *5883:A_N 0
2 *5882:B1_N 0
3 *6463:Q 0.000198843
4 *805:18 0.000163465
5 *805:8 0.000362308
6 *5887:B *805:18 0
7 *183:33 *805:18 4.06849e-05
8 *198:16 *805:18 5.61311e-05
9 *712:27 *805:8 0.000123934
10 *712:33 *805:18 8.51329e-05
*RES
1 *6463:Q *805:8 26.9771 
2 *805:8 *805:18 34.205 
3 *805:18 *5882:B1_N 23 
4 *805:8 *5883:A_N 23 
*END

*D_NET *806 0.00157579
*CONN
*I *5888:A I *D sky130_fd_sc_hd__xnor2_1
*I *6464:Q O *D sky130_fd_sc_hd__dfrtp_1
*CAP
1 *5888:A 0
2 *6464:Q 4.74413e-05
3 *806:12 0.000622969
4 *806:8 0.00067041
5 *6464:RESET_B *806:12 0.000136486
6 *479:61 *806:12 0
7 *487:65 *806:12 0
8 *709:229 *806:12 0
9 *712:33 *806:8 9.84851e-05
10 *712:33 *806:12 0
11 *718:8 *806:12 0
*RES
1 *6464:Q *806:8 39.0979 
2 *806:8 *806:12 27.1179 
3 *806:12 *5888:A 23 
*END

*D_NET *807 0.00141067
*CONN
*I *5876:A I *D sky130_fd_sc_hd__xnor2_2
*I *6465:Q O *D sky130_fd_sc_hd__dfrtp_1
*CAP
1 *5876:A 0.00060478
2 *6465:Q 7.41099e-05
3 *807:8 0.00067889
4 *5876:A *825:16 0
5 *5899:A *807:8 5.2894e-05
6 *6229:A1 *5876:A 0
7 *698:8 *5876:A 0
8 *712:33 *5876:A 0
9 *718:8 *5876:A 0
*RES
1 *6465:Q *807:8 39.5743 
2 *807:8 *5876:A 49.0614 
*END

*D_NET *808 0.00125803
*CONN
*I *5884:A I *D sky130_fd_sc_hd__xnor2_1
*I *6466:Q O *D sky130_fd_sc_hd__dfrtp_1
*CAP
1 *5884:A 0
2 *6466:Q 0.000440584
3 *808:10 0.000440584
4 *5876:B *808:10 0.000143655
5 *181:25 *808:10 0
6 *187:16 *808:10 3.70187e-05
7 *712:33 *808:10 0.000196188
*RES
1 *6466:Q *808:10 47.5079 
2 *808:10 *5884:A 38 
*END

*D_NET *809 0.000282069
*CONN
*I *5869:A I *D sky130_fd_sc_hd__clkbuf_4
*I *6476:Q O *D sky130_fd_sc_hd__dfrtp_1
*CAP
1 *5869:A 0.000141035
2 *6476:Q 0.000141035
*RES
1 *6476:Q *5869:A 48.0714 
*END

*D_NET *810 0.0120435
*CONN
*I *5900:A I *D sky130_fd_sc_hd__inv_2
*I *6075:C I *D sky130_fd_sc_hd__and4b_1
*I *5872:B I *D sky130_fd_sc_hd__and3_1
*I *6002:B I *D sky130_fd_sc_hd__and4b_1
*I *6185:B I *D sky130_fd_sc_hd__and4b_1
*I *6113:B I *D sky130_fd_sc_hd__or2_1
*I *6279:A0 I *D sky130_fd_sc_hd__mux2_1
*I *5885:A I *D sky130_fd_sc_hd__xnor2_1
*I *5879:B I *D sky130_fd_sc_hd__xor2_1
*I *5878:A2 I *D sky130_fd_sc_hd__a21oi_2
*I *5870:B I *D sky130_fd_sc_hd__and4_1
*I *6477:Q O *D sky130_fd_sc_hd__dfrtp_4
*CAP
1 *5900:A 7.16308e-05
2 *6075:C 0
3 *5872:B 0
4 *6002:B 0
5 *6185:B 1.50079e-05
6 *6113:B 0.00022998
7 *6279:A0 0
8 *5885:A 0
9 *5879:B 0
10 *5878:A2 0
11 *5870:B 0.000302347
12 *6477:Q 2.34823e-05
13 *810:119 0.00033351
14 *810:107 0.000597641
15 *810:83 0.00029563
16 *810:81 0.00058925
17 *810:79 0.00053248
18 *810:75 0.000855409
19 *810:55 0.000318891
20 *810:45 0.000318891
21 *810:18 0.000904454
22 *810:14 0.00079671
23 *810:12 0.000802545
24 *810:6 0.0011572
25 *6113:B *6020:A 9.23966e-05
26 *6113:B *6020:B 4.2573e-05
27 *6113:B *811:26 0
28 *6113:B *811:32 9.67842e-05
29 *6113:B *811:38 1.58805e-05
30 *810:79 *811:8 0.000104869
31 *810:79 *811:12 0.000255292
32 *810:79 *811:20 0
33 *810:81 *811:20 0
34 *810:119 *5870:C 5.67058e-05
35 *810:119 *811:76 2.18506e-05
36 *810:119 *812:38 0.000114083
37 *810:119 *812:46 1.01436e-05
38 *810:119 *812:68 4.17736e-05
39 *5872:A *810:119 5.90675e-06
40 *5878:A1 *5870:B 0.000139077
41 *6185:D *6113:B 0
42 *6222:A0 *810:55 0
43 *6222:S *810:55 0.000114431
44 *6224:A *810:18 0.000169674
45 *6279:A1 *810:14 0
46 *6280:A *810:55 3.71251e-05
47 *6281:A *5870:B 1.14154e-05
48 *6281:B *5870:B 2.21582e-05
49 *6462:RESET_B *810:55 1.83667e-05
50 *6476:CLK *810:12 0.000105934
51 *6476:CLK *810:75 1.94693e-05
52 *6476:RESET_B *810:6 0
53 *6476:RESET_B *810:75 7.39034e-05
54 *6477:RESET_B *810:12 0.00013404
55 *6478:RESET_B *810:75 0.00026916
56 *162:10 *810:12 3.83778e-05
57 *162:10 *810:55 0.000271476
58 *182:26 *810:75 0
59 *182:44 *810:81 0
60 *182:102 *6185:B 5.50049e-05
61 *182:104 *810:119 2.32101e-05
62 *182:114 *5870:B 4.92506e-05
63 *186:10 *810:18 3.60842e-05
64 *186:12 *810:18 1.19692e-05
65 *186:41 *5870:B 4.95081e-05
66 *191:6 *5870:B 9.84851e-05
67 *192:12 *810:14 0
68 *192:12 *810:18 0
69 *193:18 *810:18 8.62783e-05
70 *198:16 *810:14 0
71 *198:16 *810:18 0
72 *198:16 *810:55 0
73 *211:10 *5900:A 5.41385e-05
74 *211:10 *810:75 0.00033935
75 *297:10 *6185:B 5.50049e-05
76 *297:10 *810:81 7.03766e-05
77 *297:10 *810:83 1.58805e-05
78 *297:10 *810:107 0.000338282
79 *297:10 *810:119 0.000143655
80 *298:18 *810:79 0
81 *298:18 *810:81 0
82 *338:8 *810:81 2.79004e-05
83 *420:85 *810:75 0
84 *460:8 *810:79 0
85 *460:8 *810:119 0
86 *479:61 *810:18 0
87 *491:20 *810:12 0
88 *491:20 *810:14 0
89 *491:22 *810:12 4.93767e-05
90 *491:81 *810:12 8.63919e-05
91 *697:8 *810:55 0
92 *710:183 *810:12 2.54046e-05
*RES
1 *6477:Q *810:6 23.4971 
2 *810:6 *810:12 24.7979 
3 *810:12 *810:14 3.31429 
4 *810:14 *810:18 26.7657 
5 *810:18 *5870:B 28.5721 
6 *810:18 *5878:A2 23 
7 *810:14 *5879:B 38 
8 *810:12 *810:45 15 
9 *810:45 *810:55 37.7886 
10 *810:55 *5885:A 23 
11 *810:45 *6279:A0 23 
12 *810:6 *810:75 42.1593 
13 *810:75 *810:79 21.1314 
14 *810:79 *810:81 4.72286 
15 *810:81 *810:83 0.849286 
16 *810:83 *6113:B 42.1843 
17 *810:83 *6185:B 38.6214 
18 *810:81 *810:107 18.9564 
19 *810:107 *810:119 35.6757 
20 *810:119 *6002:B 23 
21 *810:107 *5872:B 23 
22 *810:79 *6075:C 38 
23 *810:75 *5900:A 24.595 
*END

*D_NET *811 0.00905921
*CONN
*I *6039:D I *D sky130_fd_sc_hd__and4_1
*I *6057:D I *D sky130_fd_sc_hd__and4b_1
*I *6075:A_N I *D sky130_fd_sc_hd__and4b_1
*I *6185:A_N I *D sky130_fd_sc_hd__and4b_1
*I *6002:D I *D sky130_fd_sc_hd__and4b_1
*I *6282:A0 I *D sky130_fd_sc_hd__mux2_1
*I *5870:D I *D sky130_fd_sc_hd__and4_1
*I *5878:B1 I *D sky130_fd_sc_hd__a21oi_2
*I *5872:C I *D sky130_fd_sc_hd__and3_1
*I *6020:B I *D sky130_fd_sc_hd__or2_1
*I *5902:B I *D sky130_fd_sc_hd__nand2_1
*I *6094:B I *D sky130_fd_sc_hd__or2_1
*I *6478:Q O *D sky130_fd_sc_hd__dfrtp_4
*CAP
1 *6039:D 0.000300215
2 *6057:D 0.000265558
3 *6075:A_N 0
4 *6185:A_N 0
5 *6002:D 0
6 *6282:A0 0.00014143
7 *5870:D 5.14853e-05
8 *5878:B1 4.46537e-05
9 *5872:C 8.27171e-05
10 *6020:B 0.000172544
11 *5902:B 0
12 *6094:B 0.000100525
13 *6478:Q 4.92976e-05
14 *811:87 0.000192916
15 *811:78 0.000201965
16 *811:76 0.000270366
17 *811:74 0.000113055
18 *811:38 0.000323259
19 *811:32 0.000689595
20 *811:26 0.000463592
21 *811:20 0.000385171
22 *811:16 0.000439597
23 *811:12 0.00049164
24 *811:8 0.00043461
25 *6020:B *6020:A 0.000109563
26 *6057:D *6057:C 5.50106e-05
27 *6057:D *812:107 2.78552e-05
28 *811:16 *812:88 4.94192e-05
29 *811:16 *812:107 4.84599e-05
30 *811:32 *6020:A 0.000119313
31 *811:32 *812:46 7.53384e-06
32 *5878:A1 *5878:B1 5.50106e-05
33 *6039:A *6039:D 5.3304e-05
34 *6075:D *6057:D 7.1349e-05
35 *6075:D *811:16 1.41765e-06
36 *6094:A *6094:B 5.50049e-05
37 *6113:B *6020:B 4.2573e-05
38 *6113:B *811:26 0
39 *6113:B *811:32 9.67842e-05
40 *6113:B *811:38 1.58805e-05
41 *6185:D *811:32 8.62876e-05
42 *6185:D *811:38 0
43 *182:102 *5872:C 0.000121616
44 *182:102 *811:76 0.000264553
45 *182:104 *811:76 0.000115809
46 *182:104 *811:78 0.000238313
47 *182:114 *5878:B1 0.000185905
48 *182:114 *811:78 0.000127821
49 *182:142 *6057:D 2.64616e-05
50 *185:8 *811:20 0.000115279
51 *185:8 *811:26 2.91902e-05
52 *185:8 *811:32 3.70094e-05
53 *192:12 *6282:A0 0
54 *193:10 *5870:D 0
55 *199:40 *6094:B 5.54148e-05
56 *211:31 *6020:B 0.00010018
57 *297:10 *811:76 0.000310641
58 *298:18 *811:8 3.56537e-05
59 *298:18 *811:12 8.43721e-05
60 *401:12 *811:38 0.000148412
61 *420:27 *5870:D 1.86869e-05
62 *420:27 *6282:A0 1.44813e-05
63 *420:31 *6282:A0 1.47563e-05
64 *456:12 *5878:B1 0.000227208
65 *456:12 *6282:A0 0.00014411
66 *456:12 *811:78 5.50106e-05
67 *460:8 *811:20 6.0093e-05
68 *460:8 *811:32 3.72639e-05
69 *460:8 *811:38 0
70 *810:79 *811:8 0.000104869
71 *810:79 *811:12 0.000255292
72 *810:79 *811:20 0
73 *810:81 *811:20 0
74 *810:119 *811:76 2.18506e-05
*RES
1 *6478:Q *811:8 39.5536 
2 *811:8 *811:12 18.3143 
3 *811:12 *811:16 3.02429 
4 *811:16 *811:20 20.7793 
5 *811:20 *811:26 1.61571 
6 *811:26 *811:32 20.0336 
7 *811:32 *811:38 34.0186 
8 *811:38 *6094:B 25.0714 
9 *811:38 *5902:B 23 
10 *811:32 *6020:B 26.6457 
11 *811:26 *5872:C 39.4086 
12 *811:20 *811:74 15 
13 *811:74 *811:76 4.30339 
14 *811:76 *811:78 4.08589 
15 *811:78 *5878:B1 25.5271 
16 *811:78 *811:87 15 
17 *811:87 *5870:D 38.8493 
18 *811:87 *6282:A0 40.9621 
19 *811:76 *6002:D 23 
20 *811:74 *6185:A_N 23 
21 *811:16 *6075:A_N 23 
22 *811:12 *6057:D 27.583 
23 *811:8 *6039:D 41.48 
*END

*D_NET *812 0.00966554
*CONN
*I *6057:C I *D sky130_fd_sc_hd__and4b_1
*I *6039:C I *D sky130_fd_sc_hd__and4_1
*I *6075:B I *D sky130_fd_sc_hd__and4b_1
*I *6002:C I *D sky130_fd_sc_hd__and4b_1
*I *5870:C I *D sky130_fd_sc_hd__and4_1
*I *6020:A I *D sky130_fd_sc_hd__or2_1
*I *5886:A I *D sky130_fd_sc_hd__inv_2
*I *6285:A0 I *D sky130_fd_sc_hd__mux2_1
*I *5874:A I *D sky130_fd_sc_hd__xnor2_1
*I *6479:Q O *D sky130_fd_sc_hd__dfrtp_4
*CAP
1 *6057:C 1.9587e-05
2 *6039:C 0
3 *6075:B 0
4 *6002:C 0
5 *5870:C 0.00020264
6 *6020:A 0.000289585
7 *5886:A 0
8 *6285:A0 0
9 *5874:A 0.000238691
10 *6479:Q 0
11 *812:113 0.000118489
12 *812:107 0.000425827
13 *812:88 0.000737625
14 *812:68 0.000216861
15 *812:46 0.000614172
16 *812:38 0.000626354
17 *812:36 0.00169641
18 *812:10 0.000634897
19 *812:4 0.0013552
20 *6020:B *6020:A 0.000109563
21 *6057:B *812:107 5.50106e-05
22 *6057:D *6057:C 5.50106e-05
23 *6057:D *812:107 2.78552e-05
24 *6075:D *812:107 0.000116507
25 *6113:B *6020:A 9.23966e-05
26 *6283:A *812:36 0.000100733
27 *163:10 *812:36 3.28609e-05
28 *182:56 *6020:A 0.000271799
29 *182:104 *5870:C 0.000172996
30 *182:104 *812:68 5.50049e-05
31 *182:114 *5870:C 0.000147988
32 *182:142 *812:107 4.08664e-05
33 *198:16 *5874:A 0
34 *198:16 *812:10 0
35 *199:10 *6020:A 1.40958e-05
36 *199:10 *812:46 0.000141173
37 *211:25 *812:113 0.000224345
38 *211:31 *6020:A 3.53115e-05
39 *319:12 *812:113 0
40 *420:27 *812:38 0
41 *420:27 *812:46 0
42 *420:31 *812:36 0
43 *420:31 *812:38 0
44 *420:47 *812:10 4.07715e-05
45 *420:85 *812:36 0
46 *458:10 *5874:A 0.000296035
47 *458:10 *812:10 1.14452e-05
48 *460:8 *812:36 0
49 *460:8 *812:38 0
50 *460:8 *812:46 0
51 *696:8 *5874:A 0
52 *810:119 *5870:C 5.67058e-05
53 *810:119 *812:38 0.000114083
54 *810:119 *812:46 1.01436e-05
55 *810:119 *812:68 4.17736e-05
56 *811:16 *812:88 4.94192e-05
57 *811:16 *812:107 4.84599e-05
58 *811:32 *6020:A 0.000119313
59 *811:32 *812:46 7.53384e-06
*RES
1 *6479:Q *812:4 23 
2 *812:4 *812:10 22.6229 
3 *812:10 *5874:A 43.075 
4 *812:10 *6285:A0 38 
5 *812:4 *812:36 31.0121 
6 *812:36 *812:38 5.42714 
7 *812:38 *812:46 21.3593 
8 *812:46 *5886:A 23 
9 *812:46 *6020:A 31.4307 
10 *812:38 *812:68 15.6214 
11 *812:68 *5870:C 27.5986 
12 *812:68 *6002:C 23 
13 *812:36 *812:88 20.8621 
14 *812:88 *6075:B 23 
15 *812:88 *812:107 6.58714 
16 *812:107 *812:113 32.9621 
17 *812:113 *6039:C 23 
18 *812:107 *6057:C 23.6214 
*END

*D_NET *813 0.00434819
*CONN
*I *6231:A0 I *D sky130_fd_sc_hd__mux2_1
*I *5868:A I *D sky130_fd_sc_hd__inv_2
*I *6451:D I *D sky130_fd_sc_hd__dfrtp_1
*I *6438:Q O *D sky130_fd_sc_hd__dfrtp_1
*CAP
1 *6231:A0 0.000133541
2 *5868:A 0.000147109
3 *6451:D 0.00126273
4 *6438:Q 0
5 *813:10 0.00155577
6 *813:4 0.000279473
7 *6232:A *5868:A 5.50106e-05
8 *6232:A *6451:D 0.000355029
9 *6451:RESET_B *6451:D 9.09623e-05
10 *143:10 *6451:D 9.53106e-05
11 *226:45 *813:10 0
12 *426:8 *813:10 8.85189e-05
13 *710:30 *6231:A0 0.000230604
14 *710:30 *813:10 0
15 *711:46 *6451:D 5.41288e-05
*RES
1 *6438:Q *813:4 23 
2 *813:4 *813:10 32.2579 
3 *813:10 *6451:D 46.49 
4 *813:10 *5868:A 26.0243 
5 *813:4 *6231:A0 26.0243 
*END

*D_NET *814 0.00520875
*CONN
*I *6558:A I *D sky130_fd_sc_hd__dlygate4sd3_1
*I *6447:D I *D sky130_fd_sc_hd__dfrtp_1
*I *6434:Q O *D sky130_fd_sc_hd__dfrtp_1
*CAP
1 *6558:A 5.22193e-05
2 *6447:D 0
3 *6434:Q 0
4 *814:16 0.00162419
5 *814:6 0.00167641
6 *814:16 *818:10 0.000490936
7 *6262:A *814:16 8.16277e-05
8 *6447:RESET_B *814:16 2.68362e-05
9 *6471:RESET_B *814:16 0.000441978
10 *156:10 *814:16 0.000141954
11 *211:10 *814:16 0.000139346
12 *239:96 *814:16 5.3304e-05
13 *491:35 *6558:A 5.50106e-05
14 *647:27 *6558:A 5.15096e-05
15 *647:27 *814:16 0.000318429
16 *697:8 *6558:A 0
17 *697:8 *814:16 0
18 *710:149 *6558:A 5.50106e-05
*RES
1 *6434:Q *814:6 38 
2 *814:6 *814:16 48.7436 
3 *814:16 *6447:D 23 
4 *814:6 *6558:A 39.4707 
*END

*D_NET *815 0.00423378
*CONN
*I *6557:A I *D sky130_fd_sc_hd__dlygate4sd3_1
*I *6448:D I *D sky130_fd_sc_hd__dfrtp_1
*I *6435:Q O *D sky130_fd_sc_hd__dfrtp_1
*CAP
1 *6557:A 7.5165e-05
2 *6448:D 0.00177644
3 *6435:Q 0
4 *815:4 0.0018516
5 *6435:CLK *6448:D 0.000419143
6 *6435:CLK *6557:A 5.90675e-06
7 *6448:RESET_B *6448:D 2.77452e-05
8 *490:6 *6448:D 2.07355e-05
9 *490:6 *6557:A 5.70419e-05
*RES
1 *6435:Q *815:4 23 
2 *815:4 *6448:D 49.39 
3 *815:4 *6557:A 24.9471 
*END

*D_NET *816 0.00301574
*CONN
*I *6610:A I *D sky130_fd_sc_hd__dlygate4sd3_1
*I *6449:D I *D sky130_fd_sc_hd__dfrtp_1
*I *6436:Q O *D sky130_fd_sc_hd__dfrtp_1
*CAP
1 *6610:A 0
2 *6449:D 0
3 *6436:Q 0.00018617
4 *816:27 0.000220969
5 *816:14 0.000716185
6 *816:6 0.00112333
7 *6436:RESET_B *816:14 0.000564884
8 *411:10 *816:27 0
9 *411:20 *816:27 0
10 *479:57 *816:14 2.21344e-05
11 *479:61 *816:14 0.00012706
12 *487:40 *816:14 0
13 *487:53 *816:14 0
14 *680:10 *816:27 0
15 *719:6 *816:27 5.50106e-05
*RES
1 *6436:Q *816:6 25.5271 
2 *816:6 *816:14 41.455 
3 *816:14 *6449:D 23 
4 *816:6 *816:27 34.2879 
5 *816:27 *6610:A 23 
*END

*D_NET *817 0.00456685
*CONN
*I *6559:A I *D sky130_fd_sc_hd__dlygate4sd3_1
*I *6450:D I *D sky130_fd_sc_hd__dfrtp_1
*I *6437:Q O *D sky130_fd_sc_hd__dfrtp_1
*CAP
1 *6559:A 6.54994e-05
2 *6450:D 0.00189009
3 *6437:Q 0
4 *817:10 0.00197453
5 *817:4 0.00014994
6 *6437:RESET_B *6559:A 5.67058e-05
7 *6450:CLK *6450:D 1.04148e-05
8 *6450:RESET_B *6450:D 1.94693e-05
9 *226:45 *817:10 0
10 *487:69 *6450:D 0.000400204
11 *710:36 *817:10 0
*RES
1 *6437:Q *817:4 23 
2 *817:4 *817:10 31.2014 
3 *817:10 *6450:D 47.94 
4 *817:4 *6559:A 24.4707 
*END

*D_NET *818 0.00166674
*CONN
*I *6452:D I *D sky130_fd_sc_hd__dfrtp_1
*I *6447:Q O *D sky130_fd_sc_hd__dfrtp_1
*CAP
1 *6452:D 0
2 *6447:Q 0.000565476
3 *818:10 0.000565476
4 *711:28 *818:10 4.48568e-05
5 *814:16 *818:10 0.000490936
*RES
1 *6447:Q *818:10 47.6736 
2 *818:10 *6452:D 38 
*END

*D_NET *819 0.000815424
*CONN
*I *6453:D I *D sky130_fd_sc_hd__dfrtp_1
*I *6448:Q O *D sky130_fd_sc_hd__dfrtp_1
*CAP
1 *6453:D 0.000299112
2 *6448:Q 4.50246e-05
3 *819:8 0.000344136
4 *709:99 *819:8 4.08641e-05
5 *712:14 *819:8 8.62876e-05
*RES
1 *6448:Q *819:8 39.2014 
2 *819:8 *6453:D 41.9771 
*END

*D_NET *820 0.00341376
*CONN
*I *6454:D I *D sky130_fd_sc_hd__dfrtp_1
*I *6449:Q O *D sky130_fd_sc_hd__dfrtp_1
*CAP
1 *6454:D 0
2 *6449:Q 0.00031983
3 *820:16 0.000956214
4 *820:10 0.00127604
5 *820:16 *825:8 5.50111e-05
6 *6454:RESET_B *820:16 0.000178818
7 *391:20 *820:10 0.000145583
8 *391:20 *820:16 0.000244791
9 *487:44 *820:10 0.000123944
10 *602:29 *820:16 2.28032e-05
11 *680:10 *820:10 9.07229e-05
*RES
1 *6449:Q *820:10 44.5457 
2 *820:10 *820:16 28.9821 
3 *820:16 *6454:D 23 
*END

*D_NET *821 0.000993918
*CONN
*I *6455:D I *D sky130_fd_sc_hd__dfrtp_1
*I *6450:Q O *D sky130_fd_sc_hd__dfrtp_1
*CAP
1 *6455:D 0.000415479
2 *6450:Q 6.87722e-05
3 *821:8 0.000484252
4 *239:54 *821:8 0
5 *709:59 *821:8 2.5415e-05
*RES
1 *6450:Q *821:8 39.2014 
2 *821:8 *6455:D 43.453 
*END

*D_NET *822 0.000854672
*CONN
*I *6456:D I *D sky130_fd_sc_hd__dfrtp_1
*I *6451:Q O *D sky130_fd_sc_hd__dfrtp_1
*CAP
1 *6456:D 0.000343803
2 *6451:Q 6.95826e-05
3 *822:8 0.000413386
4 *239:54 *822:8 0
5 *709:80 *822:8 2.79004e-05
*RES
1 *6451:Q *822:8 39.2014 
2 *822:8 *6456:D 44.235 
*END

*D_NET *823 0.00108526
*CONN
*I *5896:A I *D sky130_fd_sc_hd__xor2_1
*I *6452:Q O *D sky130_fd_sc_hd__dfrtp_1
*CAP
1 *5896:A 0.000132919
2 *6452:Q 0.000299105
3 *823:10 0.000432024
4 *5896:B *5896:A 5.73309e-05
5 *711:8 *823:10 5.56203e-05
6 *711:14 *823:10 9.67842e-05
7 *711:24 *823:10 1.14762e-05
8 *712:14 *823:10 0
*RES
1 *6452:Q *823:10 42.4329 
2 *823:10 *5896:A 40.5271 
*END

*D_NET *824 0.000261035
*CONN
*I *5894:A I *D sky130_fd_sc_hd__xor2_1
*I *6453:Q O *D sky130_fd_sc_hd__dfrtp_1
*CAP
1 *5894:A 0
2 *6453:Q 0.000110897
3 *824:8 0.000110897
4 *5894:B *824:8 3.92407e-05
5 *239:96 *824:8 0
6 *712:14 *824:8 0
*RES
1 *6453:Q *824:8 40.2579 
2 *824:8 *5894:A 38 
*END

*D_NET *825 0.00443109
*CONN
*I *5893:A I *D sky130_fd_sc_hd__xor2_1
*I *6454:Q O *D sky130_fd_sc_hd__dfrtp_1
*CAP
1 *5893:A 0
2 *6454:Q 0.000924417
3 *825:16 0.000664493
4 *825:8 0.00158891
5 *5876:A *825:16 0
6 *6454:RESET_B *825:8 5.18019e-05
7 *6459:RESET_B *825:16 0
8 *210:12 *825:16 0.000166513
9 *391:20 *825:8 3.7122e-06
10 *487:69 *825:16 0.000875815
11 *709:229 *825:16 0
12 *710:36 *825:16 0
13 *710:38 *825:16 0
14 *711:150 *825:8 0.000100415
15 *711:150 *825:16 0
16 *717:10 *825:16 0
17 *801:10 *825:16 0
18 *820:16 *825:8 5.50111e-05
*RES
1 *6454:Q *825:8 35.905 
2 *825:8 *825:16 45.805 
3 *825:16 *5893:A 23 
*END

*D_NET *826 0.000608712
*CONN
*I *5892:A I *D sky130_fd_sc_hd__xor2_1
*I *6455:Q O *D sky130_fd_sc_hd__dfrtp_1
*CAP
1 *5892:A 0.000115664
2 *6455:Q 4.11681e-05
3 *826:8 0.000156832
4 *5892:B *5892:A 1.94693e-05
5 *6460:D *5892:A 3.16784e-05
6 *204:10 *5892:A 6.68617e-05
7 *204:10 *826:8 8.85189e-05
8 *239:54 *826:8 8.85189e-05
*RES
1 *6455:Q *826:8 39.2014 
2 *826:8 *5892:A 40.4236 
*END

*D_NET *827 0.000197028
*CONN
*I *5895:B I *D sky130_fd_sc_hd__xor2_1
*I *6456:Q O *D sky130_fd_sc_hd__dfrtp_1
*CAP
1 *5895:B 9.8514e-05
2 *6456:Q 9.8514e-05
*RES
1 *6456:Q *5895:B 47.5743 
*END
