*SPEF "ieee 1481-1999"
*DESIGN "AsynFifo"
*DATE "11:11:11 Fri 11 11, 1111"
*VENDOR "OpenRCX"
*PROGRAM "Parallel Extraction"
*VERSION "1.0"
*DESIGN_FLOW "NAME_SCOPE LOCAL" "PIN_CAP NONE"
*DIVIDER /
*DELIMITER :
*BUS_DELIMITER []
*T_UNIT 1 NS
*C_UNIT 1 PF
*R_UNIT 1 OHM
*L_UNIT 1 HENRY

*NAME_MAP
*1 empty
*2 full
*3 r_clk
*4 r_data[0]
*5 r_data[1]
*6 r_data[2]
*7 r_data[3]
*8 r_data[4]
*9 r_data[5]
*10 r_data[6]
*11 r_data[7]
*12 r_rst_n
*13 rd
*16 w_clk
*17 w_data[0]
*18 w_data[1]
*19 w_data[2]
*20 w_data[3]
*21 w_data[4]
*22 w_data[5]
*23 w_data[6]
*24 w_data[7]
*25 w_rst_n
*26 wr
*27 _0000_
*28 _0001_
*29 _0002_
*30 _0003_
*31 _0004_
*32 _0005_
*33 _0006_
*34 _0007_
*35 _0008_
*36 _0009_
*37 _0010_
*38 _0011_
*39 _0012_
*40 _0013_
*41 _0014_
*42 _0015_
*43 _0016_
*44 _0017_
*45 _0018_
*46 _0019_
*47 _0020_
*48 _0021_
*49 _0022_
*50 _0023_
*51 _0024_
*52 _0025_
*53 _0026_
*54 _0027_
*55 _0028_
*56 _0029_
*57 _0030_
*58 _0031_
*59 _0032_
*60 _0033_
*61 _0034_
*62 _0035_
*63 _0036_
*64 _0037_
*65 _0038_
*66 _0039_
*67 _0040_
*68 _0041_
*69 _0042_
*70 _0043_
*71 _0044_
*72 _0045_
*73 _0046_
*74 _0047_
*75 _0048_
*76 _0049_
*77 _0050_
*78 _0051_
*79 _0052_
*80 _0053_
*81 _0054_
*82 _0055_
*83 _0056_
*84 _0057_
*85 _0058_
*86 _0059_
*87 _0060_
*88 _0061_
*89 _0062_
*90 _0063_
*91 _0064_
*92 _0065_
*93 _0066_
*94 _0067_
*95 _0068_
*96 _0069_
*97 _0070_
*98 _0071_
*99 _0072_
*100 _0073_
*101 _0074_
*102 _0075_
*103 _0076_
*104 _0077_
*105 _0078_
*106 _0079_
*107 _0080_
*108 _0081_
*109 _0082_
*110 _0083_
*111 _0084_
*112 _0085_
*113 _0086_
*114 _0087_
*115 _0088_
*116 _0089_
*117 _0090_
*118 _0091_
*119 _0092_
*120 _0093_
*121 _0094_
*122 _0095_
*123 _0096_
*124 _0097_
*125 _0098_
*126 _0099_
*127 _0100_
*128 _0101_
*129 _0102_
*130 _0103_
*131 _0104_
*132 _0105_
*133 _0106_
*134 _0107_
*135 _0108_
*136 _0109_
*137 _0110_
*138 _0111_
*139 _0112_
*140 _0113_
*141 _0114_
*142 _0115_
*143 _0116_
*144 _0117_
*145 _0118_
*146 _0119_
*147 _0120_
*148 _0121_
*149 _0122_
*150 _0123_
*151 _0124_
*152 _0125_
*153 _0126_
*154 _0127_
*155 _0128_
*156 _0129_
*157 _0130_
*158 _0131_
*159 _0132_
*160 _0133_
*161 _0134_
*162 _0135_
*163 _0136_
*164 _0137_
*165 _0138_
*166 _0139_
*167 _0140_
*168 _0141_
*169 _0142_
*170 _0143_
*171 _0144_
*172 _0145_
*173 _0146_
*174 _0147_
*175 _0148_
*176 _0149_
*177 _0150_
*178 _0151_
*179 _0152_
*180 _0153_
*181 _0154_
*182 _0155_
*183 _0156_
*184 _0157_
*185 _0158_
*186 _0159_
*187 _0160_
*188 _0161_
*189 _0162_
*190 _0163_
*191 _0164_
*192 _0165_
*193 _0166_
*194 _0167_
*195 _0168_
*196 _0169_
*197 _0170_
*198 _0171_
*199 _0172_
*200 _0173_
*201 _0174_
*202 _0175_
*203 _0176_
*204 _0177_
*205 _0178_
*206 _0179_
*207 _0180_
*208 _0181_
*209 _0182_
*210 _0183_
*211 _0184_
*212 _0185_
*213 _0186_
*214 _0187_
*215 _0188_
*216 _0189_
*217 _0190_
*218 _0191_
*219 _0192_
*220 _0193_
*221 _0194_
*222 _0195_
*223 _0196_
*224 _0197_
*225 _0198_
*226 _0199_
*227 _0200_
*228 _0201_
*229 _0202_
*230 _0203_
*231 _0204_
*232 _0205_
*233 _0206_
*234 _0207_
*235 _0208_
*236 _0209_
*237 _0210_
*238 _0211_
*239 _0212_
*240 _0213_
*241 _0214_
*242 _0215_
*243 _0216_
*244 _0217_
*245 _0218_
*246 _0219_
*247 _0220_
*248 _0221_
*249 _0222_
*250 _0223_
*251 _0224_
*252 _0225_
*253 _0226_
*254 _0227_
*255 _0228_
*256 _0229_
*257 _0230_
*258 _0231_
*259 _0232_
*260 _0233_
*261 _0234_
*262 _0235_
*263 _0236_
*264 _0237_
*265 _0238_
*266 _0239_
*267 _0240_
*268 _0241_
*269 _0242_
*270 _0243_
*271 _0244_
*272 _0245_
*273 _0246_
*274 _0247_
*275 _0248_
*276 _0249_
*277 _0250_
*278 _0251_
*279 _0252_
*280 _0253_
*281 _0254_
*282 _0255_
*283 _0256_
*284 _0257_
*285 _0258_
*286 _0259_
*287 _0260_
*288 _0261_
*289 _0262_
*290 _0263_
*291 _0264_
*292 _0265_
*293 _0266_
*294 _0267_
*295 _0268_
*296 _0269_
*297 _0270_
*298 _0271_
*299 _0272_
*300 _0273_
*301 _0274_
*302 _0275_
*303 _0276_
*304 _0277_
*305 _0278_
*306 _0279_
*307 _0280_
*308 _0281_
*309 _0282_
*310 _0283_
*311 _0284_
*312 _0285_
*313 _0286_
*314 _0287_
*315 _0288_
*316 _0289_
*317 _0290_
*318 _0291_
*319 _0292_
*320 _0293_
*321 _0294_
*322 _0295_
*323 _0296_
*324 _0297_
*325 _0298_
*326 _0299_
*327 _0300_
*328 _0301_
*329 _0302_
*330 _0303_
*331 _0304_
*332 _0305_
*333 _0306_
*334 _0307_
*335 _0308_
*336 _0309_
*337 _0310_
*338 _0311_
*339 _0312_
*340 _0313_
*341 _0314_
*342 _0315_
*343 _0316_
*344 _0317_
*345 _0318_
*346 _0319_
*347 _0320_
*348 _0321_
*349 _0322_
*350 _0323_
*351 _0324_
*352 _0325_
*353 _0326_
*354 _0327_
*355 _0328_
*356 _0329_
*357 _0330_
*358 _0331_
*359 _0332_
*360 _0333_
*361 _0334_
*362 _0335_
*363 _0336_
*364 _0337_
*365 _0338_
*366 _0339_
*367 _0340_
*368 _0341_
*369 _0342_
*370 _0343_
*371 _0344_
*372 _0345_
*373 _0346_
*374 _0347_
*375 _0348_
*376 _0349_
*377 _0350_
*378 _0351_
*379 _0352_
*380 _0353_
*381 _0354_
*382 _0355_
*383 _0356_
*384 _0357_
*385 _0358_
*386 _0359_
*387 _0360_
*388 _0361_
*389 _0362_
*390 _0363_
*391 _0364_
*392 _0365_
*393 _0366_
*394 _0367_
*395 _0368_
*396 _0369_
*397 _0370_
*398 _0371_
*399 _0372_
*400 _0373_
*401 _0374_
*402 _0375_
*403 _0376_
*404 _0377_
*405 _0378_
*406 _0379_
*407 _0380_
*408 _0381_
*409 _0382_
*410 _0383_
*411 _0384_
*412 _0385_
*413 _0386_
*414 _0387_
*415 _0388_
*416 _0389_
*417 _0390_
*418 _0391_
*419 _0392_
*420 _0393_
*421 _0394_
*422 _0395_
*423 _0396_
*424 _0397_
*425 _0398_
*426 _0399_
*427 _0400_
*428 _0401_
*429 _0402_
*430 _0403_
*431 _0404_
*432 _0405_
*433 _0406_
*434 _0407_
*435 _0408_
*436 _0409_
*437 _0410_
*438 _0411_
*439 _0412_
*440 _0413_
*441 _0414_
*442 _0415_
*443 _0416_
*444 _0417_
*445 _0418_
*446 _0419_
*447 _0420_
*448 _0421_
*449 _0422_
*450 _0423_
*451 _0424_
*452 _0425_
*453 _0426_
*454 _0427_
*455 _0428_
*456 _0429_
*457 _0430_
*458 _0431_
*459 _0432_
*460 _0433_
*461 _0434_
*462 _0435_
*463 _0436_
*464 _0437_
*465 _0438_
*466 _0439_
*467 _0440_
*468 _0441_
*469 _0442_
*470 _0443_
*471 _0444_
*472 _0445_
*473 _0446_
*474 _0447_
*475 _0448_
*476 _0449_
*477 _0450_
*478 _0451_
*479 clknet_0_w_clk
*480 clknet_4_0_0_w_clk
*481 clknet_4_10_0_w_clk
*482 clknet_4_11_0_w_clk
*483 clknet_4_12_0_w_clk
*484 clknet_4_13_0_w_clk
*485 clknet_4_14_0_w_clk
*486 clknet_4_15_0_w_clk
*487 clknet_4_1_0_w_clk
*488 clknet_4_2_0_w_clk
*489 clknet_4_3_0_w_clk
*490 clknet_4_4_0_w_clk
*491 clknet_4_5_0_w_clk
*492 clknet_4_6_0_w_clk
*493 clknet_4_7_0_w_clk
*494 clknet_4_8_0_w_clk
*495 clknet_4_9_0_w_clk
*496 mem\[0\]\[0\]
*497 mem\[0\]\[1\]
*498 mem\[0\]\[2\]
*499 mem\[0\]\[3\]
*500 mem\[0\]\[4\]
*501 mem\[0\]\[5\]
*502 mem\[0\]\[6\]
*503 mem\[0\]\[7\]
*504 mem\[10\]\[0\]
*505 mem\[10\]\[1\]
*506 mem\[10\]\[2\]
*507 mem\[10\]\[3\]
*508 mem\[10\]\[4\]
*509 mem\[10\]\[5\]
*510 mem\[10\]\[6\]
*511 mem\[10\]\[7\]
*512 mem\[11\]\[0\]
*513 mem\[11\]\[1\]
*514 mem\[11\]\[2\]
*515 mem\[11\]\[3\]
*516 mem\[11\]\[4\]
*517 mem\[11\]\[5\]
*518 mem\[11\]\[6\]
*519 mem\[11\]\[7\]
*520 mem\[12\]\[0\]
*521 mem\[12\]\[1\]
*522 mem\[12\]\[2\]
*523 mem\[12\]\[3\]
*524 mem\[12\]\[4\]
*525 mem\[12\]\[5\]
*526 mem\[12\]\[6\]
*527 mem\[12\]\[7\]
*528 mem\[13\]\[0\]
*529 mem\[13\]\[1\]
*530 mem\[13\]\[2\]
*531 mem\[13\]\[3\]
*532 mem\[13\]\[4\]
*533 mem\[13\]\[5\]
*534 mem\[13\]\[6\]
*535 mem\[13\]\[7\]
*536 mem\[14\]\[0\]
*537 mem\[14\]\[1\]
*538 mem\[14\]\[2\]
*539 mem\[14\]\[3\]
*540 mem\[14\]\[4\]
*541 mem\[14\]\[5\]
*542 mem\[14\]\[6\]
*543 mem\[14\]\[7\]
*544 mem\[15\]\[0\]
*545 mem\[15\]\[1\]
*546 mem\[15\]\[2\]
*547 mem\[15\]\[3\]
*548 mem\[15\]\[4\]
*549 mem\[15\]\[5\]
*550 mem\[15\]\[6\]
*551 mem\[15\]\[7\]
*552 mem\[1\]\[0\]
*553 mem\[1\]\[1\]
*554 mem\[1\]\[2\]
*555 mem\[1\]\[3\]
*556 mem\[1\]\[4\]
*557 mem\[1\]\[5\]
*558 mem\[1\]\[6\]
*559 mem\[1\]\[7\]
*560 mem\[2\]\[0\]
*561 mem\[2\]\[1\]
*562 mem\[2\]\[2\]
*563 mem\[2\]\[3\]
*564 mem\[2\]\[4\]
*565 mem\[2\]\[5\]
*566 mem\[2\]\[6\]
*567 mem\[2\]\[7\]
*568 mem\[3\]\[0\]
*569 mem\[3\]\[1\]
*570 mem\[3\]\[2\]
*571 mem\[3\]\[3\]
*572 mem\[3\]\[4\]
*573 mem\[3\]\[5\]
*574 mem\[3\]\[6\]
*575 mem\[3\]\[7\]
*576 mem\[4\]\[0\]
*577 mem\[4\]\[1\]
*578 mem\[4\]\[2\]
*579 mem\[4\]\[3\]
*580 mem\[4\]\[4\]
*581 mem\[4\]\[5\]
*582 mem\[4\]\[6\]
*583 mem\[4\]\[7\]
*584 mem\[5\]\[0\]
*585 mem\[5\]\[1\]
*586 mem\[5\]\[2\]
*587 mem\[5\]\[3\]
*588 mem\[5\]\[4\]
*589 mem\[5\]\[5\]
*590 mem\[5\]\[6\]
*591 mem\[5\]\[7\]
*592 mem\[6\]\[0\]
*593 mem\[6\]\[1\]
*594 mem\[6\]\[2\]
*595 mem\[6\]\[3\]
*596 mem\[6\]\[4\]
*597 mem\[6\]\[5\]
*598 mem\[6\]\[6\]
*599 mem\[6\]\[7\]
*600 mem\[7\]\[0\]
*601 mem\[7\]\[1\]
*602 mem\[7\]\[2\]
*603 mem\[7\]\[3\]
*604 mem\[7\]\[4\]
*605 mem\[7\]\[5\]
*606 mem\[7\]\[6\]
*607 mem\[7\]\[7\]
*608 mem\[8\]\[0\]
*609 mem\[8\]\[1\]
*610 mem\[8\]\[2\]
*611 mem\[8\]\[3\]
*612 mem\[8\]\[4\]
*613 mem\[8\]\[5\]
*614 mem\[8\]\[6\]
*615 mem\[8\]\[7\]
*616 mem\[9\]\[0\]
*617 mem\[9\]\[1\]
*618 mem\[9\]\[2\]
*619 mem\[9\]\[3\]
*620 mem\[9\]\[4\]
*621 mem\[9\]\[5\]
*622 mem\[9\]\[6\]
*623 mem\[9\]\[7\]
*624 net1
*625 net10
*626 net100
*627 net101
*628 net102
*629 net103
*630 net104
*631 net105
*632 net106
*633 net107
*634 net108
*635 net109
*636 net11
*637 net110
*638 net111
*639 net112
*640 net113
*641 net114
*642 net115
*643 net116
*644 net117
*645 net118
*646 net119
*647 net12
*648 net120
*649 net121
*650 net122
*651 net123
*652 net124
*653 net125
*654 net126
*655 net127
*656 net128
*657 net129
*658 net13
*659 net130
*660 net131
*661 net132
*662 net133
*663 net134
*664 net135
*665 net136
*666 net137
*667 net138
*668 net139
*669 net14
*670 net140
*671 net141
*672 net142
*673 net143
*674 net144
*675 net145
*676 net146
*677 net147
*678 net148
*679 net149
*680 net15
*681 net150
*682 net151
*683 net152
*684 net153
*685 net154
*686 net155
*687 net156
*688 net157
*689 net158
*690 net159
*691 net16
*692 net160
*693 net161
*694 net162
*695 net163
*696 net164
*697 net165
*698 net166
*699 net17
*700 net18
*701 net19
*702 net2
*703 net20
*704 net21
*705 net22
*706 net23
*707 net24
*708 net25
*709 net26
*710 net27
*711 net28
*712 net29
*713 net3
*714 net30
*715 net31
*716 net32
*717 net33
*718 net34
*719 net35
*720 net36
*721 net37
*722 net38
*723 net39
*724 net4
*725 net40
*726 net41
*727 net42
*728 net43
*729 net44
*730 net45
*731 net46
*732 net47
*733 net48
*734 net49
*735 net5
*736 net50
*737 net51
*738 net52
*739 net53
*740 net54
*741 net55
*742 net56
*743 net57
*744 net58
*745 net59
*746 net6
*747 net60
*748 net61
*749 net62
*750 net63
*751 net64
*752 net65
*753 net66
*754 net67
*755 net68
*756 net69
*757 net7
*758 net70
*759 net71
*760 net72
*761 net73
*762 net74
*763 net75
*764 net76
*765 net77
*766 net78
*767 net79
*768 net8
*769 net80
*770 net81
*771 net82
*772 net83
*773 net84
*774 net85
*775 net86
*776 net87
*777 net88
*778 net89
*779 net9
*780 net90
*781 net91
*782 net92
*783 net93
*784 net94
*785 net95
*786 net96
*787 net97
*788 net98
*789 net99
*790 r_ptr_b\[0\]
*791 r_ptr_b\[1\]
*792 r_ptr_b\[2\]
*793 r_ptr_b\[3\]
*794 r_ptr_b\[4\]
*795 r_ptr_g\[0\]
*796 r_ptr_g\[1\]
*797 r_ptr_g\[2\]
*798 r_ptr_g\[3\]
*799 r_ptr_g_sync1\[0\]
*800 r_ptr_g_sync1\[1\]
*801 r_ptr_g_sync1\[2\]
*802 r_ptr_g_sync1\[3\]
*803 r_ptr_g_sync1\[4\]
*804 r_ptr_g_sync2\[0\]
*805 r_ptr_g_sync2\[1\]
*806 r_ptr_g_sync2\[2\]
*807 r_ptr_g_sync2\[3\]
*808 r_ptr_g_sync2\[4\]
*809 w_ptr_b\[0\]
*810 w_ptr_b\[1\]
*811 w_ptr_b\[2\]
*812 w_ptr_b\[3\]
*813 w_ptr_b\[4\]
*814 w_ptr_g\[0\]
*815 w_ptr_g\[1\]
*816 w_ptr_g\[2\]
*817 w_ptr_g\[3\]
*818 w_ptr_g_sync1\[0\]
*819 w_ptr_g_sync1\[1\]
*820 w_ptr_g_sync1\[2\]
*821 w_ptr_g_sync1\[3\]
*822 w_ptr_g_sync1\[4\]
*823 w_ptr_g_sync2\[0\]
*824 w_ptr_g_sync2\[1\]
*825 w_ptr_g_sync2\[2\]
*826 w_ptr_g_sync2\[3\]
*827 w_ptr_g_sync2\[4\]
*828 ANTENNA_1
*829 FILLER_0_0_109
*830 FILLER_0_0_113
*831 FILLER_0_0_125
*832 FILLER_0_0_137
*833 FILLER_0_0_141
*834 FILLER_0_0_153
*835 FILLER_0_0_165
*836 FILLER_0_0_175
*837 FILLER_0_0_187
*838 FILLER_0_0_19
*839 FILLER_0_0_195
*840 FILLER_0_0_197
*841 FILLER_0_0_209
*842 FILLER_0_0_221
*843 FILLER_0_0_225
*844 FILLER_0_0_237
*845 FILLER_0_0_249
*846 FILLER_0_0_253
*847 FILLER_0_0_261
*848 FILLER_0_0_27
*849 FILLER_0_0_273
*850 FILLER_0_0_279
*851 FILLER_0_0_281
*852 FILLER_0_0_29
*853 FILLER_0_0_293
*854 FILLER_0_0_305
*855 FILLER_0_0_309
*856 FILLER_0_0_321
*857 FILLER_0_0_333
*858 FILLER_0_0_337
*859 FILLER_0_0_345
*860 FILLER_0_0_357
*861 FILLER_0_0_363
*862 FILLER_0_0_365
*863 FILLER_0_0_377
*864 FILLER_0_0_389
*865 FILLER_0_0_393
*866 FILLER_0_0_405
*867 FILLER_0_0_41
*868 FILLER_0_0_417
*869 FILLER_0_0_421
*870 FILLER_0_0_429
*871 FILLER_0_0_436
*872 FILLER_0_0_449
*873 FILLER_0_0_461
*874 FILLER_0_0_473
*875 FILLER_0_0_477
*876 FILLER_0_0_489
*877 FILLER_0_0_501
*878 FILLER_0_0_53
*879 FILLER_0_0_57
*880 FILLER_0_0_69
*881 FILLER_0_0_7
*882 FILLER_0_0_77
*883 FILLER_0_0_83
*884 FILLER_0_0_85
*885 FILLER_0_0_97
*886 FILLER_0_10_109
*887 FILLER_0_10_121
*888 FILLER_0_10_133
*889 FILLER_0_10_139
*890 FILLER_0_10_141
*891 FILLER_0_10_15
*892 FILLER_0_10_153
*893 FILLER_0_10_165
*894 FILLER_0_10_177
*895 FILLER_0_10_189
*896 FILLER_0_10_195
*897 FILLER_0_10_197
*898 FILLER_0_10_209
*899 FILLER_0_10_221
*900 FILLER_0_10_233
*901 FILLER_0_10_245
*902 FILLER_0_10_251
*903 FILLER_0_10_253
*904 FILLER_0_10_265
*905 FILLER_0_10_27
*906 FILLER_0_10_277
*907 FILLER_0_10_289
*908 FILLER_0_10_29
*909 FILLER_0_10_3
*910 FILLER_0_10_301
*911 FILLER_0_10_307
*912 FILLER_0_10_309
*913 FILLER_0_10_321
*914 FILLER_0_10_333
*915 FILLER_0_10_345
*916 FILLER_0_10_357
*917 FILLER_0_10_363
*918 FILLER_0_10_365
*919 FILLER_0_10_377
*920 FILLER_0_10_389
*921 FILLER_0_10_401
*922 FILLER_0_10_41
*923 FILLER_0_10_413
*924 FILLER_0_10_419
*925 FILLER_0_10_421
*926 FILLER_0_10_433
*927 FILLER_0_10_445
*928 FILLER_0_10_457
*929 FILLER_0_10_469
*930 FILLER_0_10_475
*931 FILLER_0_10_477
*932 FILLER_0_10_489
*933 FILLER_0_10_501
*934 FILLER_0_10_513
*935 FILLER_0_10_53
*936 FILLER_0_10_65
*937 FILLER_0_10_77
*938 FILLER_0_10_83
*939 FILLER_0_10_85
*940 FILLER_0_10_97
*941 FILLER_0_11_105
*942 FILLER_0_11_111
*943 FILLER_0_11_113
*944 FILLER_0_11_125
*945 FILLER_0_11_137
*946 FILLER_0_11_149
*947 FILLER_0_11_161
*948 FILLER_0_11_167
*949 FILLER_0_11_169
*950 FILLER_0_11_181
*951 FILLER_0_11_193
*952 FILLER_0_11_205
*953 FILLER_0_11_21
*954 FILLER_0_11_217
*955 FILLER_0_11_223
*956 FILLER_0_11_225
*957 FILLER_0_11_237
*958 FILLER_0_11_249
*959 FILLER_0_11_261
*960 FILLER_0_11_273
*961 FILLER_0_11_279
*962 FILLER_0_11_281
*963 FILLER_0_11_293
*964 FILLER_0_11_305
*965 FILLER_0_11_317
*966 FILLER_0_11_329
*967 FILLER_0_11_33
*968 FILLER_0_11_335
*969 FILLER_0_11_337
*970 FILLER_0_11_349
*971 FILLER_0_11_361
*972 FILLER_0_11_373
*973 FILLER_0_11_385
*974 FILLER_0_11_391
*975 FILLER_0_11_393
*976 FILLER_0_11_405
*977 FILLER_0_11_417
*978 FILLER_0_11_429
*979 FILLER_0_11_441
*980 FILLER_0_11_447
*981 FILLER_0_11_449
*982 FILLER_0_11_45
*983 FILLER_0_11_461
*984 FILLER_0_11_473
*985 FILLER_0_11_485
*986 FILLER_0_11_497
*987 FILLER_0_11_503
*988 FILLER_0_11_505
*989 FILLER_0_11_513
*990 FILLER_0_11_53
*991 FILLER_0_11_57
*992 FILLER_0_11_69
*993 FILLER_0_11_81
*994 FILLER_0_11_9
*995 FILLER_0_11_93
*996 FILLER_0_12_109
*997 FILLER_0_12_121
*998 FILLER_0_12_133
*999 FILLER_0_12_139
*1000 FILLER_0_12_141
*1001 FILLER_0_12_15
*1002 FILLER_0_12_153
*1003 FILLER_0_12_165
*1004 FILLER_0_12_177
*1005 FILLER_0_12_189
*1006 FILLER_0_12_195
*1007 FILLER_0_12_197
*1008 FILLER_0_12_209
*1009 FILLER_0_12_221
*1010 FILLER_0_12_233
*1011 FILLER_0_12_245
*1012 FILLER_0_12_251
*1013 FILLER_0_12_253
*1014 FILLER_0_12_265
*1015 FILLER_0_12_27
*1016 FILLER_0_12_277
*1017 FILLER_0_12_289
*1018 FILLER_0_12_29
*1019 FILLER_0_12_3
*1020 FILLER_0_12_301
*1021 FILLER_0_12_307
*1022 FILLER_0_12_309
*1023 FILLER_0_12_321
*1024 FILLER_0_12_333
*1025 FILLER_0_12_345
*1026 FILLER_0_12_357
*1027 FILLER_0_12_363
*1028 FILLER_0_12_365
*1029 FILLER_0_12_377
*1030 FILLER_0_12_389
*1031 FILLER_0_12_401
*1032 FILLER_0_12_41
*1033 FILLER_0_12_413
*1034 FILLER_0_12_419
*1035 FILLER_0_12_421
*1036 FILLER_0_12_433
*1037 FILLER_0_12_445
*1038 FILLER_0_12_457
*1039 FILLER_0_12_469
*1040 FILLER_0_12_475
*1041 FILLER_0_12_477
*1042 FILLER_0_12_489
*1043 FILLER_0_12_501
*1044 FILLER_0_12_513
*1045 FILLER_0_12_53
*1046 FILLER_0_12_65
*1047 FILLER_0_12_77
*1048 FILLER_0_12_83
*1049 FILLER_0_12_85
*1050 FILLER_0_12_97
*1051 FILLER_0_13_105
*1052 FILLER_0_13_111
*1053 FILLER_0_13_113
*1054 FILLER_0_13_125
*1055 FILLER_0_13_137
*1056 FILLER_0_13_149
*1057 FILLER_0_13_15
*1058 FILLER_0_13_161
*1059 FILLER_0_13_167
*1060 FILLER_0_13_169
*1061 FILLER_0_13_181
*1062 FILLER_0_13_193
*1063 FILLER_0_13_205
*1064 FILLER_0_13_217
*1065 FILLER_0_13_223
*1066 FILLER_0_13_225
*1067 FILLER_0_13_237
*1068 FILLER_0_13_249
*1069 FILLER_0_13_261
*1070 FILLER_0_13_27
*1071 FILLER_0_13_273
*1072 FILLER_0_13_279
*1073 FILLER_0_13_281
*1074 FILLER_0_13_293
*1075 FILLER_0_13_3
*1076 FILLER_0_13_305
*1077 FILLER_0_13_317
*1078 FILLER_0_13_329
*1079 FILLER_0_13_335
*1080 FILLER_0_13_337
*1081 FILLER_0_13_349
*1082 FILLER_0_13_361
*1083 FILLER_0_13_373
*1084 FILLER_0_13_385
*1085 FILLER_0_13_39
*1086 FILLER_0_13_391
*1087 FILLER_0_13_393
*1088 FILLER_0_13_405
*1089 FILLER_0_13_417
*1090 FILLER_0_13_429
*1091 FILLER_0_13_441
*1092 FILLER_0_13_447
*1093 FILLER_0_13_449
*1094 FILLER_0_13_461
*1095 FILLER_0_13_473
*1096 FILLER_0_13_485
*1097 FILLER_0_13_497
*1098 FILLER_0_13_503
*1099 FILLER_0_13_505
*1100 FILLER_0_13_51
*1101 FILLER_0_13_513
*1102 FILLER_0_13_55
*1103 FILLER_0_13_57
*1104 FILLER_0_13_69
*1105 FILLER_0_13_81
*1106 FILLER_0_13_93
*1107 FILLER_0_14_109
*1108 FILLER_0_14_121
*1109 FILLER_0_14_133
*1110 FILLER_0_14_139
*1111 FILLER_0_14_141
*1112 FILLER_0_14_15
*1113 FILLER_0_14_153
*1114 FILLER_0_14_165
*1115 FILLER_0_14_177
*1116 FILLER_0_14_189
*1117 FILLER_0_14_195
*1118 FILLER_0_14_197
*1119 FILLER_0_14_209
*1120 FILLER_0_14_221
*1121 FILLER_0_14_233
*1122 FILLER_0_14_245
*1123 FILLER_0_14_251
*1124 FILLER_0_14_253
*1125 FILLER_0_14_265
*1126 FILLER_0_14_27
*1127 FILLER_0_14_277
*1128 FILLER_0_14_289
*1129 FILLER_0_14_29
*1130 FILLER_0_14_3
*1131 FILLER_0_14_301
*1132 FILLER_0_14_307
*1133 FILLER_0_14_309
*1134 FILLER_0_14_321
*1135 FILLER_0_14_333
*1136 FILLER_0_14_345
*1137 FILLER_0_14_357
*1138 FILLER_0_14_363
*1139 FILLER_0_14_365
*1140 FILLER_0_14_377
*1141 FILLER_0_14_389
*1142 FILLER_0_14_401
*1143 FILLER_0_14_41
*1144 FILLER_0_14_413
*1145 FILLER_0_14_419
*1146 FILLER_0_14_421
*1147 FILLER_0_14_433
*1148 FILLER_0_14_445
*1149 FILLER_0_14_457
*1150 FILLER_0_14_469
*1151 FILLER_0_14_475
*1152 FILLER_0_14_477
*1153 FILLER_0_14_489
*1154 FILLER_0_14_501
*1155 FILLER_0_14_513
*1156 FILLER_0_14_53
*1157 FILLER_0_14_65
*1158 FILLER_0_14_77
*1159 FILLER_0_14_83
*1160 FILLER_0_14_85
*1161 FILLER_0_14_97
*1162 FILLER_0_15_105
*1163 FILLER_0_15_111
*1164 FILLER_0_15_113
*1165 FILLER_0_15_125
*1166 FILLER_0_15_137
*1167 FILLER_0_15_149
*1168 FILLER_0_15_15
*1169 FILLER_0_15_161
*1170 FILLER_0_15_167
*1171 FILLER_0_15_169
*1172 FILLER_0_15_181
*1173 FILLER_0_15_193
*1174 FILLER_0_15_205
*1175 FILLER_0_15_217
*1176 FILLER_0_15_223
*1177 FILLER_0_15_225
*1178 FILLER_0_15_237
*1179 FILLER_0_15_249
*1180 FILLER_0_15_261
*1181 FILLER_0_15_27
*1182 FILLER_0_15_273
*1183 FILLER_0_15_279
*1184 FILLER_0_15_281
*1185 FILLER_0_15_293
*1186 FILLER_0_15_3
*1187 FILLER_0_15_305
*1188 FILLER_0_15_317
*1189 FILLER_0_15_329
*1190 FILLER_0_15_335
*1191 FILLER_0_15_337
*1192 FILLER_0_15_349
*1193 FILLER_0_15_361
*1194 FILLER_0_15_373
*1195 FILLER_0_15_385
*1196 FILLER_0_15_39
*1197 FILLER_0_15_391
*1198 FILLER_0_15_393
*1199 FILLER_0_15_405
*1200 FILLER_0_15_417
*1201 FILLER_0_15_429
*1202 FILLER_0_15_441
*1203 FILLER_0_15_447
*1204 FILLER_0_15_449
*1205 FILLER_0_15_461
*1206 FILLER_0_15_473
*1207 FILLER_0_15_485
*1208 FILLER_0_15_497
*1209 FILLER_0_15_503
*1210 FILLER_0_15_505
*1211 FILLER_0_15_51
*1212 FILLER_0_15_513
*1213 FILLER_0_15_55
*1214 FILLER_0_15_57
*1215 FILLER_0_15_69
*1216 FILLER_0_15_81
*1217 FILLER_0_15_93
*1218 FILLER_0_16_109
*1219 FILLER_0_16_121
*1220 FILLER_0_16_133
*1221 FILLER_0_16_139
*1222 FILLER_0_16_141
*1223 FILLER_0_16_15
*1224 FILLER_0_16_153
*1225 FILLER_0_16_165
*1226 FILLER_0_16_177
*1227 FILLER_0_16_189
*1228 FILLER_0_16_195
*1229 FILLER_0_16_197
*1230 FILLER_0_16_209
*1231 FILLER_0_16_221
*1232 FILLER_0_16_229
*1233 FILLER_0_16_239
*1234 FILLER_0_16_251
*1235 FILLER_0_16_256
*1236 FILLER_0_16_268
*1237 FILLER_0_16_27
*1238 FILLER_0_16_280
*1239 FILLER_0_16_29
*1240 FILLER_0_16_292
*1241 FILLER_0_16_3
*1242 FILLER_0_16_304
*1243 FILLER_0_16_309
*1244 FILLER_0_16_321
*1245 FILLER_0_16_333
*1246 FILLER_0_16_345
*1247 FILLER_0_16_357
*1248 FILLER_0_16_363
*1249 FILLER_0_16_365
*1250 FILLER_0_16_377
*1251 FILLER_0_16_389
*1252 FILLER_0_16_401
*1253 FILLER_0_16_41
*1254 FILLER_0_16_413
*1255 FILLER_0_16_419
*1256 FILLER_0_16_421
*1257 FILLER_0_16_433
*1258 FILLER_0_16_445
*1259 FILLER_0_16_457
*1260 FILLER_0_16_469
*1261 FILLER_0_16_475
*1262 FILLER_0_16_477
*1263 FILLER_0_16_489
*1264 FILLER_0_16_501
*1265 FILLER_0_16_513
*1266 FILLER_0_16_53
*1267 FILLER_0_16_65
*1268 FILLER_0_16_77
*1269 FILLER_0_16_83
*1270 FILLER_0_16_85
*1271 FILLER_0_16_97
*1272 FILLER_0_17_105
*1273 FILLER_0_17_111
*1274 FILLER_0_17_113
*1275 FILLER_0_17_125
*1276 FILLER_0_17_137
*1277 FILLER_0_17_149
*1278 FILLER_0_17_15
*1279 FILLER_0_17_161
*1280 FILLER_0_17_167
*1281 FILLER_0_17_169
*1282 FILLER_0_17_181
*1283 FILLER_0_17_198
*1284 FILLER_0_17_202
*1285 FILLER_0_17_212
*1286 FILLER_0_17_241
*1287 FILLER_0_17_263
*1288 FILLER_0_17_27
*1289 FILLER_0_17_275
*1290 FILLER_0_17_279
*1291 FILLER_0_17_281
*1292 FILLER_0_17_293
*1293 FILLER_0_17_3
*1294 FILLER_0_17_305
*1295 FILLER_0_17_317
*1296 FILLER_0_17_329
*1297 FILLER_0_17_335
*1298 FILLER_0_17_337
*1299 FILLER_0_17_349
*1300 FILLER_0_17_361
*1301 FILLER_0_17_373
*1302 FILLER_0_17_385
*1303 FILLER_0_17_39
*1304 FILLER_0_17_391
*1305 FILLER_0_17_393
*1306 FILLER_0_17_405
*1307 FILLER_0_17_417
*1308 FILLER_0_17_429
*1309 FILLER_0_17_441
*1310 FILLER_0_17_447
*1311 FILLER_0_17_449
*1312 FILLER_0_17_461
*1313 FILLER_0_17_473
*1314 FILLER_0_17_485
*1315 FILLER_0_17_497
*1316 FILLER_0_17_503
*1317 FILLER_0_17_505
*1318 FILLER_0_17_51
*1319 FILLER_0_17_513
*1320 FILLER_0_17_55
*1321 FILLER_0_17_57
*1322 FILLER_0_17_69
*1323 FILLER_0_17_81
*1324 FILLER_0_17_93
*1325 FILLER_0_18_109
*1326 FILLER_0_18_121
*1327 FILLER_0_18_133
*1328 FILLER_0_18_139
*1329 FILLER_0_18_141
*1330 FILLER_0_18_15
*1331 FILLER_0_18_151
*1332 FILLER_0_18_159
*1333 FILLER_0_18_163
*1334 FILLER_0_18_175
*1335 FILLER_0_18_179
*1336 FILLER_0_18_197
*1337 FILLER_0_18_214
*1338 FILLER_0_18_242
*1339 FILLER_0_18_27
*1340 FILLER_0_18_277
*1341 FILLER_0_18_289
*1342 FILLER_0_18_29
*1343 FILLER_0_18_3
*1344 FILLER_0_18_301
*1345 FILLER_0_18_307
*1346 FILLER_0_18_309
*1347 FILLER_0_18_321
*1348 FILLER_0_18_333
*1349 FILLER_0_18_345
*1350 FILLER_0_18_357
*1351 FILLER_0_18_363
*1352 FILLER_0_18_365
*1353 FILLER_0_18_377
*1354 FILLER_0_18_389
*1355 FILLER_0_18_401
*1356 FILLER_0_18_41
*1357 FILLER_0_18_413
*1358 FILLER_0_18_419
*1359 FILLER_0_18_421
*1360 FILLER_0_18_433
*1361 FILLER_0_18_445
*1362 FILLER_0_18_457
*1363 FILLER_0_18_469
*1364 FILLER_0_18_475
*1365 FILLER_0_18_477
*1366 FILLER_0_18_489
*1367 FILLER_0_18_501
*1368 FILLER_0_18_513
*1369 FILLER_0_18_53
*1370 FILLER_0_18_65
*1371 FILLER_0_18_77
*1372 FILLER_0_18_83
*1373 FILLER_0_18_85
*1374 FILLER_0_18_97
*1375 FILLER_0_19_105
*1376 FILLER_0_19_111
*1377 FILLER_0_19_113
*1378 FILLER_0_19_125
*1379 FILLER_0_19_131
*1380 FILLER_0_19_15
*1381 FILLER_0_19_151
*1382 FILLER_0_19_185
*1383 FILLER_0_19_193
*1384 FILLER_0_19_206
*1385 FILLER_0_19_210
*1386 FILLER_0_19_219
*1387 FILLER_0_19_223
*1388 FILLER_0_19_225
*1389 FILLER_0_19_27
*1390 FILLER_0_19_276
*1391 FILLER_0_19_289
*1392 FILLER_0_19_3
*1393 FILLER_0_19_301
*1394 FILLER_0_19_313
*1395 FILLER_0_19_325
*1396 FILLER_0_19_333
*1397 FILLER_0_19_337
*1398 FILLER_0_19_349
*1399 FILLER_0_19_361
*1400 FILLER_0_19_373
*1401 FILLER_0_19_385
*1402 FILLER_0_19_39
*1403 FILLER_0_19_391
*1404 FILLER_0_19_393
*1405 FILLER_0_19_405
*1406 FILLER_0_19_417
*1407 FILLER_0_19_429
*1408 FILLER_0_19_441
*1409 FILLER_0_19_447
*1410 FILLER_0_19_449
*1411 FILLER_0_19_461
*1412 FILLER_0_19_473
*1413 FILLER_0_19_485
*1414 FILLER_0_19_497
*1415 FILLER_0_19_503
*1416 FILLER_0_19_505
*1417 FILLER_0_19_51
*1418 FILLER_0_19_513
*1419 FILLER_0_19_55
*1420 FILLER_0_19_57
*1421 FILLER_0_19_69
*1422 FILLER_0_19_81
*1423 FILLER_0_19_93
*1424 FILLER_0_1_105
*1425 FILLER_0_1_111
*1426 FILLER_0_1_113
*1427 FILLER_0_1_125
*1428 FILLER_0_1_137
*1429 FILLER_0_1_149
*1430 FILLER_0_1_15
*1431 FILLER_0_1_161
*1432 FILLER_0_1_167
*1433 FILLER_0_1_169
*1434 FILLER_0_1_181
*1435 FILLER_0_1_193
*1436 FILLER_0_1_205
*1437 FILLER_0_1_217
*1438 FILLER_0_1_223
*1439 FILLER_0_1_225
*1440 FILLER_0_1_237
*1441 FILLER_0_1_249
*1442 FILLER_0_1_261
*1443 FILLER_0_1_27
*1444 FILLER_0_1_273
*1445 FILLER_0_1_279
*1446 FILLER_0_1_281
*1447 FILLER_0_1_293
*1448 FILLER_0_1_3
*1449 FILLER_0_1_305
*1450 FILLER_0_1_317
*1451 FILLER_0_1_329
*1452 FILLER_0_1_335
*1453 FILLER_0_1_337
*1454 FILLER_0_1_349
*1455 FILLER_0_1_361
*1456 FILLER_0_1_373
*1457 FILLER_0_1_385
*1458 FILLER_0_1_39
*1459 FILLER_0_1_391
*1460 FILLER_0_1_393
*1461 FILLER_0_1_405
*1462 FILLER_0_1_417
*1463 FILLER_0_1_429
*1464 FILLER_0_1_441
*1465 FILLER_0_1_447
*1466 FILLER_0_1_449
*1467 FILLER_0_1_461
*1468 FILLER_0_1_473
*1469 FILLER_0_1_485
*1470 FILLER_0_1_497
*1471 FILLER_0_1_503
*1472 FILLER_0_1_505
*1473 FILLER_0_1_51
*1474 FILLER_0_1_513
*1475 FILLER_0_1_55
*1476 FILLER_0_1_57
*1477 FILLER_0_1_69
*1478 FILLER_0_1_81
*1479 FILLER_0_1_93
*1480 FILLER_0_20_109
*1481 FILLER_0_20_121
*1482 FILLER_0_20_129
*1483 FILLER_0_20_15
*1484 FILLER_0_20_195
*1485 FILLER_0_20_214
*1486 FILLER_0_20_226
*1487 FILLER_0_20_241
*1488 FILLER_0_20_249
*1489 FILLER_0_20_253
*1490 FILLER_0_20_261
*1491 FILLER_0_20_265
*1492 FILLER_0_20_27
*1493 FILLER_0_20_277
*1494 FILLER_0_20_289
*1495 FILLER_0_20_29
*1496 FILLER_0_20_3
*1497 FILLER_0_20_301
*1498 FILLER_0_20_307
*1499 FILLER_0_20_309
*1500 FILLER_0_20_321
*1501 FILLER_0_20_333
*1502 FILLER_0_20_345
*1503 FILLER_0_20_357
*1504 FILLER_0_20_363
*1505 FILLER_0_20_365
*1506 FILLER_0_20_377
*1507 FILLER_0_20_389
*1508 FILLER_0_20_401
*1509 FILLER_0_20_41
*1510 FILLER_0_20_413
*1511 FILLER_0_20_419
*1512 FILLER_0_20_421
*1513 FILLER_0_20_433
*1514 FILLER_0_20_445
*1515 FILLER_0_20_457
*1516 FILLER_0_20_469
*1517 FILLER_0_20_475
*1518 FILLER_0_20_477
*1519 FILLER_0_20_489
*1520 FILLER_0_20_501
*1521 FILLER_0_20_513
*1522 FILLER_0_20_53
*1523 FILLER_0_20_65
*1524 FILLER_0_20_77
*1525 FILLER_0_20_83
*1526 FILLER_0_20_85
*1527 FILLER_0_20_97
*1528 FILLER_0_21_105
*1529 FILLER_0_21_111
*1530 FILLER_0_21_124
*1531 FILLER_0_21_136
*1532 FILLER_0_21_140
*1533 FILLER_0_21_15
*1534 FILLER_0_21_161
*1535 FILLER_0_21_178
*1536 FILLER_0_21_216
*1537 FILLER_0_21_225
*1538 FILLER_0_21_238
*1539 FILLER_0_21_250
*1540 FILLER_0_21_262
*1541 FILLER_0_21_27
*1542 FILLER_0_21_273
*1543 FILLER_0_21_279
*1544 FILLER_0_21_281
*1545 FILLER_0_21_293
*1546 FILLER_0_21_3
*1547 FILLER_0_21_305
*1548 FILLER_0_21_317
*1549 FILLER_0_21_329
*1550 FILLER_0_21_335
*1551 FILLER_0_21_337
*1552 FILLER_0_21_349
*1553 FILLER_0_21_361
*1554 FILLER_0_21_373
*1555 FILLER_0_21_385
*1556 FILLER_0_21_39
*1557 FILLER_0_21_391
*1558 FILLER_0_21_393
*1559 FILLER_0_21_405
*1560 FILLER_0_21_417
*1561 FILLER_0_21_429
*1562 FILLER_0_21_441
*1563 FILLER_0_21_447
*1564 FILLER_0_21_449
*1565 FILLER_0_21_461
*1566 FILLER_0_21_473
*1567 FILLER_0_21_485
*1568 FILLER_0_21_497
*1569 FILLER_0_21_503
*1570 FILLER_0_21_505
*1571 FILLER_0_21_51
*1572 FILLER_0_21_513
*1573 FILLER_0_21_55
*1574 FILLER_0_21_57
*1575 FILLER_0_21_69
*1576 FILLER_0_21_81
*1577 FILLER_0_21_93
*1578 FILLER_0_22_101
*1579 FILLER_0_22_138
*1580 FILLER_0_22_15
*1581 FILLER_0_22_150
*1582 FILLER_0_22_162
*1583 FILLER_0_22_170
*1584 FILLER_0_22_179
*1585 FILLER_0_22_191
*1586 FILLER_0_22_197
*1587 FILLER_0_22_214
*1588 FILLER_0_22_221
*1589 FILLER_0_22_262
*1590 FILLER_0_22_27
*1591 FILLER_0_22_288
*1592 FILLER_0_22_29
*1593 FILLER_0_22_3
*1594 FILLER_0_22_300
*1595 FILLER_0_22_309
*1596 FILLER_0_22_321
*1597 FILLER_0_22_333
*1598 FILLER_0_22_345
*1599 FILLER_0_22_357
*1600 FILLER_0_22_363
*1601 FILLER_0_22_365
*1602 FILLER_0_22_377
*1603 FILLER_0_22_389
*1604 FILLER_0_22_401
*1605 FILLER_0_22_41
*1606 FILLER_0_22_413
*1607 FILLER_0_22_419
*1608 FILLER_0_22_421
*1609 FILLER_0_22_433
*1610 FILLER_0_22_445
*1611 FILLER_0_22_457
*1612 FILLER_0_22_469
*1613 FILLER_0_22_475
*1614 FILLER_0_22_477
*1615 FILLER_0_22_489
*1616 FILLER_0_22_501
*1617 FILLER_0_22_513
*1618 FILLER_0_22_53
*1619 FILLER_0_22_65
*1620 FILLER_0_22_77
*1621 FILLER_0_22_83
*1622 FILLER_0_22_85
*1623 FILLER_0_22_97
*1624 FILLER_0_23_116
*1625 FILLER_0_23_15
*1626 FILLER_0_23_163
*1627 FILLER_0_23_167
*1628 FILLER_0_23_169
*1629 FILLER_0_23_181
*1630 FILLER_0_23_193
*1631 FILLER_0_23_201
*1632 FILLER_0_23_241
*1633 FILLER_0_23_245
*1634 FILLER_0_23_27
*1635 FILLER_0_23_278
*1636 FILLER_0_23_281
*1637 FILLER_0_23_293
*1638 FILLER_0_23_3
*1639 FILLER_0_23_305
*1640 FILLER_0_23_317
*1641 FILLER_0_23_329
*1642 FILLER_0_23_335
*1643 FILLER_0_23_337
*1644 FILLER_0_23_349
*1645 FILLER_0_23_361
*1646 FILLER_0_23_373
*1647 FILLER_0_23_385
*1648 FILLER_0_23_39
*1649 FILLER_0_23_391
*1650 FILLER_0_23_393
*1651 FILLER_0_23_405
*1652 FILLER_0_23_417
*1653 FILLER_0_23_429
*1654 FILLER_0_23_441
*1655 FILLER_0_23_447
*1656 FILLER_0_23_449
*1657 FILLER_0_23_461
*1658 FILLER_0_23_473
*1659 FILLER_0_23_485
*1660 FILLER_0_23_497
*1661 FILLER_0_23_503
*1662 FILLER_0_23_505
*1663 FILLER_0_23_51
*1664 FILLER_0_23_513
*1665 FILLER_0_23_55
*1666 FILLER_0_23_57
*1667 FILLER_0_23_69
*1668 FILLER_0_23_81
*1669 FILLER_0_24_113
*1670 FILLER_0_24_128
*1671 FILLER_0_24_141
*1672 FILLER_0_24_15
*1673 FILLER_0_24_153
*1674 FILLER_0_24_157
*1675 FILLER_0_24_174
*1676 FILLER_0_24_186
*1677 FILLER_0_24_194
*1678 FILLER_0_24_197
*1679 FILLER_0_24_209
*1680 FILLER_0_24_221
*1681 FILLER_0_24_244
*1682 FILLER_0_24_269
*1683 FILLER_0_24_27
*1684 FILLER_0_24_281
*1685 FILLER_0_24_29
*1686 FILLER_0_24_293
*1687 FILLER_0_24_3
*1688 FILLER_0_24_305
*1689 FILLER_0_24_309
*1690 FILLER_0_24_321
*1691 FILLER_0_24_333
*1692 FILLER_0_24_345
*1693 FILLER_0_24_357
*1694 FILLER_0_24_363
*1695 FILLER_0_24_365
*1696 FILLER_0_24_377
*1697 FILLER_0_24_389
*1698 FILLER_0_24_401
*1699 FILLER_0_24_41
*1700 FILLER_0_24_413
*1701 FILLER_0_24_419
*1702 FILLER_0_24_421
*1703 FILLER_0_24_433
*1704 FILLER_0_24_445
*1705 FILLER_0_24_457
*1706 FILLER_0_24_469
*1707 FILLER_0_24_475
*1708 FILLER_0_24_477
*1709 FILLER_0_24_489
*1710 FILLER_0_24_501
*1711 FILLER_0_24_513
*1712 FILLER_0_24_53
*1713 FILLER_0_24_65
*1714 FILLER_0_24_77
*1715 FILLER_0_24_83
*1716 FILLER_0_24_85
*1717 FILLER_0_25_101
*1718 FILLER_0_25_121
*1719 FILLER_0_25_133
*1720 FILLER_0_25_145
*1721 FILLER_0_25_15
*1722 FILLER_0_25_153
*1723 FILLER_0_25_193
*1724 FILLER_0_25_214
*1725 FILLER_0_25_222
*1726 FILLER_0_25_225
*1727 FILLER_0_25_236
*1728 FILLER_0_25_248
*1729 FILLER_0_25_260
*1730 FILLER_0_25_268
*1731 FILLER_0_25_27
*1732 FILLER_0_25_281
*1733 FILLER_0_25_293
*1734 FILLER_0_25_3
*1735 FILLER_0_25_305
*1736 FILLER_0_25_317
*1737 FILLER_0_25_329
*1738 FILLER_0_25_335
*1739 FILLER_0_25_346
*1740 FILLER_0_25_358
*1741 FILLER_0_25_370
*1742 FILLER_0_25_382
*1743 FILLER_0_25_39
*1744 FILLER_0_25_390
*1745 FILLER_0_25_393
*1746 FILLER_0_25_405
*1747 FILLER_0_25_417
*1748 FILLER_0_25_429
*1749 FILLER_0_25_441
*1750 FILLER_0_25_447
*1751 FILLER_0_25_449
*1752 FILLER_0_25_461
*1753 FILLER_0_25_473
*1754 FILLER_0_25_485
*1755 FILLER_0_25_497
*1756 FILLER_0_25_503
*1757 FILLER_0_25_505
*1758 FILLER_0_25_51
*1759 FILLER_0_25_511
*1760 FILLER_0_25_55
*1761 FILLER_0_25_57
*1762 FILLER_0_25_69
*1763 FILLER_0_25_81
*1764 FILLER_0_25_93
*1765 FILLER_0_26_105
*1766 FILLER_0_26_117
*1767 FILLER_0_26_129
*1768 FILLER_0_26_15
*1769 FILLER_0_26_150
*1770 FILLER_0_26_156
*1771 FILLER_0_26_213
*1772 FILLER_0_26_221
*1773 FILLER_0_26_247
*1774 FILLER_0_26_251
*1775 FILLER_0_26_27
*1776 FILLER_0_26_29
*1777 FILLER_0_26_296
*1778 FILLER_0_26_3
*1779 FILLER_0_26_309
*1780 FILLER_0_26_329
*1781 FILLER_0_26_351
*1782 FILLER_0_26_363
*1783 FILLER_0_26_365
*1784 FILLER_0_26_37
*1785 FILLER_0_26_377
*1786 FILLER_0_26_389
*1787 FILLER_0_26_401
*1788 FILLER_0_26_413
*1789 FILLER_0_26_419
*1790 FILLER_0_26_421
*1791 FILLER_0_26_43
*1792 FILLER_0_26_433
*1793 FILLER_0_26_445
*1794 FILLER_0_26_457
*1795 FILLER_0_26_469
*1796 FILLER_0_26_475
*1797 FILLER_0_26_477
*1798 FILLER_0_26_489
*1799 FILLER_0_26_501
*1800 FILLER_0_26_513
*1801 FILLER_0_26_55
*1802 FILLER_0_26_68
*1803 FILLER_0_26_80
*1804 FILLER_0_27_101
*1805 FILLER_0_27_109
*1806 FILLER_0_27_113
*1807 FILLER_0_27_13
*1808 FILLER_0_27_132
*1809 FILLER_0_27_167
*1810 FILLER_0_27_169
*1811 FILLER_0_27_203
*1812 FILLER_0_27_214
*1813 FILLER_0_27_241
*1814 FILLER_0_27_25
*1815 FILLER_0_27_278
*1816 FILLER_0_27_289
*1817 FILLER_0_27_301
*1818 FILLER_0_27_322
*1819 FILLER_0_27_334
*1820 FILLER_0_27_340
*1821 FILLER_0_27_352
*1822 FILLER_0_27_364
*1823 FILLER_0_27_376
*1824 FILLER_0_27_388
*1825 FILLER_0_27_393
*1826 FILLER_0_27_405
*1827 FILLER_0_27_417
*1828 FILLER_0_27_429
*1829 FILLER_0_27_441
*1830 FILLER_0_27_447
*1831 FILLER_0_27_449
*1832 FILLER_0_27_461
*1833 FILLER_0_27_473
*1834 FILLER_0_27_485
*1835 FILLER_0_27_497
*1836 FILLER_0_27_503
*1837 FILLER_0_27_505
*1838 FILLER_0_27_513
*1839 FILLER_0_27_53
*1840 FILLER_0_27_64
*1841 FILLER_0_27_73
*1842 FILLER_0_27_81
*1843 FILLER_0_27_9
*1844 FILLER_0_28_105
*1845 FILLER_0_28_139
*1846 FILLER_0_28_171
*1847 FILLER_0_28_179
*1848 FILLER_0_28_190
*1849 FILLER_0_28_20
*1850 FILLER_0_28_205
*1851 FILLER_0_28_217
*1852 FILLER_0_28_225
*1853 FILLER_0_28_235
*1854 FILLER_0_28_244
*1855 FILLER_0_28_253
*1856 FILLER_0_28_263
*1857 FILLER_0_28_278
*1858 FILLER_0_28_29
*1859 FILLER_0_28_290
*1860 FILLER_0_28_3
*1861 FILLER_0_28_302
*1862 FILLER_0_28_309
*1863 FILLER_0_28_321
*1864 FILLER_0_28_333
*1865 FILLER_0_28_345
*1866 FILLER_0_28_357
*1867 FILLER_0_28_363
*1868 FILLER_0_28_365
*1869 FILLER_0_28_377
*1870 FILLER_0_28_389
*1871 FILLER_0_28_401
*1872 FILLER_0_28_41
*1873 FILLER_0_28_413
*1874 FILLER_0_28_419
*1875 FILLER_0_28_421
*1876 FILLER_0_28_433
*1877 FILLER_0_28_445
*1878 FILLER_0_28_457
*1879 FILLER_0_28_469
*1880 FILLER_0_28_475
*1881 FILLER_0_28_477
*1882 FILLER_0_28_489
*1883 FILLER_0_28_501
*1884 FILLER_0_28_513
*1885 FILLER_0_28_62
*1886 FILLER_0_28_68
*1887 FILLER_0_28_76
*1888 FILLER_0_29_122
*1889 FILLER_0_29_133
*1890 FILLER_0_29_155
*1891 FILLER_0_29_166
*1892 FILLER_0_29_169
*1893 FILLER_0_29_181
*1894 FILLER_0_29_193
*1895 FILLER_0_29_210
*1896 FILLER_0_29_222
*1897 FILLER_0_29_253
*1898 FILLER_0_29_264
*1899 FILLER_0_29_268
*1900 FILLER_0_29_289
*1901 FILLER_0_29_3
*1902 FILLER_0_29_301
*1903 FILLER_0_29_313
*1904 FILLER_0_29_325
*1905 FILLER_0_29_333
*1906 FILLER_0_29_353
*1907 FILLER_0_29_365
*1908 FILLER_0_29_377
*1909 FILLER_0_29_389
*1910 FILLER_0_29_39
*1911 FILLER_0_29_393
*1912 FILLER_0_29_405
*1913 FILLER_0_29_417
*1914 FILLER_0_29_429
*1915 FILLER_0_29_441
*1916 FILLER_0_29_447
*1917 FILLER_0_29_449
*1918 FILLER_0_29_461
*1919 FILLER_0_29_473
*1920 FILLER_0_29_485
*1921 FILLER_0_29_497
*1922 FILLER_0_29_503
*1923 FILLER_0_29_505
*1924 FILLER_0_29_51
*1925 FILLER_0_29_513
*1926 FILLER_0_29_55
*1927 FILLER_0_29_68
*1928 FILLER_0_29_88
*1929 FILLER_0_2_109
*1930 FILLER_0_2_121
*1931 FILLER_0_2_133
*1932 FILLER_0_2_139
*1933 FILLER_0_2_141
*1934 FILLER_0_2_15
*1935 FILLER_0_2_153
*1936 FILLER_0_2_165
*1937 FILLER_0_2_177
*1938 FILLER_0_2_189
*1939 FILLER_0_2_195
*1940 FILLER_0_2_197
*1941 FILLER_0_2_209
*1942 FILLER_0_2_221
*1943 FILLER_0_2_233
*1944 FILLER_0_2_245
*1945 FILLER_0_2_251
*1946 FILLER_0_2_253
*1947 FILLER_0_2_265
*1948 FILLER_0_2_27
*1949 FILLER_0_2_277
*1950 FILLER_0_2_289
*1951 FILLER_0_2_29
*1952 FILLER_0_2_3
*1953 FILLER_0_2_301
*1954 FILLER_0_2_307
*1955 FILLER_0_2_309
*1956 FILLER_0_2_321
*1957 FILLER_0_2_333
*1958 FILLER_0_2_345
*1959 FILLER_0_2_357
*1960 FILLER_0_2_363
*1961 FILLER_0_2_365
*1962 FILLER_0_2_377
*1963 FILLER_0_2_389
*1964 FILLER_0_2_401
*1965 FILLER_0_2_41
*1966 FILLER_0_2_413
*1967 FILLER_0_2_419
*1968 FILLER_0_2_421
*1969 FILLER_0_2_433
*1970 FILLER_0_2_445
*1971 FILLER_0_2_457
*1972 FILLER_0_2_469
*1973 FILLER_0_2_475
*1974 FILLER_0_2_477
*1975 FILLER_0_2_489
*1976 FILLER_0_2_501
*1977 FILLER_0_2_513
*1978 FILLER_0_2_53
*1979 FILLER_0_2_65
*1980 FILLER_0_2_77
*1981 FILLER_0_2_83
*1982 FILLER_0_2_85
*1983 FILLER_0_2_97
*1984 FILLER_0_30_109
*1985 FILLER_0_30_121
*1986 FILLER_0_30_134
*1987 FILLER_0_30_15
*1988 FILLER_0_30_150
*1989 FILLER_0_30_156
*1990 FILLER_0_30_181
*1991 FILLER_0_30_191
*1992 FILLER_0_30_195
*1993 FILLER_0_30_222
*1994 FILLER_0_30_248
*1995 FILLER_0_30_262
*1996 FILLER_0_30_27
*1997 FILLER_0_30_284
*1998 FILLER_0_30_296
*1999 FILLER_0_30_3
*2000 FILLER_0_30_309
*2001 FILLER_0_30_321
*2002 FILLER_0_30_339
*2003 FILLER_0_30_351
*2004 FILLER_0_30_36
*2005 FILLER_0_30_363
*2006 FILLER_0_30_365
*2007 FILLER_0_30_377
*2008 FILLER_0_30_389
*2009 FILLER_0_30_401
*2010 FILLER_0_30_413
*2011 FILLER_0_30_419
*2012 FILLER_0_30_421
*2013 FILLER_0_30_433
*2014 FILLER_0_30_445
*2015 FILLER_0_30_457
*2016 FILLER_0_30_469
*2017 FILLER_0_30_475
*2018 FILLER_0_30_477
*2019 FILLER_0_30_48
*2020 FILLER_0_30_489
*2021 FILLER_0_30_501
*2022 FILLER_0_30_513
*2023 FILLER_0_30_52
*2024 FILLER_0_30_56
*2025 FILLER_0_30_68
*2026 FILLER_0_30_74
*2027 FILLER_0_30_82
*2028 FILLER_0_30_85
*2029 FILLER_0_30_97
*2030 FILLER_0_31_100
*2031 FILLER_0_31_113
*2032 FILLER_0_31_124
*2033 FILLER_0_31_130
*2034 FILLER_0_31_139
*2035 FILLER_0_31_15
*2036 FILLER_0_31_152
*2037 FILLER_0_31_156
*2038 FILLER_0_31_169
*2039 FILLER_0_31_173
*2040 FILLER_0_31_219
*2041 FILLER_0_31_225
*2042 FILLER_0_31_242
*2043 FILLER_0_31_27
*2044 FILLER_0_31_277
*2045 FILLER_0_31_3
*2046 FILLER_0_31_308
*2047 FILLER_0_31_320
*2048 FILLER_0_31_332
*2049 FILLER_0_31_337
*2050 FILLER_0_31_349
*2051 FILLER_0_31_361
*2052 FILLER_0_31_373
*2053 FILLER_0_31_385
*2054 FILLER_0_31_39
*2055 FILLER_0_31_391
*2056 FILLER_0_31_393
*2057 FILLER_0_31_405
*2058 FILLER_0_31_417
*2059 FILLER_0_31_429
*2060 FILLER_0_31_441
*2061 FILLER_0_31_447
*2062 FILLER_0_31_449
*2063 FILLER_0_31_461
*2064 FILLER_0_31_473
*2065 FILLER_0_31_485
*2066 FILLER_0_31_497
*2067 FILLER_0_31_503
*2068 FILLER_0_31_505
*2069 FILLER_0_31_51
*2070 FILLER_0_31_513
*2071 FILLER_0_31_55
*2072 FILLER_0_31_85
*2073 FILLER_0_32_104
*2074 FILLER_0_32_135
*2075 FILLER_0_32_139
*2076 FILLER_0_32_141
*2077 FILLER_0_32_15
*2078 FILLER_0_32_152
*2079 FILLER_0_32_164
*2080 FILLER_0_32_176
*2081 FILLER_0_32_182
*2082 FILLER_0_32_197
*2083 FILLER_0_32_210
*2084 FILLER_0_32_214
*2085 FILLER_0_32_221
*2086 FILLER_0_32_245
*2087 FILLER_0_32_251
*2088 FILLER_0_32_269
*2089 FILLER_0_32_27
*2090 FILLER_0_32_281
*2091 FILLER_0_32_3
*2092 FILLER_0_32_305
*2093 FILLER_0_32_317
*2094 FILLER_0_32_325
*2095 FILLER_0_32_343
*2096 FILLER_0_32_355
*2097 FILLER_0_32_36
*2098 FILLER_0_32_363
*2099 FILLER_0_32_365
*2100 FILLER_0_32_377
*2101 FILLER_0_32_389
*2102 FILLER_0_32_401
*2103 FILLER_0_32_413
*2104 FILLER_0_32_419
*2105 FILLER_0_32_421
*2106 FILLER_0_32_433
*2107 FILLER_0_32_445
*2108 FILLER_0_32_457
*2109 FILLER_0_32_469
*2110 FILLER_0_32_475
*2111 FILLER_0_32_477
*2112 FILLER_0_32_489
*2113 FILLER_0_32_501
*2114 FILLER_0_32_513
*2115 FILLER_0_32_57
*2116 FILLER_0_32_69
*2117 FILLER_0_32_81
*2118 FILLER_0_32_91
*2119 FILLER_0_33_11
*2120 FILLER_0_33_113
*2121 FILLER_0_33_117
*2122 FILLER_0_33_135
*2123 FILLER_0_33_16
*2124 FILLER_0_33_165
*2125 FILLER_0_33_169
*2126 FILLER_0_33_179
*2127 FILLER_0_33_191
*2128 FILLER_0_33_20
*2129 FILLER_0_33_203
*2130 FILLER_0_33_215
*2131 FILLER_0_33_223
*2132 FILLER_0_33_225
*2133 FILLER_0_33_237
*2134 FILLER_0_33_246
*2135 FILLER_0_33_258
*2136 FILLER_0_33_273
*2137 FILLER_0_33_279
*2138 FILLER_0_33_281
*2139 FILLER_0_33_3
*2140 FILLER_0_33_30
*2141 FILLER_0_33_310
*2142 FILLER_0_33_322
*2143 FILLER_0_33_333
*2144 FILLER_0_33_354
*2145 FILLER_0_33_366
*2146 FILLER_0_33_378
*2147 FILLER_0_33_390
*2148 FILLER_0_33_393
*2149 FILLER_0_33_405
*2150 FILLER_0_33_417
*2151 FILLER_0_33_42
*2152 FILLER_0_33_429
*2153 FILLER_0_33_441
*2154 FILLER_0_33_447
*2155 FILLER_0_33_449
*2156 FILLER_0_33_461
*2157 FILLER_0_33_473
*2158 FILLER_0_33_485
*2159 FILLER_0_33_497
*2160 FILLER_0_33_503
*2161 FILLER_0_33_505
*2162 FILLER_0_33_513
*2163 FILLER_0_33_54
*2164 FILLER_0_33_57
*2165 FILLER_0_33_69
*2166 FILLER_0_33_81
*2167 FILLER_0_33_99
*2168 FILLER_0_34_112
*2169 FILLER_0_34_137
*2170 FILLER_0_34_141
*2171 FILLER_0_34_178
*2172 FILLER_0_34_214
*2173 FILLER_0_34_222
*2174 FILLER_0_34_250
*2175 FILLER_0_34_253
*2176 FILLER_0_34_26
*2177 FILLER_0_34_265
*2178 FILLER_0_34_282
*2179 FILLER_0_34_29
*2180 FILLER_0_34_3
*2181 FILLER_0_34_307
*2182 FILLER_0_34_309
*2183 FILLER_0_34_321
*2184 FILLER_0_34_342
*2185 FILLER_0_34_354
*2186 FILLER_0_34_362
*2187 FILLER_0_34_365
*2188 FILLER_0_34_377
*2189 FILLER_0_34_389
*2190 FILLER_0_34_401
*2191 FILLER_0_34_41
*2192 FILLER_0_34_413
*2193 FILLER_0_34_419
*2194 FILLER_0_34_421
*2195 FILLER_0_34_433
*2196 FILLER_0_34_445
*2197 FILLER_0_34_457
*2198 FILLER_0_34_469
*2199 FILLER_0_34_475
*2200 FILLER_0_34_477
*2201 FILLER_0_34_489
*2202 FILLER_0_34_501
*2203 FILLER_0_34_513
*2204 FILLER_0_34_73
*2205 FILLER_0_34_81
*2206 FILLER_0_34_85
*2207 FILLER_0_35_103
*2208 FILLER_0_35_111
*2209 FILLER_0_35_138
*2210 FILLER_0_35_15
*2211 FILLER_0_35_169
*2212 FILLER_0_35_177
*2213 FILLER_0_35_197
*2214 FILLER_0_35_21
*2215 FILLER_0_35_217
*2216 FILLER_0_35_223
*2217 FILLER_0_35_225
*2218 FILLER_0_35_265
*2219 FILLER_0_35_290
*2220 FILLER_0_35_3
*2221 FILLER_0_35_305
*2222 FILLER_0_35_332
*2223 FILLER_0_35_361
*2224 FILLER_0_35_373
*2225 FILLER_0_35_385
*2226 FILLER_0_35_391
*2227 FILLER_0_35_393
*2228 FILLER_0_35_405
*2229 FILLER_0_35_417
*2230 FILLER_0_35_429
*2231 FILLER_0_35_441
*2232 FILLER_0_35_447
*2233 FILLER_0_35_449
*2234 FILLER_0_35_461
*2235 FILLER_0_35_473
*2236 FILLER_0_35_485
*2237 FILLER_0_35_49
*2238 FILLER_0_35_497
*2239 FILLER_0_35_503
*2240 FILLER_0_35_505
*2241 FILLER_0_35_513
*2242 FILLER_0_35_55
*2243 FILLER_0_35_65
*2244 FILLER_0_35_73
*2245 FILLER_0_36_109
*2246 FILLER_0_36_121
*2247 FILLER_0_36_129
*2248 FILLER_0_36_161
*2249 FILLER_0_36_173
*2250 FILLER_0_36_181
*2251 FILLER_0_36_194
*2252 FILLER_0_36_205
*2253 FILLER_0_36_209
*2254 FILLER_0_36_250
*2255 FILLER_0_36_262
*2256 FILLER_0_36_29
*2257 FILLER_0_36_3
*2258 FILLER_0_36_307
*2259 FILLER_0_36_309
*2260 FILLER_0_36_314
*2261 FILLER_0_36_322
*2262 FILLER_0_36_345
*2263 FILLER_0_36_357
*2264 FILLER_0_36_363
*2265 FILLER_0_36_365
*2266 FILLER_0_36_377
*2267 FILLER_0_36_389
*2268 FILLER_0_36_401
*2269 FILLER_0_36_41
*2270 FILLER_0_36_413
*2271 FILLER_0_36_419
*2272 FILLER_0_36_421
*2273 FILLER_0_36_433
*2274 FILLER_0_36_445
*2275 FILLER_0_36_457
*2276 FILLER_0_36_469
*2277 FILLER_0_36_475
*2278 FILLER_0_36_477
*2279 FILLER_0_36_489
*2280 FILLER_0_36_501
*2281 FILLER_0_36_513
*2282 FILLER_0_36_7
*2283 FILLER_0_36_72
*2284 FILLER_0_36_85
*2285 FILLER_0_36_97
*2286 FILLER_0_37_113
*2287 FILLER_0_37_125
*2288 FILLER_0_37_129
*2289 FILLER_0_37_163
*2290 FILLER_0_37_167
*2291 FILLER_0_37_169
*2292 FILLER_0_37_173
*2293 FILLER_0_37_182
*2294 FILLER_0_37_194
*2295 FILLER_0_37_202
*2296 FILLER_0_37_23
*2297 FILLER_0_37_245
*2298 FILLER_0_37_265
*2299 FILLER_0_37_277
*2300 FILLER_0_37_281
*2301 FILLER_0_37_291
*2302 FILLER_0_37_299
*2303 FILLER_0_37_319
*2304 FILLER_0_37_331
*2305 FILLER_0_37_345
*2306 FILLER_0_37_35
*2307 FILLER_0_37_357
*2308 FILLER_0_37_369
*2309 FILLER_0_37_381
*2310 FILLER_0_37_389
*2311 FILLER_0_37_393
*2312 FILLER_0_37_405
*2313 FILLER_0_37_417
*2314 FILLER_0_37_429
*2315 FILLER_0_37_441
*2316 FILLER_0_37_447
*2317 FILLER_0_37_449
*2318 FILLER_0_37_461
*2319 FILLER_0_37_473
*2320 FILLER_0_37_485
*2321 FILLER_0_37_497
*2322 FILLER_0_37_503
*2323 FILLER_0_37_505
*2324 FILLER_0_37_513
*2325 FILLER_0_37_54
*2326 FILLER_0_37_57
*2327 FILLER_0_37_69
*2328 FILLER_0_37_90
*2329 FILLER_0_38_120
*2330 FILLER_0_38_132
*2331 FILLER_0_38_15
*2332 FILLER_0_38_185
*2333 FILLER_0_38_189
*2334 FILLER_0_38_193
*2335 FILLER_0_38_197
*2336 FILLER_0_38_201
*2337 FILLER_0_38_205
*2338 FILLER_0_38_213
*2339 FILLER_0_38_219
*2340 FILLER_0_38_231
*2341 FILLER_0_38_243
*2342 FILLER_0_38_251
*2343 FILLER_0_38_253
*2344 FILLER_0_38_265
*2345 FILLER_0_38_27
*2346 FILLER_0_38_274
*2347 FILLER_0_38_278
*2348 FILLER_0_38_29
*2349 FILLER_0_38_295
*2350 FILLER_0_38_3
*2351 FILLER_0_38_307
*2352 FILLER_0_38_309
*2353 FILLER_0_38_317
*2354 FILLER_0_38_345
*2355 FILLER_0_38_357
*2356 FILLER_0_38_363
*2357 FILLER_0_38_365
*2358 FILLER_0_38_37
*2359 FILLER_0_38_377
*2360 FILLER_0_38_389
*2361 FILLER_0_38_401
*2362 FILLER_0_38_413
*2363 FILLER_0_38_419
*2364 FILLER_0_38_421
*2365 FILLER_0_38_433
*2366 FILLER_0_38_445
*2367 FILLER_0_38_457
*2368 FILLER_0_38_469
*2369 FILLER_0_38_475
*2370 FILLER_0_38_477
*2371 FILLER_0_38_489
*2372 FILLER_0_38_501
*2373 FILLER_0_38_513
*2374 FILLER_0_38_66
*2375 FILLER_0_38_78
*2376 FILLER_0_38_85
*2377 FILLER_0_38_97
*2378 FILLER_0_39_102
*2379 FILLER_0_39_111
*2380 FILLER_0_39_113
*2381 FILLER_0_39_123
*2382 FILLER_0_39_135
*2383 FILLER_0_39_147
*2384 FILLER_0_39_15
*2385 FILLER_0_39_155
*2386 FILLER_0_39_169
*2387 FILLER_0_39_213
*2388 FILLER_0_39_222
*2389 FILLER_0_39_225
*2390 FILLER_0_39_234
*2391 FILLER_0_39_246
*2392 FILLER_0_39_261
*2393 FILLER_0_39_27
*2394 FILLER_0_39_293
*2395 FILLER_0_39_3
*2396 FILLER_0_39_325
*2397 FILLER_0_39_333
*2398 FILLER_0_39_337
*2399 FILLER_0_39_355
*2400 FILLER_0_39_367
*2401 FILLER_0_39_379
*2402 FILLER_0_39_391
*2403 FILLER_0_39_393
*2404 FILLER_0_39_405
*2405 FILLER_0_39_417
*2406 FILLER_0_39_429
*2407 FILLER_0_39_441
*2408 FILLER_0_39_447
*2409 FILLER_0_39_449
*2410 FILLER_0_39_461
*2411 FILLER_0_39_473
*2412 FILLER_0_39_485
*2413 FILLER_0_39_497
*2414 FILLER_0_39_503
*2415 FILLER_0_39_505
*2416 FILLER_0_39_513
*2417 FILLER_0_39_52
*2418 FILLER_0_39_66
*2419 FILLER_0_39_78
*2420 FILLER_0_39_90
*2421 FILLER_0_3_105
*2422 FILLER_0_3_111
*2423 FILLER_0_3_113
*2424 FILLER_0_3_125
*2425 FILLER_0_3_137
*2426 FILLER_0_3_149
*2427 FILLER_0_3_15
*2428 FILLER_0_3_161
*2429 FILLER_0_3_167
*2430 FILLER_0_3_169
*2431 FILLER_0_3_181
*2432 FILLER_0_3_193
*2433 FILLER_0_3_205
*2434 FILLER_0_3_217
*2435 FILLER_0_3_223
*2436 FILLER_0_3_225
*2437 FILLER_0_3_237
*2438 FILLER_0_3_249
*2439 FILLER_0_3_261
*2440 FILLER_0_3_27
*2441 FILLER_0_3_273
*2442 FILLER_0_3_279
*2443 FILLER_0_3_281
*2444 FILLER_0_3_293
*2445 FILLER_0_3_3
*2446 FILLER_0_3_305
*2447 FILLER_0_3_317
*2448 FILLER_0_3_329
*2449 FILLER_0_3_335
*2450 FILLER_0_3_337
*2451 FILLER_0_3_349
*2452 FILLER_0_3_361
*2453 FILLER_0_3_373
*2454 FILLER_0_3_385
*2455 FILLER_0_3_39
*2456 FILLER_0_3_391
*2457 FILLER_0_3_393
*2458 FILLER_0_3_405
*2459 FILLER_0_3_417
*2460 FILLER_0_3_429
*2461 FILLER_0_3_441
*2462 FILLER_0_3_447
*2463 FILLER_0_3_449
*2464 FILLER_0_3_461
*2465 FILLER_0_3_473
*2466 FILLER_0_3_485
*2467 FILLER_0_3_497
*2468 FILLER_0_3_503
*2469 FILLER_0_3_505
*2470 FILLER_0_3_51
*2471 FILLER_0_3_513
*2472 FILLER_0_3_55
*2473 FILLER_0_3_57
*2474 FILLER_0_3_69
*2475 FILLER_0_3_81
*2476 FILLER_0_3_93
*2477 FILLER_0_40_112
*2478 FILLER_0_40_124
*2479 FILLER_0_40_141
*2480 FILLER_0_40_153
*2481 FILLER_0_40_249
*2482 FILLER_0_40_269
*2483 FILLER_0_40_281
*2484 FILLER_0_40_3
*2485 FILLER_0_40_325
*2486 FILLER_0_40_337
*2487 FILLER_0_40_345
*2488 FILLER_0_40_36
*2489 FILLER_0_40_362
*2490 FILLER_0_40_365
*2491 FILLER_0_40_377
*2492 FILLER_0_40_389
*2493 FILLER_0_40_401
*2494 FILLER_0_40_413
*2495 FILLER_0_40_419
*2496 FILLER_0_40_42
*2497 FILLER_0_40_421
*2498 FILLER_0_40_433
*2499 FILLER_0_40_445
*2500 FILLER_0_40_457
*2501 FILLER_0_40_469
*2502 FILLER_0_40_475
*2503 FILLER_0_40_477
*2504 FILLER_0_40_489
*2505 FILLER_0_40_501
*2506 FILLER_0_40_513
*2507 FILLER_0_40_7
*2508 FILLER_0_40_85
*2509 FILLER_0_40_97
*2510 FILLER_0_41_109
*2511 FILLER_0_41_125
*2512 FILLER_0_41_147
*2513 FILLER_0_41_163
*2514 FILLER_0_41_167
*2515 FILLER_0_41_178
*2516 FILLER_0_41_184
*2517 FILLER_0_41_211
*2518 FILLER_0_41_23
*2519 FILLER_0_41_234
*2520 FILLER_0_41_267
*2521 FILLER_0_41_279
*2522 FILLER_0_41_289
*2523 FILLER_0_41_301
*2524 FILLER_0_41_305
*2525 FILLER_0_41_309
*2526 FILLER_0_41_331
*2527 FILLER_0_41_335
*2528 FILLER_0_41_337
*2529 FILLER_0_41_349
*2530 FILLER_0_41_35
*2531 FILLER_0_41_361
*2532 FILLER_0_41_373
*2533 FILLER_0_41_385
*2534 FILLER_0_41_391
*2535 FILLER_0_41_393
*2536 FILLER_0_41_405
*2537 FILLER_0_41_417
*2538 FILLER_0_41_429
*2539 FILLER_0_41_43
*2540 FILLER_0_41_441
*2541 FILLER_0_41_447
*2542 FILLER_0_41_449
*2543 FILLER_0_41_461
*2544 FILLER_0_41_473
*2545 FILLER_0_41_48
*2546 FILLER_0_41_485
*2547 FILLER_0_41_497
*2548 FILLER_0_41_503
*2549 FILLER_0_41_505
*2550 FILLER_0_41_511
*2551 FILLER_0_41_57
*2552 FILLER_0_41_63
*2553 FILLER_0_41_75
*2554 FILLER_0_41_83
*2555 FILLER_0_41_92
*2556 FILLER_0_41_96
*2557 FILLER_0_42_107
*2558 FILLER_0_42_119
*2559 FILLER_0_42_13
*2560 FILLER_0_42_144
*2561 FILLER_0_42_148
*2562 FILLER_0_42_163
*2563 FILLER_0_42_171
*2564 FILLER_0_42_182
*2565 FILLER_0_42_194
*2566 FILLER_0_42_205
*2567 FILLER_0_42_233
*2568 FILLER_0_42_248
*2569 FILLER_0_42_25
*2570 FILLER_0_42_261
*2571 FILLER_0_42_29
*2572 FILLER_0_42_291
*2573 FILLER_0_42_300
*2574 FILLER_0_42_309
*2575 FILLER_0_42_313
*2576 FILLER_0_42_331
*2577 FILLER_0_42_343
*2578 FILLER_0_42_35
*2579 FILLER_0_42_355
*2580 FILLER_0_42_363
*2581 FILLER_0_42_365
*2582 FILLER_0_42_377
*2583 FILLER_0_42_389
*2584 FILLER_0_42_401
*2585 FILLER_0_42_413
*2586 FILLER_0_42_419
*2587 FILLER_0_42_421
*2588 FILLER_0_42_433
*2589 FILLER_0_42_445
*2590 FILLER_0_42_457
*2591 FILLER_0_42_469
*2592 FILLER_0_42_475
*2593 FILLER_0_42_477
*2594 FILLER_0_42_489
*2595 FILLER_0_42_501
*2596 FILLER_0_42_513
*2597 FILLER_0_42_65
*2598 FILLER_0_42_85
*2599 FILLER_0_42_9
*2600 FILLER_0_42_93
*2601 FILLER_0_43_109
*2602 FILLER_0_43_127
*2603 FILLER_0_43_131
*2604 FILLER_0_43_158
*2605 FILLER_0_43_166
*2606 FILLER_0_43_169
*2607 FILLER_0_43_190
*2608 FILLER_0_43_202
*2609 FILLER_0_43_214
*2610 FILLER_0_43_222
*2611 FILLER_0_43_225
*2612 FILLER_0_43_239
*2613 FILLER_0_43_251
*2614 FILLER_0_43_259
*2615 FILLER_0_43_28
*2616 FILLER_0_43_311
*2617 FILLER_0_43_323
*2618 FILLER_0_43_327
*2619 FILLER_0_43_331
*2620 FILLER_0_43_335
*2621 FILLER_0_43_346
*2622 FILLER_0_43_358
*2623 FILLER_0_43_370
*2624 FILLER_0_43_382
*2625 FILLER_0_43_390
*2626 FILLER_0_43_393
*2627 FILLER_0_43_40
*2628 FILLER_0_43_405
*2629 FILLER_0_43_417
*2630 FILLER_0_43_429
*2631 FILLER_0_43_441
*2632 FILLER_0_43_447
*2633 FILLER_0_43_449
*2634 FILLER_0_43_461
*2635 FILLER_0_43_473
*2636 FILLER_0_43_485
*2637 FILLER_0_43_497
*2638 FILLER_0_43_503
*2639 FILLER_0_43_505
*2640 FILLER_0_43_513
*2641 FILLER_0_43_52
*2642 FILLER_0_43_57
*2643 FILLER_0_43_63
*2644 FILLER_0_43_74
*2645 FILLER_0_43_82
*2646 FILLER_0_44_100
*2647 FILLER_0_44_112
*2648 FILLER_0_44_132
*2649 FILLER_0_44_141
*2650 FILLER_0_44_15
*2651 FILLER_0_44_159
*2652 FILLER_0_44_183
*2653 FILLER_0_44_197
*2654 FILLER_0_44_208
*2655 FILLER_0_44_21
*2656 FILLER_0_44_220
*2657 FILLER_0_44_232
*2658 FILLER_0_44_244
*2659 FILLER_0_44_253
*2660 FILLER_0_44_261
*2661 FILLER_0_44_267
*2662 FILLER_0_44_27
*2663 FILLER_0_44_3
*2664 FILLER_0_44_303
*2665 FILLER_0_44_307
*2666 FILLER_0_44_309
*2667 FILLER_0_44_313
*2668 FILLER_0_44_355
*2669 FILLER_0_44_363
*2670 FILLER_0_44_365
*2671 FILLER_0_44_377
*2672 FILLER_0_44_38
*2673 FILLER_0_44_389
*2674 FILLER_0_44_401
*2675 FILLER_0_44_413
*2676 FILLER_0_44_419
*2677 FILLER_0_44_421
*2678 FILLER_0_44_433
*2679 FILLER_0_44_44
*2680 FILLER_0_44_445
*2681 FILLER_0_44_457
*2682 FILLER_0_44_469
*2683 FILLER_0_44_475
*2684 FILLER_0_44_477
*2685 FILLER_0_44_489
*2686 FILLER_0_44_501
*2687 FILLER_0_44_513
*2688 FILLER_0_44_52
*2689 FILLER_0_44_63
*2690 FILLER_0_44_75
*2691 FILLER_0_44_83
*2692 FILLER_0_45_111
*2693 FILLER_0_45_113
*2694 FILLER_0_45_120
*2695 FILLER_0_45_124
*2696 FILLER_0_45_146
*2697 FILLER_0_45_162
*2698 FILLER_0_45_178
*2699 FILLER_0_45_219
*2700 FILLER_0_45_223
*2701 FILLER_0_45_242
*2702 FILLER_0_45_267
*2703 FILLER_0_45_279
*2704 FILLER_0_45_281
*2705 FILLER_0_45_285
*2706 FILLER_0_45_3
*2707 FILLER_0_45_356
*2708 FILLER_0_45_368
*2709 FILLER_0_45_380
*2710 FILLER_0_45_393
*2711 FILLER_0_45_405
*2712 FILLER_0_45_417
*2713 FILLER_0_45_429
*2714 FILLER_0_45_441
*2715 FILLER_0_45_447
*2716 FILLER_0_45_449
*2717 FILLER_0_45_461
*2718 FILLER_0_45_473
*2719 FILLER_0_45_485
*2720 FILLER_0_45_497
*2721 FILLER_0_45_503
*2722 FILLER_0_45_505
*2723 FILLER_0_45_51
*2724 FILLER_0_45_513
*2725 FILLER_0_45_55
*2726 FILLER_0_45_77
*2727 FILLER_0_45_81
*2728 FILLER_0_45_88
*2729 FILLER_0_45_99
*2730 FILLER_0_46_117
*2731 FILLER_0_46_147
*2732 FILLER_0_46_15
*2733 FILLER_0_46_164
*2734 FILLER_0_46_176
*2735 FILLER_0_46_188
*2736 FILLER_0_46_200
*2737 FILLER_0_46_212
*2738 FILLER_0_46_247
*2739 FILLER_0_46_269
*2740 FILLER_0_46_27
*2741 FILLER_0_46_281
*2742 FILLER_0_46_295
*2743 FILLER_0_46_3
*2744 FILLER_0_46_307
*2745 FILLER_0_46_320
*2746 FILLER_0_46_324
*2747 FILLER_0_46_346
*2748 FILLER_0_46_358
*2749 FILLER_0_46_36
*2750 FILLER_0_46_365
*2751 FILLER_0_46_377
*2752 FILLER_0_46_389
*2753 FILLER_0_46_401
*2754 FILLER_0_46_413
*2755 FILLER_0_46_419
*2756 FILLER_0_46_421
*2757 FILLER_0_46_433
*2758 FILLER_0_46_445
*2759 FILLER_0_46_457
*2760 FILLER_0_46_469
*2761 FILLER_0_46_475
*2762 FILLER_0_46_477
*2763 FILLER_0_46_48
*2764 FILLER_0_46_489
*2765 FILLER_0_46_501
*2766 FILLER_0_46_513
*2767 FILLER_0_46_60
*2768 FILLER_0_46_68
*2769 FILLER_0_46_73
*2770 FILLER_0_46_85
*2771 FILLER_0_47_106
*2772 FILLER_0_47_11
*2773 FILLER_0_47_113
*2774 FILLER_0_47_158
*2775 FILLER_0_47_166
*2776 FILLER_0_47_169
*2777 FILLER_0_47_183
*2778 FILLER_0_47_198
*2779 FILLER_0_47_210
*2780 FILLER_0_47_218
*2781 FILLER_0_47_223
*2782 FILLER_0_47_264
*2783 FILLER_0_47_276
*2784 FILLER_0_47_281
*2785 FILLER_0_47_289
*2786 FILLER_0_47_3
*2787 FILLER_0_47_311
*2788 FILLER_0_47_32
*2789 FILLER_0_47_323
*2790 FILLER_0_47_335
*2791 FILLER_0_47_345
*2792 FILLER_0_47_357
*2793 FILLER_0_47_369
*2794 FILLER_0_47_381
*2795 FILLER_0_47_389
*2796 FILLER_0_47_393
*2797 FILLER_0_47_405
*2798 FILLER_0_47_417
*2799 FILLER_0_47_429
*2800 FILLER_0_47_441
*2801 FILLER_0_47_447
*2802 FILLER_0_47_449
*2803 FILLER_0_47_461
*2804 FILLER_0_47_473
*2805 FILLER_0_47_485
*2806 FILLER_0_47_497
*2807 FILLER_0_47_50
*2808 FILLER_0_47_503
*2809 FILLER_0_47_505
*2810 FILLER_0_47_513
*2811 FILLER_0_47_66
*2812 FILLER_0_47_78
*2813 FILLER_0_47_86
*2814 FILLER_0_47_90
*2815 FILLER_0_48_107
*2816 FILLER_0_48_115
*2817 FILLER_0_48_134
*2818 FILLER_0_48_141
*2819 FILLER_0_48_158
*2820 FILLER_0_48_205
*2821 FILLER_0_48_213
*2822 FILLER_0_48_23
*2823 FILLER_0_48_232
*2824 FILLER_0_48_246
*2825 FILLER_0_48_261
*2826 FILLER_0_48_27
*2827 FILLER_0_48_286
*2828 FILLER_0_48_29
*2829 FILLER_0_48_290
*2830 FILLER_0_48_305
*2831 FILLER_0_48_318
*2832 FILLER_0_48_346
*2833 FILLER_0_48_356
*2834 FILLER_0_48_365
*2835 FILLER_0_48_37
*2836 FILLER_0_48_377
*2837 FILLER_0_48_389
*2838 FILLER_0_48_401
*2839 FILLER_0_48_413
*2840 FILLER_0_48_419
*2841 FILLER_0_48_421
*2842 FILLER_0_48_433
*2843 FILLER_0_48_445
*2844 FILLER_0_48_457
*2845 FILLER_0_48_469
*2846 FILLER_0_48_475
*2847 FILLER_0_48_477
*2848 FILLER_0_48_489
*2849 FILLER_0_48_501
*2850 FILLER_0_48_513
*2851 FILLER_0_48_60
*2852 FILLER_0_48_81
*2853 FILLER_0_49_102
*2854 FILLER_0_49_110
*2855 FILLER_0_49_113
*2856 FILLER_0_49_125
*2857 FILLER_0_49_133
*2858 FILLER_0_49_145
*2859 FILLER_0_49_15
*2860 FILLER_0_49_157
*2861 FILLER_0_49_178
*2862 FILLER_0_49_187
*2863 FILLER_0_49_204
*2864 FILLER_0_49_216
*2865 FILLER_0_49_225
*2866 FILLER_0_49_239
*2867 FILLER_0_49_251
*2868 FILLER_0_49_259
*2869 FILLER_0_49_27
*2870 FILLER_0_49_290
*2871 FILLER_0_49_3
*2872 FILLER_0_49_308
*2873 FILLER_0_49_329
*2874 FILLER_0_49_335
*2875 FILLER_0_49_337
*2876 FILLER_0_49_364
*2877 FILLER_0_49_376
*2878 FILLER_0_49_388
*2879 FILLER_0_49_39
*2880 FILLER_0_49_393
*2881 FILLER_0_49_405
*2882 FILLER_0_49_417
*2883 FILLER_0_49_429
*2884 FILLER_0_49_441
*2885 FILLER_0_49_447
*2886 FILLER_0_49_449
*2887 FILLER_0_49_461
*2888 FILLER_0_49_473
*2889 FILLER_0_49_485
*2890 FILLER_0_49_497
*2891 FILLER_0_49_503
*2892 FILLER_0_49_505
*2893 FILLER_0_49_51
*2894 FILLER_0_49_513
*2895 FILLER_0_49_55
*2896 FILLER_0_49_57
*2897 FILLER_0_49_61
*2898 FILLER_0_49_85
*2899 FILLER_0_49_97
*2900 FILLER_0_4_109
*2901 FILLER_0_4_121
*2902 FILLER_0_4_133
*2903 FILLER_0_4_139
*2904 FILLER_0_4_141
*2905 FILLER_0_4_15
*2906 FILLER_0_4_153
*2907 FILLER_0_4_165
*2908 FILLER_0_4_177
*2909 FILLER_0_4_189
*2910 FILLER_0_4_195
*2911 FILLER_0_4_197
*2912 FILLER_0_4_209
*2913 FILLER_0_4_221
*2914 FILLER_0_4_233
*2915 FILLER_0_4_245
*2916 FILLER_0_4_251
*2917 FILLER_0_4_253
*2918 FILLER_0_4_265
*2919 FILLER_0_4_27
*2920 FILLER_0_4_277
*2921 FILLER_0_4_289
*2922 FILLER_0_4_29
*2923 FILLER_0_4_3
*2924 FILLER_0_4_301
*2925 FILLER_0_4_307
*2926 FILLER_0_4_309
*2927 FILLER_0_4_321
*2928 FILLER_0_4_333
*2929 FILLER_0_4_345
*2930 FILLER_0_4_357
*2931 FILLER_0_4_363
*2932 FILLER_0_4_365
*2933 FILLER_0_4_377
*2934 FILLER_0_4_389
*2935 FILLER_0_4_401
*2936 FILLER_0_4_41
*2937 FILLER_0_4_413
*2938 FILLER_0_4_419
*2939 FILLER_0_4_421
*2940 FILLER_0_4_433
*2941 FILLER_0_4_445
*2942 FILLER_0_4_457
*2943 FILLER_0_4_469
*2944 FILLER_0_4_475
*2945 FILLER_0_4_477
*2946 FILLER_0_4_489
*2947 FILLER_0_4_501
*2948 FILLER_0_4_513
*2949 FILLER_0_4_53
*2950 FILLER_0_4_65
*2951 FILLER_0_4_77
*2952 FILLER_0_4_83
*2953 FILLER_0_4_85
*2954 FILLER_0_4_97
*2955 FILLER_0_50_100
*2956 FILLER_0_50_127
*2957 FILLER_0_50_139
*2958 FILLER_0_50_141
*2959 FILLER_0_50_149
*2960 FILLER_0_50_186
*2961 FILLER_0_50_195
*2962 FILLER_0_50_221
*2963 FILLER_0_50_229
*2964 FILLER_0_50_23
*2965 FILLER_0_50_250
*2966 FILLER_0_50_261
*2967 FILLER_0_50_27
*2968 FILLER_0_50_279
*2969 FILLER_0_50_304
*2970 FILLER_0_50_32
*2971 FILLER_0_50_321
*2972 FILLER_0_50_333
*2973 FILLER_0_50_365
*2974 FILLER_0_50_377
*2975 FILLER_0_50_389
*2976 FILLER_0_50_401
*2977 FILLER_0_50_413
*2978 FILLER_0_50_419
*2979 FILLER_0_50_421
*2980 FILLER_0_50_43
*2981 FILLER_0_50_433
*2982 FILLER_0_50_445
*2983 FILLER_0_50_457
*2984 FILLER_0_50_469
*2985 FILLER_0_50_475
*2986 FILLER_0_50_477
*2987 FILLER_0_50_489
*2988 FILLER_0_50_501
*2989 FILLER_0_50_513
*2990 FILLER_0_50_55
*2991 FILLER_0_50_67
*2992 FILLER_0_50_79
*2993 FILLER_0_50_83
*2994 FILLER_0_50_85
*2995 FILLER_0_50_96
*2996 FILLER_0_51_108
*2997 FILLER_0_51_113
*2998 FILLER_0_51_125
*2999 FILLER_0_51_164
*3000 FILLER_0_51_178
*3001 FILLER_0_51_190
*3002 FILLER_0_51_221
*3003 FILLER_0_51_252
*3004 FILLER_0_51_264
*3005 FILLER_0_51_276
*3006 FILLER_0_51_281
*3007 FILLER_0_51_285
*3008 FILLER_0_51_295
*3009 FILLER_0_51_307
*3010 FILLER_0_51_331
*3011 FILLER_0_51_335
*3012 FILLER_0_51_337
*3013 FILLER_0_51_345
*3014 FILLER_0_51_357
*3015 FILLER_0_51_369
*3016 FILLER_0_51_381
*3017 FILLER_0_51_389
*3018 FILLER_0_51_393
*3019 FILLER_0_51_405
*3020 FILLER_0_51_417
*3021 FILLER_0_51_429
*3022 FILLER_0_51_43
*3023 FILLER_0_51_441
*3024 FILLER_0_51_447
*3025 FILLER_0_51_449
*3026 FILLER_0_51_461
*3027 FILLER_0_51_473
*3028 FILLER_0_51_485
*3029 FILLER_0_51_497
*3030 FILLER_0_51_503
*3031 FILLER_0_51_505
*3032 FILLER_0_51_51
*3033 FILLER_0_51_513
*3034 FILLER_0_51_57
*3035 FILLER_0_51_67
*3036 FILLER_0_51_79
*3037 FILLER_0_51_85
*3038 FILLER_0_51_95
*3039 FILLER_0_52_128
*3040 FILLER_0_52_135
*3041 FILLER_0_52_15
*3042 FILLER_0_52_186
*3043 FILLER_0_52_194
*3044 FILLER_0_52_197
*3045 FILLER_0_52_205
*3046 FILLER_0_52_21
*3047 FILLER_0_52_225
*3048 FILLER_0_52_246
*3049 FILLER_0_52_277
*3050 FILLER_0_52_29
*3051 FILLER_0_52_3
*3052 FILLER_0_52_302
*3053 FILLER_0_52_306
*3054 FILLER_0_52_309
*3055 FILLER_0_52_351
*3056 FILLER_0_52_363
*3057 FILLER_0_52_365
*3058 FILLER_0_52_37
*3059 FILLER_0_52_377
*3060 FILLER_0_52_389
*3061 FILLER_0_52_401
*3062 FILLER_0_52_413
*3063 FILLER_0_52_419
*3064 FILLER_0_52_421
*3065 FILLER_0_52_433
*3066 FILLER_0_52_445
*3067 FILLER_0_52_45
*3068 FILLER_0_52_457
*3069 FILLER_0_52_469
*3070 FILLER_0_52_475
*3071 FILLER_0_52_477
*3072 FILLER_0_52_489
*3073 FILLER_0_52_501
*3074 FILLER_0_52_513
*3075 FILLER_0_52_75
*3076 FILLER_0_53_107
*3077 FILLER_0_53_111
*3078 FILLER_0_53_113
*3079 FILLER_0_53_125
*3080 FILLER_0_53_137
*3081 FILLER_0_53_141
*3082 FILLER_0_53_15
*3083 FILLER_0_53_162
*3084 FILLER_0_53_166
*3085 FILLER_0_53_169
*3086 FILLER_0_53_179
*3087 FILLER_0_53_185
*3088 FILLER_0_53_195
*3089 FILLER_0_53_219
*3090 FILLER_0_53_223
*3091 FILLER_0_53_225
*3092 FILLER_0_53_23
*3093 FILLER_0_53_240
*3094 FILLER_0_53_268
*3095 FILLER_0_53_297
*3096 FILLER_0_53_3
*3097 FILLER_0_53_31
*3098 FILLER_0_53_315
*3099 FILLER_0_53_330
*3100 FILLER_0_53_361
*3101 FILLER_0_53_373
*3102 FILLER_0_53_385
*3103 FILLER_0_53_391
*3104 FILLER_0_53_393
*3105 FILLER_0_53_405
*3106 FILLER_0_53_417
*3107 FILLER_0_53_429
*3108 FILLER_0_53_43
*3109 FILLER_0_53_441
*3110 FILLER_0_53_447
*3111 FILLER_0_53_449
*3112 FILLER_0_53_461
*3113 FILLER_0_53_473
*3114 FILLER_0_53_485
*3115 FILLER_0_53_497
*3116 FILLER_0_53_503
*3117 FILLER_0_53_505
*3118 FILLER_0_53_513
*3119 FILLER_0_53_57
*3120 FILLER_0_53_83
*3121 FILLER_0_53_95
*3122 FILLER_0_54_109
*3123 FILLER_0_54_121
*3124 FILLER_0_54_133
*3125 FILLER_0_54_139
*3126 FILLER_0_54_144
*3127 FILLER_0_54_15
*3128 FILLER_0_54_156
*3129 FILLER_0_54_176
*3130 FILLER_0_54_222
*3131 FILLER_0_54_234
*3132 FILLER_0_54_246
*3133 FILLER_0_54_251
*3134 FILLER_0_54_253
*3135 FILLER_0_54_264
*3136 FILLER_0_54_27
*3137 FILLER_0_54_276
*3138 FILLER_0_54_288
*3139 FILLER_0_54_29
*3140 FILLER_0_54_3
*3141 FILLER_0_54_300
*3142 FILLER_0_54_318
*3143 FILLER_0_54_326
*3144 FILLER_0_54_343
*3145 FILLER_0_54_355
*3146 FILLER_0_54_363
*3147 FILLER_0_54_365
*3148 FILLER_0_54_377
*3149 FILLER_0_54_389
*3150 FILLER_0_54_401
*3151 FILLER_0_54_41
*3152 FILLER_0_54_413
*3153 FILLER_0_54_419
*3154 FILLER_0_54_421
*3155 FILLER_0_54_433
*3156 FILLER_0_54_445
*3157 FILLER_0_54_457
*3158 FILLER_0_54_469
*3159 FILLER_0_54_475
*3160 FILLER_0_54_477
*3161 FILLER_0_54_489
*3162 FILLER_0_54_501
*3163 FILLER_0_54_513
*3164 FILLER_0_54_62
*3165 FILLER_0_54_72
*3166 FILLER_0_54_85
*3167 FILLER_0_54_97
*3168 FILLER_0_55_105
*3169 FILLER_0_55_15
*3170 FILLER_0_55_150
*3171 FILLER_0_55_162
*3172 FILLER_0_55_189
*3173 FILLER_0_55_201
*3174 FILLER_0_55_219
*3175 FILLER_0_55_223
*3176 FILLER_0_55_225
*3177 FILLER_0_55_237
*3178 FILLER_0_55_261
*3179 FILLER_0_55_27
*3180 FILLER_0_55_273
*3181 FILLER_0_55_277
*3182 FILLER_0_55_290
*3183 FILLER_0_55_3
*3184 FILLER_0_55_302
*3185 FILLER_0_55_322
*3186 FILLER_0_55_354
*3187 FILLER_0_55_366
*3188 FILLER_0_55_378
*3189 FILLER_0_55_39
*3190 FILLER_0_55_390
*3191 FILLER_0_55_393
*3192 FILLER_0_55_405
*3193 FILLER_0_55_417
*3194 FILLER_0_55_429
*3195 FILLER_0_55_441
*3196 FILLER_0_55_447
*3197 FILLER_0_55_449
*3198 FILLER_0_55_461
*3199 FILLER_0_55_473
*3200 FILLER_0_55_485
*3201 FILLER_0_55_497
*3202 FILLER_0_55_503
*3203 FILLER_0_55_505
*3204 FILLER_0_55_51
*3205 FILLER_0_55_513
*3206 FILLER_0_55_55
*3207 FILLER_0_55_57
*3208 FILLER_0_55_69
*3209 FILLER_0_55_81
*3210 FILLER_0_55_93
*3211 FILLER_0_56_136
*3212 FILLER_0_56_15
*3213 FILLER_0_56_157
*3214 FILLER_0_56_169
*3215 FILLER_0_56_181
*3216 FILLER_0_56_193
*3217 FILLER_0_56_197
*3218 FILLER_0_56_202
*3219 FILLER_0_56_225
*3220 FILLER_0_56_229
*3221 FILLER_0_56_239
*3222 FILLER_0_56_251
*3223 FILLER_0_56_27
*3224 FILLER_0_56_270
*3225 FILLER_0_56_29
*3226 FILLER_0_56_295
*3227 FILLER_0_56_3
*3228 FILLER_0_56_307
*3229 FILLER_0_56_318
*3230 FILLER_0_56_330
*3231 FILLER_0_56_342
*3232 FILLER_0_56_354
*3233 FILLER_0_56_362
*3234 FILLER_0_56_365
*3235 FILLER_0_56_377
*3236 FILLER_0_56_389
*3237 FILLER_0_56_401
*3238 FILLER_0_56_41
*3239 FILLER_0_56_413
*3240 FILLER_0_56_419
*3241 FILLER_0_56_421
*3242 FILLER_0_56_433
*3243 FILLER_0_56_445
*3244 FILLER_0_56_457
*3245 FILLER_0_56_469
*3246 FILLER_0_56_475
*3247 FILLER_0_56_477
*3248 FILLER_0_56_489
*3249 FILLER_0_56_501
*3250 FILLER_0_56_509
*3251 FILLER_0_56_53
*3252 FILLER_0_56_65
*3253 FILLER_0_56_77
*3254 FILLER_0_56_83
*3255 FILLER_0_56_85
*3256 FILLER_0_56_97
*3257 FILLER_0_57_105
*3258 FILLER_0_57_111
*3259 FILLER_0_57_142
*3260 FILLER_0_57_15
*3261 FILLER_0_57_160
*3262 FILLER_0_57_164
*3263 FILLER_0_57_185
*3264 FILLER_0_57_198
*3265 FILLER_0_57_222
*3266 FILLER_0_57_262
*3267 FILLER_0_57_27
*3268 FILLER_0_57_274
*3269 FILLER_0_57_279
*3270 FILLER_0_57_290
*3271 FILLER_0_57_3
*3272 FILLER_0_57_329
*3273 FILLER_0_57_335
*3274 FILLER_0_57_337
*3275 FILLER_0_57_349
*3276 FILLER_0_57_361
*3277 FILLER_0_57_373
*3278 FILLER_0_57_385
*3279 FILLER_0_57_39
*3280 FILLER_0_57_391
*3281 FILLER_0_57_393
*3282 FILLER_0_57_405
*3283 FILLER_0_57_417
*3284 FILLER_0_57_429
*3285 FILLER_0_57_441
*3286 FILLER_0_57_447
*3287 FILLER_0_57_449
*3288 FILLER_0_57_461
*3289 FILLER_0_57_473
*3290 FILLER_0_57_485
*3291 FILLER_0_57_497
*3292 FILLER_0_57_503
*3293 FILLER_0_57_505
*3294 FILLER_0_57_51
*3295 FILLER_0_57_513
*3296 FILLER_0_57_55
*3297 FILLER_0_57_57
*3298 FILLER_0_57_69
*3299 FILLER_0_57_81
*3300 FILLER_0_57_93
*3301 FILLER_0_58_109
*3302 FILLER_0_58_121
*3303 FILLER_0_58_139
*3304 FILLER_0_58_141
*3305 FILLER_0_58_15
*3306 FILLER_0_58_197
*3307 FILLER_0_58_219
*3308 FILLER_0_58_230
*3309 FILLER_0_58_246
*3310 FILLER_0_58_269
*3311 FILLER_0_58_27
*3312 FILLER_0_58_29
*3313 FILLER_0_58_3
*3314 FILLER_0_58_312
*3315 FILLER_0_58_322
*3316 FILLER_0_58_334
*3317 FILLER_0_58_346
*3318 FILLER_0_58_358
*3319 FILLER_0_58_365
*3320 FILLER_0_58_377
*3321 FILLER_0_58_389
*3322 FILLER_0_58_401
*3323 FILLER_0_58_41
*3324 FILLER_0_58_413
*3325 FILLER_0_58_419
*3326 FILLER_0_58_421
*3327 FILLER_0_58_433
*3328 FILLER_0_58_445
*3329 FILLER_0_58_457
*3330 FILLER_0_58_469
*3331 FILLER_0_58_475
*3332 FILLER_0_58_477
*3333 FILLER_0_58_489
*3334 FILLER_0_58_501
*3335 FILLER_0_58_513
*3336 FILLER_0_58_53
*3337 FILLER_0_58_65
*3338 FILLER_0_58_77
*3339 FILLER_0_58_83
*3340 FILLER_0_58_85
*3341 FILLER_0_58_97
*3342 FILLER_0_59_105
*3343 FILLER_0_59_111
*3344 FILLER_0_59_113
*3345 FILLER_0_59_125
*3346 FILLER_0_59_137
*3347 FILLER_0_59_146
*3348 FILLER_0_59_169
*3349 FILLER_0_59_191
*3350 FILLER_0_59_203
*3351 FILLER_0_59_207
*3352 FILLER_0_59_21
*3353 FILLER_0_59_211
*3354 FILLER_0_59_223
*3355 FILLER_0_59_225
*3356 FILLER_0_59_240
*3357 FILLER_0_59_261
*3358 FILLER_0_59_271
*3359 FILLER_0_59_279
*3360 FILLER_0_59_281
*3361 FILLER_0_59_295
*3362 FILLER_0_59_314
*3363 FILLER_0_59_326
*3364 FILLER_0_59_33
*3365 FILLER_0_59_334
*3366 FILLER_0_59_337
*3367 FILLER_0_59_349
*3368 FILLER_0_59_361
*3369 FILLER_0_59_373
*3370 FILLER_0_59_385
*3371 FILLER_0_59_391
*3372 FILLER_0_59_393
*3373 FILLER_0_59_405
*3374 FILLER_0_59_417
*3375 FILLER_0_59_429
*3376 FILLER_0_59_441
*3377 FILLER_0_59_447
*3378 FILLER_0_59_449
*3379 FILLER_0_59_45
*3380 FILLER_0_59_461
*3381 FILLER_0_59_473
*3382 FILLER_0_59_485
*3383 FILLER_0_59_497
*3384 FILLER_0_59_503
*3385 FILLER_0_59_505
*3386 FILLER_0_59_513
*3387 FILLER_0_59_53
*3388 FILLER_0_59_57
*3389 FILLER_0_59_69
*3390 FILLER_0_59_81
*3391 FILLER_0_59_9
*3392 FILLER_0_59_93
*3393 FILLER_0_5_105
*3394 FILLER_0_5_111
*3395 FILLER_0_5_113
*3396 FILLER_0_5_125
*3397 FILLER_0_5_137
*3398 FILLER_0_5_149
*3399 FILLER_0_5_15
*3400 FILLER_0_5_161
*3401 FILLER_0_5_167
*3402 FILLER_0_5_169
*3403 FILLER_0_5_181
*3404 FILLER_0_5_193
*3405 FILLER_0_5_205
*3406 FILLER_0_5_217
*3407 FILLER_0_5_223
*3408 FILLER_0_5_225
*3409 FILLER_0_5_237
*3410 FILLER_0_5_249
*3411 FILLER_0_5_261
*3412 FILLER_0_5_27
*3413 FILLER_0_5_273
*3414 FILLER_0_5_279
*3415 FILLER_0_5_281
*3416 FILLER_0_5_293
*3417 FILLER_0_5_3
*3418 FILLER_0_5_305
*3419 FILLER_0_5_317
*3420 FILLER_0_5_329
*3421 FILLER_0_5_335
*3422 FILLER_0_5_337
*3423 FILLER_0_5_349
*3424 FILLER_0_5_361
*3425 FILLER_0_5_373
*3426 FILLER_0_5_385
*3427 FILLER_0_5_39
*3428 FILLER_0_5_391
*3429 FILLER_0_5_393
*3430 FILLER_0_5_405
*3431 FILLER_0_5_417
*3432 FILLER_0_5_429
*3433 FILLER_0_5_441
*3434 FILLER_0_5_447
*3435 FILLER_0_5_449
*3436 FILLER_0_5_461
*3437 FILLER_0_5_473
*3438 FILLER_0_5_485
*3439 FILLER_0_5_497
*3440 FILLER_0_5_503
*3441 FILLER_0_5_505
*3442 FILLER_0_5_51
*3443 FILLER_0_5_513
*3444 FILLER_0_5_55
*3445 FILLER_0_5_57
*3446 FILLER_0_5_69
*3447 FILLER_0_5_81
*3448 FILLER_0_5_93
*3449 FILLER_0_60_109
*3450 FILLER_0_60_121
*3451 FILLER_0_60_133
*3452 FILLER_0_60_139
*3453 FILLER_0_60_141
*3454 FILLER_0_60_15
*3455 FILLER_0_60_150
*3456 FILLER_0_60_158
*3457 FILLER_0_60_176
*3458 FILLER_0_60_188
*3459 FILLER_0_60_193
*3460 FILLER_0_60_197
*3461 FILLER_0_60_201
*3462 FILLER_0_60_211
*3463 FILLER_0_60_223
*3464 FILLER_0_60_253
*3465 FILLER_0_60_265
*3466 FILLER_0_60_27
*3467 FILLER_0_60_277
*3468 FILLER_0_60_289
*3469 FILLER_0_60_29
*3470 FILLER_0_60_3
*3471 FILLER_0_60_301
*3472 FILLER_0_60_307
*3473 FILLER_0_60_309
*3474 FILLER_0_60_321
*3475 FILLER_0_60_333
*3476 FILLER_0_60_345
*3477 FILLER_0_60_357
*3478 FILLER_0_60_363
*3479 FILLER_0_60_365
*3480 FILLER_0_60_377
*3481 FILLER_0_60_389
*3482 FILLER_0_60_401
*3483 FILLER_0_60_41
*3484 FILLER_0_60_413
*3485 FILLER_0_60_419
*3486 FILLER_0_60_421
*3487 FILLER_0_60_433
*3488 FILLER_0_60_445
*3489 FILLER_0_60_457
*3490 FILLER_0_60_469
*3491 FILLER_0_60_475
*3492 FILLER_0_60_477
*3493 FILLER_0_60_489
*3494 FILLER_0_60_501
*3495 FILLER_0_60_513
*3496 FILLER_0_60_53
*3497 FILLER_0_60_65
*3498 FILLER_0_60_77
*3499 FILLER_0_60_83
*3500 FILLER_0_60_85
*3501 FILLER_0_60_97
*3502 FILLER_0_61_105
*3503 FILLER_0_61_111
*3504 FILLER_0_61_113
*3505 FILLER_0_61_125
*3506 FILLER_0_61_137
*3507 FILLER_0_61_15
*3508 FILLER_0_61_178
*3509 FILLER_0_61_212
*3510 FILLER_0_61_225
*3511 FILLER_0_61_237
*3512 FILLER_0_61_241
*3513 FILLER_0_61_267
*3514 FILLER_0_61_27
*3515 FILLER_0_61_279
*3516 FILLER_0_61_281
*3517 FILLER_0_61_293
*3518 FILLER_0_61_3
*3519 FILLER_0_61_305
*3520 FILLER_0_61_317
*3521 FILLER_0_61_329
*3522 FILLER_0_61_335
*3523 FILLER_0_61_337
*3524 FILLER_0_61_349
*3525 FILLER_0_61_361
*3526 FILLER_0_61_373
*3527 FILLER_0_61_385
*3528 FILLER_0_61_39
*3529 FILLER_0_61_391
*3530 FILLER_0_61_393
*3531 FILLER_0_61_405
*3532 FILLER_0_61_417
*3533 FILLER_0_61_429
*3534 FILLER_0_61_441
*3535 FILLER_0_61_447
*3536 FILLER_0_61_449
*3537 FILLER_0_61_461
*3538 FILLER_0_61_473
*3539 FILLER_0_61_485
*3540 FILLER_0_61_497
*3541 FILLER_0_61_503
*3542 FILLER_0_61_505
*3543 FILLER_0_61_51
*3544 FILLER_0_61_513
*3545 FILLER_0_61_55
*3546 FILLER_0_61_57
*3547 FILLER_0_61_69
*3548 FILLER_0_61_81
*3549 FILLER_0_61_93
*3550 FILLER_0_62_109
*3551 FILLER_0_62_121
*3552 FILLER_0_62_133
*3553 FILLER_0_62_139
*3554 FILLER_0_62_141
*3555 FILLER_0_62_15
*3556 FILLER_0_62_153
*3557 FILLER_0_62_172
*3558 FILLER_0_62_183
*3559 FILLER_0_62_195
*3560 FILLER_0_62_217
*3561 FILLER_0_62_229
*3562 FILLER_0_62_241
*3563 FILLER_0_62_249
*3564 FILLER_0_62_253
*3565 FILLER_0_62_259
*3566 FILLER_0_62_268
*3567 FILLER_0_62_27
*3568 FILLER_0_62_280
*3569 FILLER_0_62_29
*3570 FILLER_0_62_292
*3571 FILLER_0_62_3
*3572 FILLER_0_62_304
*3573 FILLER_0_62_309
*3574 FILLER_0_62_321
*3575 FILLER_0_62_333
*3576 FILLER_0_62_345
*3577 FILLER_0_62_357
*3578 FILLER_0_62_363
*3579 FILLER_0_62_365
*3580 FILLER_0_62_377
*3581 FILLER_0_62_389
*3582 FILLER_0_62_401
*3583 FILLER_0_62_41
*3584 FILLER_0_62_413
*3585 FILLER_0_62_419
*3586 FILLER_0_62_421
*3587 FILLER_0_62_433
*3588 FILLER_0_62_445
*3589 FILLER_0_62_457
*3590 FILLER_0_62_469
*3591 FILLER_0_62_475
*3592 FILLER_0_62_477
*3593 FILLER_0_62_489
*3594 FILLER_0_62_501
*3595 FILLER_0_62_513
*3596 FILLER_0_62_53
*3597 FILLER_0_62_65
*3598 FILLER_0_62_77
*3599 FILLER_0_62_83
*3600 FILLER_0_62_85
*3601 FILLER_0_62_97
*3602 FILLER_0_63_105
*3603 FILLER_0_63_111
*3604 FILLER_0_63_113
*3605 FILLER_0_63_125
*3606 FILLER_0_63_137
*3607 FILLER_0_63_149
*3608 FILLER_0_63_15
*3609 FILLER_0_63_161
*3610 FILLER_0_63_167
*3611 FILLER_0_63_169
*3612 FILLER_0_63_181
*3613 FILLER_0_63_193
*3614 FILLER_0_63_207
*3615 FILLER_0_63_219
*3616 FILLER_0_63_223
*3617 FILLER_0_63_225
*3618 FILLER_0_63_237
*3619 FILLER_0_63_249
*3620 FILLER_0_63_261
*3621 FILLER_0_63_27
*3622 FILLER_0_63_273
*3623 FILLER_0_63_279
*3624 FILLER_0_63_281
*3625 FILLER_0_63_293
*3626 FILLER_0_63_3
*3627 FILLER_0_63_305
*3628 FILLER_0_63_317
*3629 FILLER_0_63_329
*3630 FILLER_0_63_335
*3631 FILLER_0_63_337
*3632 FILLER_0_63_349
*3633 FILLER_0_63_361
*3634 FILLER_0_63_373
*3635 FILLER_0_63_385
*3636 FILLER_0_63_39
*3637 FILLER_0_63_391
*3638 FILLER_0_63_393
*3639 FILLER_0_63_405
*3640 FILLER_0_63_417
*3641 FILLER_0_63_429
*3642 FILLER_0_63_441
*3643 FILLER_0_63_447
*3644 FILLER_0_63_449
*3645 FILLER_0_63_461
*3646 FILLER_0_63_473
*3647 FILLER_0_63_485
*3648 FILLER_0_63_497
*3649 FILLER_0_63_503
*3650 FILLER_0_63_505
*3651 FILLER_0_63_51
*3652 FILLER_0_63_513
*3653 FILLER_0_63_55
*3654 FILLER_0_63_57
*3655 FILLER_0_63_69
*3656 FILLER_0_63_81
*3657 FILLER_0_63_93
*3658 FILLER_0_64_109
*3659 FILLER_0_64_121
*3660 FILLER_0_64_133
*3661 FILLER_0_64_139
*3662 FILLER_0_64_141
*3663 FILLER_0_64_15
*3664 FILLER_0_64_153
*3665 FILLER_0_64_165
*3666 FILLER_0_64_177
*3667 FILLER_0_64_189
*3668 FILLER_0_64_195
*3669 FILLER_0_64_197
*3670 FILLER_0_64_209
*3671 FILLER_0_64_221
*3672 FILLER_0_64_233
*3673 FILLER_0_64_245
*3674 FILLER_0_64_251
*3675 FILLER_0_64_253
*3676 FILLER_0_64_265
*3677 FILLER_0_64_27
*3678 FILLER_0_64_277
*3679 FILLER_0_64_289
*3680 FILLER_0_64_29
*3681 FILLER_0_64_3
*3682 FILLER_0_64_301
*3683 FILLER_0_64_307
*3684 FILLER_0_64_309
*3685 FILLER_0_64_321
*3686 FILLER_0_64_333
*3687 FILLER_0_64_345
*3688 FILLER_0_64_357
*3689 FILLER_0_64_363
*3690 FILLER_0_64_365
*3691 FILLER_0_64_377
*3692 FILLER_0_64_389
*3693 FILLER_0_64_401
*3694 FILLER_0_64_41
*3695 FILLER_0_64_413
*3696 FILLER_0_64_419
*3697 FILLER_0_64_421
*3698 FILLER_0_64_433
*3699 FILLER_0_64_445
*3700 FILLER_0_64_457
*3701 FILLER_0_64_469
*3702 FILLER_0_64_475
*3703 FILLER_0_64_477
*3704 FILLER_0_64_489
*3705 FILLER_0_64_501
*3706 FILLER_0_64_513
*3707 FILLER_0_64_53
*3708 FILLER_0_64_65
*3709 FILLER_0_64_77
*3710 FILLER_0_64_83
*3711 FILLER_0_64_85
*3712 FILLER_0_64_97
*3713 FILLER_0_65_105
*3714 FILLER_0_65_111
*3715 FILLER_0_65_113
*3716 FILLER_0_65_125
*3717 FILLER_0_65_137
*3718 FILLER_0_65_149
*3719 FILLER_0_65_15
*3720 FILLER_0_65_161
*3721 FILLER_0_65_167
*3722 FILLER_0_65_169
*3723 FILLER_0_65_181
*3724 FILLER_0_65_193
*3725 FILLER_0_65_205
*3726 FILLER_0_65_217
*3727 FILLER_0_65_223
*3728 FILLER_0_65_225
*3729 FILLER_0_65_237
*3730 FILLER_0_65_249
*3731 FILLER_0_65_261
*3732 FILLER_0_65_27
*3733 FILLER_0_65_273
*3734 FILLER_0_65_279
*3735 FILLER_0_65_281
*3736 FILLER_0_65_293
*3737 FILLER_0_65_3
*3738 FILLER_0_65_305
*3739 FILLER_0_65_317
*3740 FILLER_0_65_329
*3741 FILLER_0_65_335
*3742 FILLER_0_65_337
*3743 FILLER_0_65_349
*3744 FILLER_0_65_361
*3745 FILLER_0_65_373
*3746 FILLER_0_65_385
*3747 FILLER_0_65_39
*3748 FILLER_0_65_391
*3749 FILLER_0_65_393
*3750 FILLER_0_65_405
*3751 FILLER_0_65_417
*3752 FILLER_0_65_429
*3753 FILLER_0_65_441
*3754 FILLER_0_65_447
*3755 FILLER_0_65_449
*3756 FILLER_0_65_461
*3757 FILLER_0_65_473
*3758 FILLER_0_65_485
*3759 FILLER_0_65_497
*3760 FILLER_0_65_503
*3761 FILLER_0_65_505
*3762 FILLER_0_65_51
*3763 FILLER_0_65_513
*3764 FILLER_0_65_55
*3765 FILLER_0_65_57
*3766 FILLER_0_65_69
*3767 FILLER_0_65_81
*3768 FILLER_0_65_93
*3769 FILLER_0_66_109
*3770 FILLER_0_66_121
*3771 FILLER_0_66_133
*3772 FILLER_0_66_139
*3773 FILLER_0_66_141
*3774 FILLER_0_66_15
*3775 FILLER_0_66_153
*3776 FILLER_0_66_165
*3777 FILLER_0_66_177
*3778 FILLER_0_66_189
*3779 FILLER_0_66_195
*3780 FILLER_0_66_197
*3781 FILLER_0_66_209
*3782 FILLER_0_66_221
*3783 FILLER_0_66_233
*3784 FILLER_0_66_245
*3785 FILLER_0_66_251
*3786 FILLER_0_66_253
*3787 FILLER_0_66_265
*3788 FILLER_0_66_27
*3789 FILLER_0_66_277
*3790 FILLER_0_66_289
*3791 FILLER_0_66_29
*3792 FILLER_0_66_3
*3793 FILLER_0_66_301
*3794 FILLER_0_66_307
*3795 FILLER_0_66_309
*3796 FILLER_0_66_321
*3797 FILLER_0_66_333
*3798 FILLER_0_66_345
*3799 FILLER_0_66_357
*3800 FILLER_0_66_363
*3801 FILLER_0_66_365
*3802 FILLER_0_66_377
*3803 FILLER_0_66_389
*3804 FILLER_0_66_401
*3805 FILLER_0_66_41
*3806 FILLER_0_66_413
*3807 FILLER_0_66_419
*3808 FILLER_0_66_421
*3809 FILLER_0_66_433
*3810 FILLER_0_66_445
*3811 FILLER_0_66_457
*3812 FILLER_0_66_469
*3813 FILLER_0_66_475
*3814 FILLER_0_66_477
*3815 FILLER_0_66_489
*3816 FILLER_0_66_501
*3817 FILLER_0_66_513
*3818 FILLER_0_66_53
*3819 FILLER_0_66_65
*3820 FILLER_0_66_77
*3821 FILLER_0_66_83
*3822 FILLER_0_66_85
*3823 FILLER_0_66_97
*3824 FILLER_0_67_105
*3825 FILLER_0_67_111
*3826 FILLER_0_67_113
*3827 FILLER_0_67_125
*3828 FILLER_0_67_137
*3829 FILLER_0_67_149
*3830 FILLER_0_67_15
*3831 FILLER_0_67_161
*3832 FILLER_0_67_167
*3833 FILLER_0_67_169
*3834 FILLER_0_67_181
*3835 FILLER_0_67_193
*3836 FILLER_0_67_205
*3837 FILLER_0_67_217
*3838 FILLER_0_67_223
*3839 FILLER_0_67_225
*3840 FILLER_0_67_237
*3841 FILLER_0_67_249
*3842 FILLER_0_67_261
*3843 FILLER_0_67_27
*3844 FILLER_0_67_273
*3845 FILLER_0_67_279
*3846 FILLER_0_67_281
*3847 FILLER_0_67_293
*3848 FILLER_0_67_3
*3849 FILLER_0_67_305
*3850 FILLER_0_67_317
*3851 FILLER_0_67_329
*3852 FILLER_0_67_335
*3853 FILLER_0_67_337
*3854 FILLER_0_67_349
*3855 FILLER_0_67_361
*3856 FILLER_0_67_373
*3857 FILLER_0_67_385
*3858 FILLER_0_67_39
*3859 FILLER_0_67_391
*3860 FILLER_0_67_393
*3861 FILLER_0_67_405
*3862 FILLER_0_67_417
*3863 FILLER_0_67_429
*3864 FILLER_0_67_441
*3865 FILLER_0_67_447
*3866 FILLER_0_67_449
*3867 FILLER_0_67_461
*3868 FILLER_0_67_473
*3869 FILLER_0_67_485
*3870 FILLER_0_67_497
*3871 FILLER_0_67_503
*3872 FILLER_0_67_505
*3873 FILLER_0_67_51
*3874 FILLER_0_67_513
*3875 FILLER_0_67_55
*3876 FILLER_0_67_57
*3877 FILLER_0_67_69
*3878 FILLER_0_67_81
*3879 FILLER_0_67_93
*3880 FILLER_0_68_109
*3881 FILLER_0_68_121
*3882 FILLER_0_68_133
*3883 FILLER_0_68_139
*3884 FILLER_0_68_141
*3885 FILLER_0_68_15
*3886 FILLER_0_68_153
*3887 FILLER_0_68_165
*3888 FILLER_0_68_177
*3889 FILLER_0_68_189
*3890 FILLER_0_68_195
*3891 FILLER_0_68_197
*3892 FILLER_0_68_209
*3893 FILLER_0_68_221
*3894 FILLER_0_68_233
*3895 FILLER_0_68_245
*3896 FILLER_0_68_251
*3897 FILLER_0_68_253
*3898 FILLER_0_68_265
*3899 FILLER_0_68_27
*3900 FILLER_0_68_277
*3901 FILLER_0_68_289
*3902 FILLER_0_68_29
*3903 FILLER_0_68_3
*3904 FILLER_0_68_301
*3905 FILLER_0_68_307
*3906 FILLER_0_68_309
*3907 FILLER_0_68_321
*3908 FILLER_0_68_333
*3909 FILLER_0_68_345
*3910 FILLER_0_68_357
*3911 FILLER_0_68_363
*3912 FILLER_0_68_365
*3913 FILLER_0_68_377
*3914 FILLER_0_68_389
*3915 FILLER_0_68_401
*3916 FILLER_0_68_41
*3917 FILLER_0_68_413
*3918 FILLER_0_68_419
*3919 FILLER_0_68_421
*3920 FILLER_0_68_433
*3921 FILLER_0_68_445
*3922 FILLER_0_68_457
*3923 FILLER_0_68_469
*3924 FILLER_0_68_475
*3925 FILLER_0_68_477
*3926 FILLER_0_68_489
*3927 FILLER_0_68_501
*3928 FILLER_0_68_513
*3929 FILLER_0_68_53
*3930 FILLER_0_68_65
*3931 FILLER_0_68_77
*3932 FILLER_0_68_83
*3933 FILLER_0_68_85
*3934 FILLER_0_68_97
*3935 FILLER_0_69_105
*3936 FILLER_0_69_111
*3937 FILLER_0_69_113
*3938 FILLER_0_69_125
*3939 FILLER_0_69_137
*3940 FILLER_0_69_149
*3941 FILLER_0_69_15
*3942 FILLER_0_69_161
*3943 FILLER_0_69_167
*3944 FILLER_0_69_169
*3945 FILLER_0_69_181
*3946 FILLER_0_69_193
*3947 FILLER_0_69_205
*3948 FILLER_0_69_217
*3949 FILLER_0_69_223
*3950 FILLER_0_69_225
*3951 FILLER_0_69_237
*3952 FILLER_0_69_249
*3953 FILLER_0_69_261
*3954 FILLER_0_69_27
*3955 FILLER_0_69_273
*3956 FILLER_0_69_279
*3957 FILLER_0_69_281
*3958 FILLER_0_69_293
*3959 FILLER_0_69_3
*3960 FILLER_0_69_305
*3961 FILLER_0_69_317
*3962 FILLER_0_69_329
*3963 FILLER_0_69_335
*3964 FILLER_0_69_337
*3965 FILLER_0_69_349
*3966 FILLER_0_69_361
*3967 FILLER_0_69_373
*3968 FILLER_0_69_385
*3969 FILLER_0_69_39
*3970 FILLER_0_69_391
*3971 FILLER_0_69_393
*3972 FILLER_0_69_405
*3973 FILLER_0_69_417
*3974 FILLER_0_69_429
*3975 FILLER_0_69_441
*3976 FILLER_0_69_447
*3977 FILLER_0_69_449
*3978 FILLER_0_69_461
*3979 FILLER_0_69_473
*3980 FILLER_0_69_485
*3981 FILLER_0_69_497
*3982 FILLER_0_69_503
*3983 FILLER_0_69_505
*3984 FILLER_0_69_51
*3985 FILLER_0_69_513
*3986 FILLER_0_69_55
*3987 FILLER_0_69_57
*3988 FILLER_0_69_69
*3989 FILLER_0_69_81
*3990 FILLER_0_69_93
*3991 FILLER_0_6_109
*3992 FILLER_0_6_121
*3993 FILLER_0_6_133
*3994 FILLER_0_6_139
*3995 FILLER_0_6_141
*3996 FILLER_0_6_15
*3997 FILLER_0_6_153
*3998 FILLER_0_6_165
*3999 FILLER_0_6_177
*4000 FILLER_0_6_189
*4001 FILLER_0_6_195
*4002 FILLER_0_6_197
*4003 FILLER_0_6_209
*4004 FILLER_0_6_221
*4005 FILLER_0_6_233
*4006 FILLER_0_6_245
*4007 FILLER_0_6_251
*4008 FILLER_0_6_253
*4009 FILLER_0_6_265
*4010 FILLER_0_6_27
*4011 FILLER_0_6_277
*4012 FILLER_0_6_289
*4013 FILLER_0_6_29
*4014 FILLER_0_6_3
*4015 FILLER_0_6_301
*4016 FILLER_0_6_307
*4017 FILLER_0_6_309
*4018 FILLER_0_6_321
*4019 FILLER_0_6_333
*4020 FILLER_0_6_345
*4021 FILLER_0_6_357
*4022 FILLER_0_6_363
*4023 FILLER_0_6_365
*4024 FILLER_0_6_377
*4025 FILLER_0_6_389
*4026 FILLER_0_6_401
*4027 FILLER_0_6_41
*4028 FILLER_0_6_413
*4029 FILLER_0_6_419
*4030 FILLER_0_6_421
*4031 FILLER_0_6_433
*4032 FILLER_0_6_445
*4033 FILLER_0_6_457
*4034 FILLER_0_6_469
*4035 FILLER_0_6_475
*4036 FILLER_0_6_477
*4037 FILLER_0_6_489
*4038 FILLER_0_6_501
*4039 FILLER_0_6_513
*4040 FILLER_0_6_53
*4041 FILLER_0_6_65
*4042 FILLER_0_6_77
*4043 FILLER_0_6_83
*4044 FILLER_0_6_85
*4045 FILLER_0_6_97
*4046 FILLER_0_70_109
*4047 FILLER_0_70_121
*4048 FILLER_0_70_133
*4049 FILLER_0_70_139
*4050 FILLER_0_70_141
*4051 FILLER_0_70_15
*4052 FILLER_0_70_153
*4053 FILLER_0_70_165
*4054 FILLER_0_70_177
*4055 FILLER_0_70_189
*4056 FILLER_0_70_195
*4057 FILLER_0_70_197
*4058 FILLER_0_70_209
*4059 FILLER_0_70_221
*4060 FILLER_0_70_233
*4061 FILLER_0_70_245
*4062 FILLER_0_70_251
*4063 FILLER_0_70_253
*4064 FILLER_0_70_265
*4065 FILLER_0_70_27
*4066 FILLER_0_70_277
*4067 FILLER_0_70_289
*4068 FILLER_0_70_29
*4069 FILLER_0_70_3
*4070 FILLER_0_70_301
*4071 FILLER_0_70_307
*4072 FILLER_0_70_309
*4073 FILLER_0_70_321
*4074 FILLER_0_70_333
*4075 FILLER_0_70_345
*4076 FILLER_0_70_357
*4077 FILLER_0_70_363
*4078 FILLER_0_70_365
*4079 FILLER_0_70_377
*4080 FILLER_0_70_389
*4081 FILLER_0_70_401
*4082 FILLER_0_70_41
*4083 FILLER_0_70_413
*4084 FILLER_0_70_419
*4085 FILLER_0_70_421
*4086 FILLER_0_70_433
*4087 FILLER_0_70_445
*4088 FILLER_0_70_457
*4089 FILLER_0_70_469
*4090 FILLER_0_70_475
*4091 FILLER_0_70_477
*4092 FILLER_0_70_489
*4093 FILLER_0_70_501
*4094 FILLER_0_70_513
*4095 FILLER_0_70_53
*4096 FILLER_0_70_65
*4097 FILLER_0_70_77
*4098 FILLER_0_70_83
*4099 FILLER_0_70_85
*4100 FILLER_0_70_97
*4101 FILLER_0_71_105
*4102 FILLER_0_71_111
*4103 FILLER_0_71_113
*4104 FILLER_0_71_125
*4105 FILLER_0_71_137
*4106 FILLER_0_71_149
*4107 FILLER_0_71_15
*4108 FILLER_0_71_161
*4109 FILLER_0_71_167
*4110 FILLER_0_71_169
*4111 FILLER_0_71_181
*4112 FILLER_0_71_193
*4113 FILLER_0_71_205
*4114 FILLER_0_71_217
*4115 FILLER_0_71_223
*4116 FILLER_0_71_225
*4117 FILLER_0_71_237
*4118 FILLER_0_71_249
*4119 FILLER_0_71_261
*4120 FILLER_0_71_27
*4121 FILLER_0_71_273
*4122 FILLER_0_71_279
*4123 FILLER_0_71_281
*4124 FILLER_0_71_293
*4125 FILLER_0_71_3
*4126 FILLER_0_71_305
*4127 FILLER_0_71_317
*4128 FILLER_0_71_329
*4129 FILLER_0_71_335
*4130 FILLER_0_71_337
*4131 FILLER_0_71_349
*4132 FILLER_0_71_361
*4133 FILLER_0_71_373
*4134 FILLER_0_71_385
*4135 FILLER_0_71_39
*4136 FILLER_0_71_391
*4137 FILLER_0_71_393
*4138 FILLER_0_71_405
*4139 FILLER_0_71_417
*4140 FILLER_0_71_429
*4141 FILLER_0_71_441
*4142 FILLER_0_71_447
*4143 FILLER_0_71_449
*4144 FILLER_0_71_461
*4145 FILLER_0_71_473
*4146 FILLER_0_71_485
*4147 FILLER_0_71_497
*4148 FILLER_0_71_503
*4149 FILLER_0_71_505
*4150 FILLER_0_71_51
*4151 FILLER_0_71_513
*4152 FILLER_0_71_55
*4153 FILLER_0_71_57
*4154 FILLER_0_71_69
*4155 FILLER_0_71_81
*4156 FILLER_0_71_93
*4157 FILLER_0_72_109
*4158 FILLER_0_72_121
*4159 FILLER_0_72_133
*4160 FILLER_0_72_139
*4161 FILLER_0_72_141
*4162 FILLER_0_72_15
*4163 FILLER_0_72_153
*4164 FILLER_0_72_165
*4165 FILLER_0_72_177
*4166 FILLER_0_72_189
*4167 FILLER_0_72_195
*4168 FILLER_0_72_197
*4169 FILLER_0_72_209
*4170 FILLER_0_72_221
*4171 FILLER_0_72_233
*4172 FILLER_0_72_245
*4173 FILLER_0_72_251
*4174 FILLER_0_72_253
*4175 FILLER_0_72_265
*4176 FILLER_0_72_27
*4177 FILLER_0_72_277
*4178 FILLER_0_72_289
*4179 FILLER_0_72_29
*4180 FILLER_0_72_3
*4181 FILLER_0_72_301
*4182 FILLER_0_72_307
*4183 FILLER_0_72_309
*4184 FILLER_0_72_321
*4185 FILLER_0_72_333
*4186 FILLER_0_72_345
*4187 FILLER_0_72_357
*4188 FILLER_0_72_363
*4189 FILLER_0_72_365
*4190 FILLER_0_72_377
*4191 FILLER_0_72_389
*4192 FILLER_0_72_401
*4193 FILLER_0_72_41
*4194 FILLER_0_72_413
*4195 FILLER_0_72_419
*4196 FILLER_0_72_421
*4197 FILLER_0_72_433
*4198 FILLER_0_72_445
*4199 FILLER_0_72_457
*4200 FILLER_0_72_469
*4201 FILLER_0_72_475
*4202 FILLER_0_72_477
*4203 FILLER_0_72_489
*4204 FILLER_0_72_501
*4205 FILLER_0_72_509
*4206 FILLER_0_72_53
*4207 FILLER_0_72_65
*4208 FILLER_0_72_77
*4209 FILLER_0_72_83
*4210 FILLER_0_72_85
*4211 FILLER_0_72_97
*4212 FILLER_0_73_105
*4213 FILLER_0_73_111
*4214 FILLER_0_73_113
*4215 FILLER_0_73_125
*4216 FILLER_0_73_137
*4217 FILLER_0_73_149
*4218 FILLER_0_73_15
*4219 FILLER_0_73_161
*4220 FILLER_0_73_167
*4221 FILLER_0_73_169
*4222 FILLER_0_73_181
*4223 FILLER_0_73_193
*4224 FILLER_0_73_205
*4225 FILLER_0_73_217
*4226 FILLER_0_73_223
*4227 FILLER_0_73_225
*4228 FILLER_0_73_237
*4229 FILLER_0_73_249
*4230 FILLER_0_73_261
*4231 FILLER_0_73_27
*4232 FILLER_0_73_273
*4233 FILLER_0_73_279
*4234 FILLER_0_73_281
*4235 FILLER_0_73_293
*4236 FILLER_0_73_3
*4237 FILLER_0_73_305
*4238 FILLER_0_73_317
*4239 FILLER_0_73_329
*4240 FILLER_0_73_335
*4241 FILLER_0_73_337
*4242 FILLER_0_73_349
*4243 FILLER_0_73_361
*4244 FILLER_0_73_373
*4245 FILLER_0_73_385
*4246 FILLER_0_73_39
*4247 FILLER_0_73_391
*4248 FILLER_0_73_393
*4249 FILLER_0_73_405
*4250 FILLER_0_73_417
*4251 FILLER_0_73_429
*4252 FILLER_0_73_441
*4253 FILLER_0_73_447
*4254 FILLER_0_73_449
*4255 FILLER_0_73_461
*4256 FILLER_0_73_473
*4257 FILLER_0_73_485
*4258 FILLER_0_73_497
*4259 FILLER_0_73_503
*4260 FILLER_0_73_505
*4261 FILLER_0_73_51
*4262 FILLER_0_73_513
*4263 FILLER_0_73_55
*4264 FILLER_0_73_57
*4265 FILLER_0_73_69
*4266 FILLER_0_73_81
*4267 FILLER_0_73_93
*4268 FILLER_0_74_109
*4269 FILLER_0_74_121
*4270 FILLER_0_74_133
*4271 FILLER_0_74_139
*4272 FILLER_0_74_141
*4273 FILLER_0_74_15
*4274 FILLER_0_74_153
*4275 FILLER_0_74_165
*4276 FILLER_0_74_177
*4277 FILLER_0_74_189
*4278 FILLER_0_74_195
*4279 FILLER_0_74_197
*4280 FILLER_0_74_209
*4281 FILLER_0_74_221
*4282 FILLER_0_74_233
*4283 FILLER_0_74_245
*4284 FILLER_0_74_251
*4285 FILLER_0_74_253
*4286 FILLER_0_74_265
*4287 FILLER_0_74_27
*4288 FILLER_0_74_277
*4289 FILLER_0_74_289
*4290 FILLER_0_74_29
*4291 FILLER_0_74_3
*4292 FILLER_0_74_301
*4293 FILLER_0_74_307
*4294 FILLER_0_74_309
*4295 FILLER_0_74_321
*4296 FILLER_0_74_333
*4297 FILLER_0_74_345
*4298 FILLER_0_74_357
*4299 FILLER_0_74_363
*4300 FILLER_0_74_365
*4301 FILLER_0_74_377
*4302 FILLER_0_74_389
*4303 FILLER_0_74_401
*4304 FILLER_0_74_41
*4305 FILLER_0_74_413
*4306 FILLER_0_74_419
*4307 FILLER_0_74_421
*4308 FILLER_0_74_433
*4309 FILLER_0_74_445
*4310 FILLER_0_74_457
*4311 FILLER_0_74_469
*4312 FILLER_0_74_475
*4313 FILLER_0_74_477
*4314 FILLER_0_74_489
*4315 FILLER_0_74_501
*4316 FILLER_0_74_513
*4317 FILLER_0_74_53
*4318 FILLER_0_74_65
*4319 FILLER_0_74_77
*4320 FILLER_0_74_83
*4321 FILLER_0_74_85
*4322 FILLER_0_74_97
*4323 FILLER_0_75_105
*4324 FILLER_0_75_111
*4325 FILLER_0_75_113
*4326 FILLER_0_75_125
*4327 FILLER_0_75_137
*4328 FILLER_0_75_149
*4329 FILLER_0_75_161
*4330 FILLER_0_75_167
*4331 FILLER_0_75_169
*4332 FILLER_0_75_181
*4333 FILLER_0_75_193
*4334 FILLER_0_75_205
*4335 FILLER_0_75_21
*4336 FILLER_0_75_217
*4337 FILLER_0_75_223
*4338 FILLER_0_75_225
*4339 FILLER_0_75_237
*4340 FILLER_0_75_249
*4341 FILLER_0_75_261
*4342 FILLER_0_75_273
*4343 FILLER_0_75_279
*4344 FILLER_0_75_281
*4345 FILLER_0_75_293
*4346 FILLER_0_75_305
*4347 FILLER_0_75_317
*4348 FILLER_0_75_329
*4349 FILLER_0_75_33
*4350 FILLER_0_75_335
*4351 FILLER_0_75_337
*4352 FILLER_0_75_349
*4353 FILLER_0_75_361
*4354 FILLER_0_75_373
*4355 FILLER_0_75_385
*4356 FILLER_0_75_391
*4357 FILLER_0_75_393
*4358 FILLER_0_75_405
*4359 FILLER_0_75_417
*4360 FILLER_0_75_429
*4361 FILLER_0_75_441
*4362 FILLER_0_75_447
*4363 FILLER_0_75_449
*4364 FILLER_0_75_45
*4365 FILLER_0_75_461
*4366 FILLER_0_75_473
*4367 FILLER_0_75_485
*4368 FILLER_0_75_497
*4369 FILLER_0_75_503
*4370 FILLER_0_75_505
*4371 FILLER_0_75_513
*4372 FILLER_0_75_53
*4373 FILLER_0_75_57
*4374 FILLER_0_75_69
*4375 FILLER_0_75_81
*4376 FILLER_0_75_9
*4377 FILLER_0_75_93
*4378 FILLER_0_76_109
*4379 FILLER_0_76_121
*4380 FILLER_0_76_133
*4381 FILLER_0_76_139
*4382 FILLER_0_76_141
*4383 FILLER_0_76_15
*4384 FILLER_0_76_153
*4385 FILLER_0_76_165
*4386 FILLER_0_76_177
*4387 FILLER_0_76_189
*4388 FILLER_0_76_195
*4389 FILLER_0_76_197
*4390 FILLER_0_76_209
*4391 FILLER_0_76_221
*4392 FILLER_0_76_233
*4393 FILLER_0_76_245
*4394 FILLER_0_76_251
*4395 FILLER_0_76_253
*4396 FILLER_0_76_265
*4397 FILLER_0_76_27
*4398 FILLER_0_76_277
*4399 FILLER_0_76_289
*4400 FILLER_0_76_29
*4401 FILLER_0_76_3
*4402 FILLER_0_76_301
*4403 FILLER_0_76_307
*4404 FILLER_0_76_309
*4405 FILLER_0_76_321
*4406 FILLER_0_76_333
*4407 FILLER_0_76_345
*4408 FILLER_0_76_357
*4409 FILLER_0_76_363
*4410 FILLER_0_76_365
*4411 FILLER_0_76_377
*4412 FILLER_0_76_389
*4413 FILLER_0_76_401
*4414 FILLER_0_76_41
*4415 FILLER_0_76_413
*4416 FILLER_0_76_419
*4417 FILLER_0_76_421
*4418 FILLER_0_76_433
*4419 FILLER_0_76_445
*4420 FILLER_0_76_457
*4421 FILLER_0_76_469
*4422 FILLER_0_76_475
*4423 FILLER_0_76_477
*4424 FILLER_0_76_489
*4425 FILLER_0_76_501
*4426 FILLER_0_76_513
*4427 FILLER_0_76_53
*4428 FILLER_0_76_65
*4429 FILLER_0_76_77
*4430 FILLER_0_76_83
*4431 FILLER_0_76_85
*4432 FILLER_0_76_97
*4433 FILLER_0_77_105
*4434 FILLER_0_77_111
*4435 FILLER_0_77_113
*4436 FILLER_0_77_125
*4437 FILLER_0_77_137
*4438 FILLER_0_77_149
*4439 FILLER_0_77_15
*4440 FILLER_0_77_161
*4441 FILLER_0_77_167
*4442 FILLER_0_77_169
*4443 FILLER_0_77_181
*4444 FILLER_0_77_193
*4445 FILLER_0_77_205
*4446 FILLER_0_77_217
*4447 FILLER_0_77_223
*4448 FILLER_0_77_225
*4449 FILLER_0_77_237
*4450 FILLER_0_77_249
*4451 FILLER_0_77_261
*4452 FILLER_0_77_27
*4453 FILLER_0_77_273
*4454 FILLER_0_77_279
*4455 FILLER_0_77_281
*4456 FILLER_0_77_293
*4457 FILLER_0_77_3
*4458 FILLER_0_77_305
*4459 FILLER_0_77_317
*4460 FILLER_0_77_329
*4461 FILLER_0_77_335
*4462 FILLER_0_77_337
*4463 FILLER_0_77_349
*4464 FILLER_0_77_361
*4465 FILLER_0_77_373
*4466 FILLER_0_77_385
*4467 FILLER_0_77_39
*4468 FILLER_0_77_391
*4469 FILLER_0_77_393
*4470 FILLER_0_77_405
*4471 FILLER_0_77_417
*4472 FILLER_0_77_429
*4473 FILLER_0_77_441
*4474 FILLER_0_77_447
*4475 FILLER_0_77_449
*4476 FILLER_0_77_461
*4477 FILLER_0_77_473
*4478 FILLER_0_77_485
*4479 FILLER_0_77_497
*4480 FILLER_0_77_503
*4481 FILLER_0_77_505
*4482 FILLER_0_77_51
*4483 FILLER_0_77_513
*4484 FILLER_0_77_55
*4485 FILLER_0_77_57
*4486 FILLER_0_77_69
*4487 FILLER_0_77_81
*4488 FILLER_0_77_93
*4489 FILLER_0_78_109
*4490 FILLER_0_78_121
*4491 FILLER_0_78_133
*4492 FILLER_0_78_139
*4493 FILLER_0_78_141
*4494 FILLER_0_78_15
*4495 FILLER_0_78_153
*4496 FILLER_0_78_165
*4497 FILLER_0_78_177
*4498 FILLER_0_78_189
*4499 FILLER_0_78_195
*4500 FILLER_0_78_197
*4501 FILLER_0_78_209
*4502 FILLER_0_78_221
*4503 FILLER_0_78_233
*4504 FILLER_0_78_245
*4505 FILLER_0_78_251
*4506 FILLER_0_78_253
*4507 FILLER_0_78_265
*4508 FILLER_0_78_27
*4509 FILLER_0_78_277
*4510 FILLER_0_78_289
*4511 FILLER_0_78_29
*4512 FILLER_0_78_3
*4513 FILLER_0_78_301
*4514 FILLER_0_78_307
*4515 FILLER_0_78_309
*4516 FILLER_0_78_321
*4517 FILLER_0_78_333
*4518 FILLER_0_78_345
*4519 FILLER_0_78_357
*4520 FILLER_0_78_363
*4521 FILLER_0_78_365
*4522 FILLER_0_78_377
*4523 FILLER_0_78_389
*4524 FILLER_0_78_401
*4525 FILLER_0_78_41
*4526 FILLER_0_78_413
*4527 FILLER_0_78_419
*4528 FILLER_0_78_421
*4529 FILLER_0_78_433
*4530 FILLER_0_78_445
*4531 FILLER_0_78_457
*4532 FILLER_0_78_469
*4533 FILLER_0_78_475
*4534 FILLER_0_78_477
*4535 FILLER_0_78_489
*4536 FILLER_0_78_501
*4537 FILLER_0_78_513
*4538 FILLER_0_78_53
*4539 FILLER_0_78_65
*4540 FILLER_0_78_77
*4541 FILLER_0_78_83
*4542 FILLER_0_78_85
*4543 FILLER_0_78_97
*4544 FILLER_0_79_105
*4545 FILLER_0_79_111
*4546 FILLER_0_79_113
*4547 FILLER_0_79_125
*4548 FILLER_0_79_137
*4549 FILLER_0_79_149
*4550 FILLER_0_79_15
*4551 FILLER_0_79_161
*4552 FILLER_0_79_167
*4553 FILLER_0_79_169
*4554 FILLER_0_79_181
*4555 FILLER_0_79_193
*4556 FILLER_0_79_205
*4557 FILLER_0_79_217
*4558 FILLER_0_79_223
*4559 FILLER_0_79_225
*4560 FILLER_0_79_237
*4561 FILLER_0_79_249
*4562 FILLER_0_79_261
*4563 FILLER_0_79_27
*4564 FILLER_0_79_273
*4565 FILLER_0_79_279
*4566 FILLER_0_79_281
*4567 FILLER_0_79_293
*4568 FILLER_0_79_3
*4569 FILLER_0_79_305
*4570 FILLER_0_79_317
*4571 FILLER_0_79_329
*4572 FILLER_0_79_335
*4573 FILLER_0_79_337
*4574 FILLER_0_79_349
*4575 FILLER_0_79_361
*4576 FILLER_0_79_373
*4577 FILLER_0_79_385
*4578 FILLER_0_79_39
*4579 FILLER_0_79_391
*4580 FILLER_0_79_393
*4581 FILLER_0_79_405
*4582 FILLER_0_79_417
*4583 FILLER_0_79_429
*4584 FILLER_0_79_441
*4585 FILLER_0_79_447
*4586 FILLER_0_79_449
*4587 FILLER_0_79_461
*4588 FILLER_0_79_473
*4589 FILLER_0_79_485
*4590 FILLER_0_79_497
*4591 FILLER_0_79_503
*4592 FILLER_0_79_505
*4593 FILLER_0_79_51
*4594 FILLER_0_79_513
*4595 FILLER_0_79_55
*4596 FILLER_0_79_57
*4597 FILLER_0_79_69
*4598 FILLER_0_79_81
*4599 FILLER_0_79_93
*4600 FILLER_0_7_105
*4601 FILLER_0_7_111
*4602 FILLER_0_7_113
*4603 FILLER_0_7_125
*4604 FILLER_0_7_137
*4605 FILLER_0_7_149
*4606 FILLER_0_7_15
*4607 FILLER_0_7_161
*4608 FILLER_0_7_167
*4609 FILLER_0_7_169
*4610 FILLER_0_7_181
*4611 FILLER_0_7_193
*4612 FILLER_0_7_205
*4613 FILLER_0_7_217
*4614 FILLER_0_7_223
*4615 FILLER_0_7_225
*4616 FILLER_0_7_237
*4617 FILLER_0_7_249
*4618 FILLER_0_7_261
*4619 FILLER_0_7_27
*4620 FILLER_0_7_273
*4621 FILLER_0_7_279
*4622 FILLER_0_7_281
*4623 FILLER_0_7_293
*4624 FILLER_0_7_3
*4625 FILLER_0_7_305
*4626 FILLER_0_7_317
*4627 FILLER_0_7_329
*4628 FILLER_0_7_335
*4629 FILLER_0_7_337
*4630 FILLER_0_7_349
*4631 FILLER_0_7_361
*4632 FILLER_0_7_373
*4633 FILLER_0_7_385
*4634 FILLER_0_7_39
*4635 FILLER_0_7_391
*4636 FILLER_0_7_393
*4637 FILLER_0_7_405
*4638 FILLER_0_7_417
*4639 FILLER_0_7_429
*4640 FILLER_0_7_441
*4641 FILLER_0_7_447
*4642 FILLER_0_7_449
*4643 FILLER_0_7_461
*4644 FILLER_0_7_473
*4645 FILLER_0_7_485
*4646 FILLER_0_7_497
*4647 FILLER_0_7_503
*4648 FILLER_0_7_505
*4649 FILLER_0_7_51
*4650 FILLER_0_7_513
*4651 FILLER_0_7_55
*4652 FILLER_0_7_57
*4653 FILLER_0_7_69
*4654 FILLER_0_7_81
*4655 FILLER_0_7_93
*4656 FILLER_0_80_109
*4657 FILLER_0_80_121
*4658 FILLER_0_80_133
*4659 FILLER_0_80_139
*4660 FILLER_0_80_141
*4661 FILLER_0_80_15
*4662 FILLER_0_80_153
*4663 FILLER_0_80_165
*4664 FILLER_0_80_177
*4665 FILLER_0_80_189
*4666 FILLER_0_80_195
*4667 FILLER_0_80_197
*4668 FILLER_0_80_209
*4669 FILLER_0_80_221
*4670 FILLER_0_80_233
*4671 FILLER_0_80_245
*4672 FILLER_0_80_251
*4673 FILLER_0_80_253
*4674 FILLER_0_80_265
*4675 FILLER_0_80_27
*4676 FILLER_0_80_277
*4677 FILLER_0_80_289
*4678 FILLER_0_80_29
*4679 FILLER_0_80_3
*4680 FILLER_0_80_301
*4681 FILLER_0_80_307
*4682 FILLER_0_80_309
*4683 FILLER_0_80_321
*4684 FILLER_0_80_333
*4685 FILLER_0_80_345
*4686 FILLER_0_80_357
*4687 FILLER_0_80_363
*4688 FILLER_0_80_365
*4689 FILLER_0_80_377
*4690 FILLER_0_80_389
*4691 FILLER_0_80_401
*4692 FILLER_0_80_41
*4693 FILLER_0_80_413
*4694 FILLER_0_80_419
*4695 FILLER_0_80_421
*4696 FILLER_0_80_433
*4697 FILLER_0_80_445
*4698 FILLER_0_80_457
*4699 FILLER_0_80_469
*4700 FILLER_0_80_475
*4701 FILLER_0_80_477
*4702 FILLER_0_80_489
*4703 FILLER_0_80_501
*4704 FILLER_0_80_513
*4705 FILLER_0_80_53
*4706 FILLER_0_80_65
*4707 FILLER_0_80_77
*4708 FILLER_0_80_83
*4709 FILLER_0_80_85
*4710 FILLER_0_80_97
*4711 FILLER_0_81_105
*4712 FILLER_0_81_111
*4713 FILLER_0_81_113
*4714 FILLER_0_81_125
*4715 FILLER_0_81_137
*4716 FILLER_0_81_149
*4717 FILLER_0_81_15
*4718 FILLER_0_81_161
*4719 FILLER_0_81_167
*4720 FILLER_0_81_169
*4721 FILLER_0_81_181
*4722 FILLER_0_81_193
*4723 FILLER_0_81_205
*4724 FILLER_0_81_217
*4725 FILLER_0_81_223
*4726 FILLER_0_81_225
*4727 FILLER_0_81_237
*4728 FILLER_0_81_249
*4729 FILLER_0_81_261
*4730 FILLER_0_81_27
*4731 FILLER_0_81_273
*4732 FILLER_0_81_279
*4733 FILLER_0_81_281
*4734 FILLER_0_81_293
*4735 FILLER_0_81_3
*4736 FILLER_0_81_305
*4737 FILLER_0_81_317
*4738 FILLER_0_81_329
*4739 FILLER_0_81_335
*4740 FILLER_0_81_337
*4741 FILLER_0_81_349
*4742 FILLER_0_81_361
*4743 FILLER_0_81_373
*4744 FILLER_0_81_385
*4745 FILLER_0_81_39
*4746 FILLER_0_81_391
*4747 FILLER_0_81_393
*4748 FILLER_0_81_405
*4749 FILLER_0_81_417
*4750 FILLER_0_81_429
*4751 FILLER_0_81_441
*4752 FILLER_0_81_447
*4753 FILLER_0_81_449
*4754 FILLER_0_81_461
*4755 FILLER_0_81_473
*4756 FILLER_0_81_485
*4757 FILLER_0_81_497
*4758 FILLER_0_81_503
*4759 FILLER_0_81_505
*4760 FILLER_0_81_51
*4761 FILLER_0_81_513
*4762 FILLER_0_81_55
*4763 FILLER_0_81_57
*4764 FILLER_0_81_69
*4765 FILLER_0_81_81
*4766 FILLER_0_81_93
*4767 FILLER_0_82_105
*4768 FILLER_0_82_111
*4769 FILLER_0_82_113
*4770 FILLER_0_82_125
*4771 FILLER_0_82_137
*4772 FILLER_0_82_141
*4773 FILLER_0_82_153
*4774 FILLER_0_82_165
*4775 FILLER_0_82_169
*4776 FILLER_0_82_181
*4777 FILLER_0_82_19
*4778 FILLER_0_82_193
*4779 FILLER_0_82_197
*4780 FILLER_0_82_209
*4781 FILLER_0_82_221
*4782 FILLER_0_82_225
*4783 FILLER_0_82_237
*4784 FILLER_0_82_249
*4785 FILLER_0_82_253
*4786 FILLER_0_82_265
*4787 FILLER_0_82_27
*4788 FILLER_0_82_277
*4789 FILLER_0_82_281
*4790 FILLER_0_82_29
*4791 FILLER_0_82_293
*4792 FILLER_0_82_305
*4793 FILLER_0_82_309
*4794 FILLER_0_82_321
*4795 FILLER_0_82_333
*4796 FILLER_0_82_337
*4797 FILLER_0_82_349
*4798 FILLER_0_82_359
*4799 FILLER_0_82_363
*4800 FILLER_0_82_365
*4801 FILLER_0_82_377
*4802 FILLER_0_82_389
*4803 FILLER_0_82_393
*4804 FILLER_0_82_405
*4805 FILLER_0_82_41
*4806 FILLER_0_82_417
*4807 FILLER_0_82_421
*4808 FILLER_0_82_433
*4809 FILLER_0_82_445
*4810 FILLER_0_82_455
*4811 FILLER_0_82_459
*4812 FILLER_0_82_471
*4813 FILLER_0_82_475
*4814 FILLER_0_82_477
*4815 FILLER_0_82_489
*4816 FILLER_0_82_501
*4817 FILLER_0_82_505
*4818 FILLER_0_82_509
*4819 FILLER_0_82_53
*4820 FILLER_0_82_57
*4821 FILLER_0_82_69
*4822 FILLER_0_82_7
*4823 FILLER_0_82_81
*4824 FILLER_0_82_85
*4825 FILLER_0_82_93
*4826 FILLER_0_8_109
*4827 FILLER_0_8_121
*4828 FILLER_0_8_133
*4829 FILLER_0_8_139
*4830 FILLER_0_8_141
*4831 FILLER_0_8_15
*4832 FILLER_0_8_153
*4833 FILLER_0_8_165
*4834 FILLER_0_8_177
*4835 FILLER_0_8_189
*4836 FILLER_0_8_195
*4837 FILLER_0_8_197
*4838 FILLER_0_8_209
*4839 FILLER_0_8_221
*4840 FILLER_0_8_233
*4841 FILLER_0_8_245
*4842 FILLER_0_8_251
*4843 FILLER_0_8_253
*4844 FILLER_0_8_265
*4845 FILLER_0_8_27
*4846 FILLER_0_8_277
*4847 FILLER_0_8_289
*4848 FILLER_0_8_29
*4849 FILLER_0_8_3
*4850 FILLER_0_8_301
*4851 FILLER_0_8_307
*4852 FILLER_0_8_309
*4853 FILLER_0_8_321
*4854 FILLER_0_8_333
*4855 FILLER_0_8_345
*4856 FILLER_0_8_357
*4857 FILLER_0_8_363
*4858 FILLER_0_8_365
*4859 FILLER_0_8_377
*4860 FILLER_0_8_389
*4861 FILLER_0_8_401
*4862 FILLER_0_8_41
*4863 FILLER_0_8_413
*4864 FILLER_0_8_419
*4865 FILLER_0_8_421
*4866 FILLER_0_8_433
*4867 FILLER_0_8_445
*4868 FILLER_0_8_457
*4869 FILLER_0_8_469
*4870 FILLER_0_8_475
*4871 FILLER_0_8_477
*4872 FILLER_0_8_489
*4873 FILLER_0_8_501
*4874 FILLER_0_8_513
*4875 FILLER_0_8_53
*4876 FILLER_0_8_65
*4877 FILLER_0_8_77
*4878 FILLER_0_8_83
*4879 FILLER_0_8_85
*4880 FILLER_0_8_97
*4881 FILLER_0_9_105
*4882 FILLER_0_9_111
*4883 FILLER_0_9_113
*4884 FILLER_0_9_125
*4885 FILLER_0_9_137
*4886 FILLER_0_9_149
*4887 FILLER_0_9_15
*4888 FILLER_0_9_161
*4889 FILLER_0_9_167
*4890 FILLER_0_9_169
*4891 FILLER_0_9_181
*4892 FILLER_0_9_193
*4893 FILLER_0_9_205
*4894 FILLER_0_9_217
*4895 FILLER_0_9_223
*4896 FILLER_0_9_225
*4897 FILLER_0_9_237
*4898 FILLER_0_9_249
*4899 FILLER_0_9_261
*4900 FILLER_0_9_27
*4901 FILLER_0_9_273
*4902 FILLER_0_9_279
*4903 FILLER_0_9_281
*4904 FILLER_0_9_293
*4905 FILLER_0_9_3
*4906 FILLER_0_9_305
*4907 FILLER_0_9_317
*4908 FILLER_0_9_329
*4909 FILLER_0_9_335
*4910 FILLER_0_9_337
*4911 FILLER_0_9_349
*4912 FILLER_0_9_361
*4913 FILLER_0_9_373
*4914 FILLER_0_9_385
*4915 FILLER_0_9_39
*4916 FILLER_0_9_391
*4917 FILLER_0_9_393
*4918 FILLER_0_9_405
*4919 FILLER_0_9_417
*4920 FILLER_0_9_429
*4921 FILLER_0_9_441
*4922 FILLER_0_9_447
*4923 FILLER_0_9_449
*4924 FILLER_0_9_461
*4925 FILLER_0_9_473
*4926 FILLER_0_9_485
*4927 FILLER_0_9_497
*4928 FILLER_0_9_503
*4929 FILLER_0_9_505
*4930 FILLER_0_9_509
*4931 FILLER_0_9_51
*4932 FILLER_0_9_55
*4933 FILLER_0_9_57
*4934 FILLER_0_9_69
*4935 FILLER_0_9_81
*4936 FILLER_0_9_93
*4937 PHY_0
*4938 PHY_1
*4939 PHY_10
*4940 PHY_100
*4941 PHY_101
*4942 PHY_102
*4943 PHY_103
*4944 PHY_104
*4945 PHY_105
*4946 PHY_106
*4947 PHY_107
*4948 PHY_108
*4949 PHY_109
*4950 PHY_11
*4951 PHY_110
*4952 PHY_111
*4953 PHY_112
*4954 PHY_113
*4955 PHY_114
*4956 PHY_115
*4957 PHY_116
*4958 PHY_117
*4959 PHY_118
*4960 PHY_119
*4961 PHY_12
*4962 PHY_120
*4963 PHY_121
*4964 PHY_122
*4965 PHY_123
*4966 PHY_124
*4967 PHY_125
*4968 PHY_126
*4969 PHY_127
*4970 PHY_128
*4971 PHY_129
*4972 PHY_13
*4973 PHY_130
*4974 PHY_131
*4975 PHY_132
*4976 PHY_133
*4977 PHY_134
*4978 PHY_135
*4979 PHY_136
*4980 PHY_137
*4981 PHY_138
*4982 PHY_139
*4983 PHY_14
*4984 PHY_140
*4985 PHY_141
*4986 PHY_142
*4987 PHY_143
*4988 PHY_144
*4989 PHY_145
*4990 PHY_146
*4991 PHY_147
*4992 PHY_148
*4993 PHY_149
*4994 PHY_15
*4995 PHY_150
*4996 PHY_151
*4997 PHY_152
*4998 PHY_153
*4999 PHY_154
*5000 PHY_155
*5001 PHY_156
*5002 PHY_157
*5003 PHY_158
*5004 PHY_159
*5005 PHY_16
*5006 PHY_160
*5007 PHY_161
*5008 PHY_162
*5009 PHY_163
*5010 PHY_164
*5011 PHY_165
*5012 PHY_17
*5013 PHY_18
*5014 PHY_19
*5015 PHY_2
*5016 PHY_20
*5017 PHY_21
*5018 PHY_22
*5019 PHY_23
*5020 PHY_24
*5021 PHY_25
*5022 PHY_26
*5023 PHY_27
*5024 PHY_28
*5025 PHY_29
*5026 PHY_3
*5027 PHY_30
*5028 PHY_31
*5029 PHY_32
*5030 PHY_33
*5031 PHY_34
*5032 PHY_35
*5033 PHY_36
*5034 PHY_37
*5035 PHY_38
*5036 PHY_39
*5037 PHY_4
*5038 PHY_40
*5039 PHY_41
*5040 PHY_42
*5041 PHY_43
*5042 PHY_44
*5043 PHY_45
*5044 PHY_46
*5045 PHY_47
*5046 PHY_48
*5047 PHY_49
*5048 PHY_5
*5049 PHY_50
*5050 PHY_51
*5051 PHY_52
*5052 PHY_53
*5053 PHY_54
*5054 PHY_55
*5055 PHY_56
*5056 PHY_57
*5057 PHY_58
*5058 PHY_59
*5059 PHY_6
*5060 PHY_60
*5061 PHY_61
*5062 PHY_62
*5063 PHY_63
*5064 PHY_64
*5065 PHY_65
*5066 PHY_66
*5067 PHY_67
*5068 PHY_68
*5069 PHY_69
*5070 PHY_7
*5071 PHY_70
*5072 PHY_71
*5073 PHY_72
*5074 PHY_73
*5075 PHY_74
*5076 PHY_75
*5077 PHY_76
*5078 PHY_77
*5079 PHY_78
*5080 PHY_79
*5081 PHY_8
*5082 PHY_80
*5083 PHY_81
*5084 PHY_82
*5085 PHY_83
*5086 PHY_84
*5087 PHY_85
*5088 PHY_86
*5089 PHY_87
*5090 PHY_88
*5091 PHY_89
*5092 PHY_9
*5093 PHY_90
*5094 PHY_91
*5095 PHY_92
*5096 PHY_93
*5097 PHY_94
*5098 PHY_95
*5099 PHY_96
*5100 PHY_97
*5101 PHY_98
*5102 PHY_99
*5103 TAP_166
*5104 TAP_167
*5105 TAP_168
*5106 TAP_169
*5107 TAP_170
*5108 TAP_171
*5109 TAP_172
*5110 TAP_173
*5111 TAP_174
*5112 TAP_175
*5113 TAP_176
*5114 TAP_177
*5115 TAP_178
*5116 TAP_179
*5117 TAP_180
*5118 TAP_181
*5119 TAP_182
*5120 TAP_183
*5121 TAP_184
*5122 TAP_185
*5123 TAP_186
*5124 TAP_187
*5125 TAP_188
*5126 TAP_189
*5127 TAP_190
*5128 TAP_191
*5129 TAP_192
*5130 TAP_193
*5131 TAP_194
*5132 TAP_195
*5133 TAP_196
*5134 TAP_197
*5135 TAP_198
*5136 TAP_199
*5137 TAP_200
*5138 TAP_201
*5139 TAP_202
*5140 TAP_203
*5141 TAP_204
*5142 TAP_205
*5143 TAP_206
*5144 TAP_207
*5145 TAP_208
*5146 TAP_209
*5147 TAP_210
*5148 TAP_211
*5149 TAP_212
*5150 TAP_213
*5151 TAP_214
*5152 TAP_215
*5153 TAP_216
*5154 TAP_217
*5155 TAP_218
*5156 TAP_219
*5157 TAP_220
*5158 TAP_221
*5159 TAP_222
*5160 TAP_223
*5161 TAP_224
*5162 TAP_225
*5163 TAP_226
*5164 TAP_227
*5165 TAP_228
*5166 TAP_229
*5167 TAP_230
*5168 TAP_231
*5169 TAP_232
*5170 TAP_233
*5171 TAP_234
*5172 TAP_235
*5173 TAP_236
*5174 TAP_237
*5175 TAP_238
*5176 TAP_239
*5177 TAP_240
*5178 TAP_241
*5179 TAP_242
*5180 TAP_243
*5181 TAP_244
*5182 TAP_245
*5183 TAP_246
*5184 TAP_247
*5185 TAP_248
*5186 TAP_249
*5187 TAP_250
*5188 TAP_251
*5189 TAP_252
*5190 TAP_253
*5191 TAP_254
*5192 TAP_255
*5193 TAP_256
*5194 TAP_257
*5195 TAP_258
*5196 TAP_259
*5197 TAP_260
*5198 TAP_261
*5199 TAP_262
*5200 TAP_263
*5201 TAP_264
*5202 TAP_265
*5203 TAP_266
*5204 TAP_267
*5205 TAP_268
*5206 TAP_269
*5207 TAP_270
*5208 TAP_271
*5209 TAP_272
*5210 TAP_273
*5211 TAP_274
*5212 TAP_275
*5213 TAP_276
*5214 TAP_277
*5215 TAP_278
*5216 TAP_279
*5217 TAP_280
*5218 TAP_281
*5219 TAP_282
*5220 TAP_283
*5221 TAP_284
*5222 TAP_285
*5223 TAP_286
*5224 TAP_287
*5225 TAP_288
*5226 TAP_289
*5227 TAP_290
*5228 TAP_291
*5229 TAP_292
*5230 TAP_293
*5231 TAP_294
*5232 TAP_295
*5233 TAP_296
*5234 TAP_297
*5235 TAP_298
*5236 TAP_299
*5237 TAP_300
*5238 TAP_301
*5239 TAP_302
*5240 TAP_303
*5241 TAP_304
*5242 TAP_305
*5243 TAP_306
*5244 TAP_307
*5245 TAP_308
*5246 TAP_309
*5247 TAP_310
*5248 TAP_311
*5249 TAP_312
*5250 TAP_313
*5251 TAP_314
*5252 TAP_315
*5253 TAP_316
*5254 TAP_317
*5255 TAP_318
*5256 TAP_319
*5257 TAP_320
*5258 TAP_321
*5259 TAP_322
*5260 TAP_323
*5261 TAP_324
*5262 TAP_325
*5263 TAP_326
*5264 TAP_327
*5265 TAP_328
*5266 TAP_329
*5267 TAP_330
*5268 TAP_331
*5269 TAP_332
*5270 TAP_333
*5271 TAP_334
*5272 TAP_335
*5273 TAP_336
*5274 TAP_337
*5275 TAP_338
*5276 TAP_339
*5277 TAP_340
*5278 TAP_341
*5279 TAP_342
*5280 TAP_343
*5281 TAP_344
*5282 TAP_345
*5283 TAP_346
*5284 TAP_347
*5285 TAP_348
*5286 TAP_349
*5287 TAP_350
*5288 TAP_351
*5289 TAP_352
*5290 TAP_353
*5291 TAP_354
*5292 TAP_355
*5293 TAP_356
*5294 TAP_357
*5295 TAP_358
*5296 TAP_359
*5297 TAP_360
*5298 TAP_361
*5299 TAP_362
*5300 TAP_363
*5301 TAP_364
*5302 TAP_365
*5303 TAP_366
*5304 TAP_367
*5305 TAP_368
*5306 TAP_369
*5307 TAP_370
*5308 TAP_371
*5309 TAP_372
*5310 TAP_373
*5311 TAP_374
*5312 TAP_375
*5313 TAP_376
*5314 TAP_377
*5315 TAP_378
*5316 TAP_379
*5317 TAP_380
*5318 TAP_381
*5319 TAP_382
*5320 TAP_383
*5321 TAP_384
*5322 TAP_385
*5323 TAP_386
*5324 TAP_387
*5325 TAP_388
*5326 TAP_389
*5327 TAP_390
*5328 TAP_391
*5329 TAP_392
*5330 TAP_393
*5331 TAP_394
*5332 TAP_395
*5333 TAP_396
*5334 TAP_397
*5335 TAP_398
*5336 TAP_399
*5337 TAP_400
*5338 TAP_401
*5339 TAP_402
*5340 TAP_403
*5341 TAP_404
*5342 TAP_405
*5343 TAP_406
*5344 TAP_407
*5345 TAP_408
*5346 TAP_409
*5347 TAP_410
*5348 TAP_411
*5349 TAP_412
*5350 TAP_413
*5351 TAP_414
*5352 TAP_415
*5353 TAP_416
*5354 TAP_417
*5355 TAP_418
*5356 TAP_419
*5357 TAP_420
*5358 TAP_421
*5359 TAP_422
*5360 TAP_423
*5361 TAP_424
*5362 TAP_425
*5363 TAP_426
*5364 TAP_427
*5365 TAP_428
*5366 TAP_429
*5367 TAP_430
*5368 TAP_431
*5369 TAP_432
*5370 TAP_433
*5371 TAP_434
*5372 TAP_435
*5373 TAP_436
*5374 TAP_437
*5375 TAP_438
*5376 TAP_439
*5377 TAP_440
*5378 TAP_441
*5379 TAP_442
*5380 TAP_443
*5381 TAP_444
*5382 TAP_445
*5383 TAP_446
*5384 TAP_447
*5385 TAP_448
*5386 TAP_449
*5387 TAP_450
*5388 TAP_451
*5389 TAP_452
*5390 TAP_453
*5391 TAP_454
*5392 TAP_455
*5393 TAP_456
*5394 TAP_457
*5395 TAP_458
*5396 TAP_459
*5397 TAP_460
*5398 TAP_461
*5399 TAP_462
*5400 TAP_463
*5401 TAP_464
*5402 TAP_465
*5403 TAP_466
*5404 TAP_467
*5405 TAP_468
*5406 TAP_469
*5407 TAP_470
*5408 TAP_471
*5409 TAP_472
*5410 TAP_473
*5411 TAP_474
*5412 TAP_475
*5413 TAP_476
*5414 TAP_477
*5415 TAP_478
*5416 TAP_479
*5417 TAP_480
*5418 TAP_481
*5419 TAP_482
*5420 TAP_483
*5421 TAP_484
*5422 TAP_485
*5423 TAP_486
*5424 TAP_487
*5425 TAP_488
*5426 TAP_489
*5427 TAP_490
*5428 TAP_491
*5429 TAP_492
*5430 TAP_493
*5431 TAP_494
*5432 TAP_495
*5433 TAP_496
*5434 TAP_497
*5435 TAP_498
*5436 TAP_499
*5437 TAP_500
*5438 TAP_501
*5439 TAP_502
*5440 TAP_503
*5441 TAP_504
*5442 TAP_505
*5443 TAP_506
*5444 TAP_507
*5445 TAP_508
*5446 TAP_509
*5447 TAP_510
*5448 TAP_511
*5449 TAP_512
*5450 TAP_513
*5451 TAP_514
*5452 TAP_515
*5453 TAP_516
*5454 TAP_517
*5455 TAP_518
*5456 TAP_519
*5457 TAP_520
*5458 TAP_521
*5459 TAP_522
*5460 TAP_523
*5461 TAP_524
*5462 TAP_525
*5463 TAP_526
*5464 TAP_527
*5465 TAP_528
*5466 TAP_529
*5467 TAP_530
*5468 TAP_531
*5469 TAP_532
*5470 TAP_533
*5471 TAP_534
*5472 TAP_535
*5473 TAP_536
*5474 TAP_537
*5475 TAP_538
*5476 TAP_539
*5477 TAP_540
*5478 TAP_541
*5479 TAP_542
*5480 TAP_543
*5481 TAP_544
*5482 TAP_545
*5483 TAP_546
*5484 TAP_547
*5485 TAP_548
*5486 TAP_549
*5487 TAP_550
*5488 TAP_551
*5489 TAP_552
*5490 TAP_553
*5491 TAP_554
*5492 TAP_555
*5493 TAP_556
*5494 TAP_557
*5495 TAP_558
*5496 TAP_559
*5497 TAP_560
*5498 TAP_561
*5499 TAP_562
*5500 TAP_563
*5501 TAP_564
*5502 TAP_565
*5503 TAP_566
*5504 TAP_567
*5505 TAP_568
*5506 TAP_569
*5507 TAP_570
*5508 TAP_571
*5509 TAP_572
*5510 TAP_573
*5511 TAP_574
*5512 TAP_575
*5513 TAP_576
*5514 TAP_577
*5515 TAP_578
*5516 TAP_579
*5517 TAP_580
*5518 TAP_581
*5519 TAP_582
*5520 TAP_583
*5521 TAP_584
*5522 TAP_585
*5523 TAP_586
*5524 TAP_587
*5525 TAP_588
*5526 TAP_589
*5527 TAP_590
*5528 TAP_591
*5529 TAP_592
*5530 TAP_593
*5531 TAP_594
*5532 TAP_595
*5533 TAP_596
*5534 TAP_597
*5535 TAP_598
*5536 TAP_599
*5537 TAP_600
*5538 TAP_601
*5539 TAP_602
*5540 TAP_603
*5541 TAP_604
*5542 TAP_605
*5543 TAP_606
*5544 TAP_607
*5545 TAP_608
*5546 TAP_609
*5547 TAP_610
*5548 TAP_611
*5549 TAP_612
*5550 TAP_613
*5551 TAP_614
*5552 TAP_615
*5553 TAP_616
*5554 TAP_617
*5555 TAP_618
*5556 TAP_619
*5557 TAP_620
*5558 TAP_621
*5559 TAP_622
*5560 TAP_623
*5561 TAP_624
*5562 TAP_625
*5563 TAP_626
*5564 TAP_627
*5565 TAP_628
*5566 TAP_629
*5567 TAP_630
*5568 TAP_631
*5569 TAP_632
*5570 TAP_633
*5571 TAP_634
*5572 TAP_635
*5573 TAP_636
*5574 TAP_637
*5575 TAP_638
*5576 TAP_639
*5577 TAP_640
*5578 TAP_641
*5579 TAP_642
*5580 TAP_643
*5581 TAP_644
*5582 TAP_645
*5583 TAP_646
*5584 TAP_647
*5585 TAP_648
*5586 TAP_649
*5587 TAP_650
*5588 TAP_651
*5589 TAP_652
*5590 TAP_653
*5591 TAP_654
*5592 TAP_655
*5593 TAP_656
*5594 TAP_657
*5595 TAP_658
*5596 TAP_659
*5597 TAP_660
*5598 TAP_661
*5599 TAP_662
*5600 TAP_663
*5601 TAP_664
*5602 TAP_665
*5603 TAP_666
*5604 TAP_667
*5605 TAP_668
*5606 TAP_669
*5607 TAP_670
*5608 TAP_671
*5609 TAP_672
*5610 TAP_673
*5611 TAP_674
*5612 TAP_675
*5613 TAP_676
*5614 TAP_677
*5615 TAP_678
*5616 TAP_679
*5617 TAP_680
*5618 TAP_681
*5619 TAP_682
*5620 TAP_683
*5621 TAP_684
*5622 TAP_685
*5623 TAP_686
*5624 TAP_687
*5625 TAP_688
*5626 TAP_689
*5627 TAP_690
*5628 TAP_691
*5629 TAP_692
*5630 TAP_693
*5631 TAP_694
*5632 TAP_695
*5633 TAP_696
*5634 TAP_697
*5635 TAP_698
*5636 TAP_699
*5637 TAP_700
*5638 TAP_701
*5639 TAP_702
*5640 TAP_703
*5641 TAP_704
*5642 TAP_705
*5643 TAP_706
*5644 TAP_707
*5645 TAP_708
*5646 TAP_709
*5647 TAP_710
*5648 TAP_711
*5649 TAP_712
*5650 TAP_713
*5651 TAP_714
*5652 TAP_715
*5653 TAP_716
*5654 TAP_717
*5655 TAP_718
*5656 TAP_719
*5657 TAP_720
*5658 TAP_721
*5659 TAP_722
*5660 TAP_723
*5661 TAP_724
*5662 TAP_725
*5663 TAP_726
*5664 TAP_727
*5665 TAP_728
*5666 TAP_729
*5667 TAP_730
*5668 TAP_731
*5669 TAP_732
*5670 TAP_733
*5671 TAP_734
*5672 TAP_735
*5673 TAP_736
*5674 TAP_737
*5675 TAP_738
*5676 TAP_739
*5677 TAP_740
*5678 TAP_741
*5679 TAP_742
*5680 TAP_743
*5681 TAP_744
*5682 TAP_745
*5683 TAP_746
*5684 TAP_747
*5685 TAP_748
*5686 TAP_749
*5687 TAP_750
*5688 TAP_751
*5689 TAP_752
*5690 TAP_753
*5691 TAP_754
*5692 TAP_755
*5693 TAP_756
*5694 TAP_757
*5695 TAP_758
*5696 TAP_759
*5697 TAP_760
*5698 TAP_761
*5699 TAP_762
*5700 TAP_763
*5701 TAP_764
*5702 TAP_765
*5703 TAP_766
*5704 TAP_767
*5705 TAP_768
*5706 TAP_769
*5707 TAP_770
*5708 TAP_771
*5709 TAP_772
*5710 TAP_773
*5711 TAP_774
*5712 TAP_775
*5713 TAP_776
*5714 TAP_777
*5715 TAP_778
*5716 TAP_779
*5717 TAP_780
*5718 TAP_781
*5719 TAP_782
*5720 TAP_783
*5721 TAP_784
*5722 TAP_785
*5723 TAP_786
*5724 TAP_787
*5725 TAP_788
*5726 TAP_789
*5727 TAP_790
*5728 TAP_791
*5729 TAP_792
*5730 TAP_793
*5731 TAP_794
*5732 TAP_795
*5733 TAP_796
*5734 TAP_797
*5735 TAP_798
*5736 TAP_799
*5737 TAP_800
*5738 TAP_801
*5739 TAP_802
*5740 TAP_803
*5741 TAP_804
*5742 TAP_805
*5743 TAP_806
*5744 TAP_807
*5745 TAP_808
*5746 TAP_809
*5747 TAP_810
*5748 TAP_811
*5749 TAP_812
*5750 TAP_813
*5751 TAP_814
*5752 TAP_815
*5753 TAP_816
*5754 TAP_817
*5755 TAP_818
*5756 TAP_819
*5757 TAP_820
*5758 TAP_821
*5759 TAP_822
*5760 TAP_823
*5761 TAP_824
*5762 TAP_825
*5763 TAP_826
*5764 TAP_827
*5765 TAP_828
*5766 TAP_829
*5767 TAP_830
*5768 TAP_831
*5769 TAP_832
*5770 TAP_833
*5771 TAP_834
*5772 TAP_835
*5773 TAP_836
*5774 TAP_837
*5775 TAP_838
*5776 TAP_839
*5777 TAP_840
*5778 TAP_841
*5779 TAP_842
*5780 TAP_843
*5781 TAP_844
*5782 TAP_845
*5783 TAP_846
*5784 TAP_847
*5785 TAP_848
*5786 TAP_849
*5787 TAP_850
*5788 TAP_851
*5789 TAP_852
*5790 TAP_853
*5791 TAP_854
*5792 TAP_855
*5793 TAP_856
*5794 TAP_857
*5795 TAP_858
*5796 TAP_859
*5797 TAP_860
*5798 TAP_861
*5799 TAP_862
*5800 TAP_863
*5801 TAP_864
*5802 TAP_865
*5803 TAP_866
*5804 TAP_867
*5805 TAP_868
*5806 TAP_869
*5807 TAP_870
*5808 TAP_871
*5809 TAP_872
*5810 TAP_873
*5811 TAP_874
*5812 TAP_875
*5813 TAP_876
*5814 TAP_877
*5815 TAP_878
*5816 TAP_879
*5817 TAP_880
*5818 TAP_881
*5819 TAP_882
*5820 TAP_883
*5821 TAP_884
*5822 TAP_885
*5823 TAP_886
*5824 TAP_887
*5825 TAP_888
*5826 TAP_889
*5827 TAP_890
*5828 TAP_891
*5829 TAP_892
*5830 TAP_893
*5831 TAP_894
*5832 TAP_895
*5833 TAP_896
*5834 TAP_897
*5835 TAP_898
*5836 TAP_899
*5837 TAP_900
*5838 TAP_901
*5839 TAP_902
*5840 TAP_903
*5841 TAP_904
*5842 TAP_905
*5843 TAP_906
*5844 TAP_907
*5845 TAP_908
*5846 TAP_909
*5847 TAP_910
*5848 TAP_911
*5849 TAP_912
*5850 TAP_913
*5851 TAP_914
*5852 TAP_915
*5853 TAP_916
*5854 TAP_917
*5855 TAP_918
*5856 TAP_919
*5857 TAP_920
*5858 TAP_921
*5859 TAP_922
*5860 TAP_923
*5861 TAP_924
*5862 TAP_925
*5863 TAP_926
*5864 TAP_927
*5865 TAP_928
*5866 TAP_929
*5867 TAP_930
*5868 _0452_
*5869 _0453_
*5870 _0454_
*5871 _0455_
*5872 _0456_
*5873 _0457_
*5874 _0458_
*5875 _0459_
*5876 _0460_
*5877 _0461_
*5878 _0462_
*5879 _0463_
*5880 _0464_
*5881 _0465_
*5882 _0466_
*5883 _0467_
*5884 _0468_
*5885 _0469_
*5886 _0470_
*5887 _0471_
*5888 _0472_
*5889 _0473_
*5890 _0474_
*5891 _0475_
*5892 _0476_
*5893 _0477_
*5894 _0478_
*5895 _0479_
*5896 _0480_
*5897 _0481_
*5898 _0482_
*5899 _0483_
*5900 _0484_
*5901 _0485_
*5902 _0486_
*5903 _0487_
*5904 _0488_
*5905 _0489_
*5906 _0490_
*5907 _0491_
*5908 _0492_
*5909 _0493_
*5910 _0494_
*5911 _0495_
*5912 _0496_
*5913 _0497_
*5914 _0498_
*5915 _0499_
*5916 _0500_
*5917 _0501_
*5918 _0502_
*5919 _0503_
*5920 _0504_
*5921 _0505_
*5922 _0506_
*5923 _0507_
*5924 _0508_
*5925 _0509_
*5926 _0510_
*5927 _0511_
*5928 _0512_
*5929 _0513_
*5930 _0514_
*5931 _0515_
*5932 _0516_
*5933 _0517_
*5934 _0518_
*5935 _0519_
*5936 _0520_
*5937 _0521_
*5938 _0522_
*5939 _0523_
*5940 _0524_
*5941 _0525_
*5942 _0526_
*5943 _0527_
*5944 _0528_
*5945 _0529_
*5946 _0530_
*5947 _0531_
*5948 _0532_
*5949 _0533_
*5950 _0534_
*5951 _0535_
*5952 _0536_
*5953 _0537_
*5954 _0538_
*5955 _0539_
*5956 _0540_
*5957 _0541_
*5958 _0542_
*5959 _0543_
*5960 _0544_
*5961 _0545_
*5962 _0546_
*5963 _0547_
*5964 _0548_
*5965 _0549_
*5966 _0550_
*5967 _0551_
*5968 _0552_
*5969 _0553_
*5970 _0554_
*5971 _0555_
*5972 _0556_
*5973 _0557_
*5974 _0558_
*5975 _0559_
*5976 _0560_
*5977 _0561_
*5978 _0562_
*5979 _0563_
*5980 _0564_
*5981 _0565_
*5982 _0566_
*5983 _0567_
*5984 _0568_
*5985 _0569_
*5986 _0570_
*5987 _0571_
*5988 _0572_
*5989 _0573_
*5990 _0574_
*5991 _0575_
*5992 _0576_
*5993 _0577_
*5994 _0578_
*5995 _0579_
*5996 _0580_
*5997 _0581_
*5998 _0582_
*5999 _0583_
*6000 _0584_
*6001 _0585_
*6002 _0586_
*6003 _0587_
*6004 _0588_
*6005 _0589_
*6006 _0590_
*6007 _0591_
*6008 _0592_
*6009 _0593_
*6010 _0594_
*6011 _0595_
*6012 _0596_
*6013 _0597_
*6014 _0598_
*6015 _0599_
*6016 _0600_
*6017 _0601_
*6018 _0602_
*6019 _0603_
*6020 _0604_
*6021 _0605_
*6022 _0606_
*6023 _0607_
*6024 _0608_
*6025 _0609_
*6026 _0610_
*6027 _0611_
*6028 _0612_
*6029 _0613_
*6030 _0614_
*6031 _0615_
*6032 _0616_
*6033 _0617_
*6034 _0618_
*6035 _0619_
*6036 _0620_
*6037 _0621_
*6038 _0622_
*6039 _0623_
*6040 _0624_
*6041 _0625_
*6042 _0626_
*6043 _0627_
*6044 _0628_
*6045 _0629_
*6046 _0630_
*6047 _0631_
*6048 _0632_
*6049 _0633_
*6050 _0634_
*6051 _0635_
*6052 _0636_
*6053 _0637_
*6054 _0638_
*6055 _0639_
*6056 _0640_
*6057 _0641_
*6058 _0642_
*6059 _0643_
*6060 _0644_
*6061 _0645_
*6062 _0646_
*6063 _0647_
*6064 _0648_
*6065 _0649_
*6066 _0650_
*6067 _0651_
*6068 _0652_
*6069 _0653_
*6070 _0654_
*6071 _0655_
*6072 _0656_
*6073 _0657_
*6074 _0658_
*6075 _0659_
*6076 _0660_
*6077 _0661_
*6078 _0662_
*6079 _0663_
*6080 _0664_
*6081 _0665_
*6082 _0666_
*6083 _0667_
*6084 _0668_
*6085 _0669_
*6086 _0670_
*6087 _0671_
*6088 _0672_
*6089 _0673_
*6090 _0674_
*6091 _0675_
*6092 _0676_
*6093 _0677_
*6094 _0678_
*6095 _0679_
*6096 _0680_
*6097 _0681_
*6098 _0682_
*6099 _0683_
*6100 _0684_
*6101 _0685_
*6102 _0686_
*6103 _0687_
*6104 _0688_
*6105 _0689_
*6106 _0690_
*6107 _0691_
*6108 _0692_
*6109 _0693_
*6110 _0694_
*6111 _0695_
*6112 _0696_
*6113 _0697_
*6114 _0698_
*6115 _0699_
*6116 _0700_
*6117 _0701_
*6118 _0702_
*6119 _0703_
*6120 _0704_
*6121 _0705_
*6122 _0706_
*6123 _0707_
*6124 _0708_
*6125 _0709_
*6126 _0710_
*6127 _0711_
*6128 _0712_
*6129 _0713_
*6130 _0714_
*6131 _0715_
*6132 _0716_
*6133 _0717_
*6134 _0718_
*6135 _0719_
*6136 _0720_
*6137 _0721_
*6138 _0722_
*6139 _0723_
*6140 _0724_
*6141 _0725_
*6142 _0726_
*6143 _0727_
*6144 _0728_
*6145 _0729_
*6146 _0730_
*6147 _0731_
*6148 _0732_
*6149 _0733_
*6150 _0734_
*6151 _0735_
*6152 _0736_
*6153 _0737_
*6154 _0738_
*6155 _0739_
*6156 _0740_
*6157 _0741_
*6158 _0742_
*6159 _0743_
*6160 _0744_
*6161 _0745_
*6162 _0746_
*6163 _0747_
*6164 _0748_
*6165 _0749_
*6166 _0750_
*6167 _0751_
*6168 _0752_
*6169 _0753_
*6170 _0754_
*6171 _0755_
*6172 _0756_
*6173 _0757_
*6174 _0758_
*6175 _0759_
*6176 _0760_
*6177 _0761_
*6178 _0762_
*6179 _0763_
*6180 _0764_
*6181 _0765_
*6182 _0766_
*6183 _0767_
*6184 _0768_
*6185 _0769_
*6186 _0770_
*6187 _0771_
*6188 _0772_
*6189 _0773_
*6190 _0774_
*6191 _0775_
*6192 _0776_
*6193 _0777_
*6194 _0778_
*6195 _0779_
*6196 _0780_
*6197 _0781_
*6198 _0782_
*6199 _0783_
*6200 _0784_
*6201 _0785_
*6202 _0786_
*6203 _0787_
*6204 _0788_
*6205 _0789_
*6206 _0790_
*6207 _0791_
*6208 _0792_
*6209 _0793_
*6210 _0794_
*6211 _0795_
*6212 _0796_
*6213 _0797_
*6214 _0798_
*6215 _0799_
*6216 _0800_
*6217 _0801_
*6218 _0802_
*6219 _0803_
*6220 _0804_
*6221 _0805_
*6222 _0806_
*6223 _0807_
*6224 _0808_
*6225 _0809_
*6226 _0810_
*6227 _0811_
*6228 _0812_
*6229 _0813_
*6230 _0814_
*6231 _0815_
*6232 _0816_
*6233 _0817_
*6234 _0818_
*6235 _0819_
*6236 _0820_
*6237 _0821_
*6238 _0822_
*6239 _0823_
*6240 _0824_
*6241 _0825_
*6242 _0826_
*6243 _0827_
*6244 _0828_
*6245 _0829_
*6246 _0830_
*6247 _0831_
*6248 _0832_
*6249 _0833_
*6250 _0834_
*6251 _0835_
*6252 _0836_
*6253 _0837_
*6254 _0838_
*6255 _0839_
*6256 _0840_
*6257 _0841_
*6258 _0842_
*6259 _0843_
*6260 _0844_
*6261 _0845_
*6262 _0846_
*6263 _0847_
*6264 _0848_
*6265 _0849_
*6266 _0850_
*6267 _0851_
*6268 _0852_
*6269 _0853_
*6270 _0854_
*6271 _0855_
*6272 _0856_
*6273 _0857_
*6274 _0858_
*6275 _0859_
*6276 _0860_
*6277 _0861_
*6278 _0862_
*6279 _0863_
*6280 _0864_
*6281 _0865_
*6282 _0866_
*6283 _0867_
*6284 _0868_
*6285 _0869_
*6286 _0870_
*6287 _0871_
*6288 _0872_
*6289 _0873_
*6290 _0874_
*6291 _0875_
*6292 _0876_
*6293 _0877_
*6294 _0878_
*6295 _0879_
*6296 _0880_
*6297 _0881_
*6298 _0882_
*6299 _0883_
*6300 _0884_
*6301 _0885_
*6302 _0886_
*6303 _0887_
*6304 _0888_
*6305 _0889_
*6306 _0890_
*6307 _0891_
*6308 _0892_
*6309 _0893_
*6310 _0894_
*6311 _0895_
*6312 _0896_
*6313 _0897_
*6314 _0898_
*6315 _0899_
*6316 _0900_
*6317 _0901_
*6318 _0902_
*6319 _0903_
*6320 _0904_
*6321 _0905_
*6322 _0906_
*6323 _0907_
*6324 _0908_
*6325 _0909_
*6326 _0910_
*6327 _0911_
*6328 _0912_
*6329 _0913_
*6330 _0914_
*6331 _0915_
*6332 _0916_
*6333 _0917_
*6334 _0918_
*6335 _0919_
*6336 _0920_
*6337 _0921_
*6338 _0922_
*6339 _0923_
*6340 _0924_
*6341 _0925_
*6342 _0926_
*6343 _0927_
*6344 _0928_
*6345 _0929_
*6346 _0930_
*6347 _0931_
*6348 _0932_
*6349 _0933_
*6350 _0934_
*6351 _0935_
*6352 _0936_
*6353 _0937_
*6354 _0938_
*6355 _0939_
*6356 _0940_
*6357 _0941_
*6358 _0942_
*6359 _0943_
*6360 _0944_
*6361 _0945_
*6362 _0946_
*6363 _0947_
*6364 _0948_
*6365 _0949_
*6366 _0950_
*6367 _0951_
*6368 _0952_
*6369 _0953_
*6370 _0954_
*6371 _0955_
*6372 _0956_
*6373 _0957_
*6374 _0958_
*6375 _0959_
*6376 _0960_
*6377 _0961_
*6378 _0962_
*6379 _0963_
*6380 _0964_
*6381 _0965_
*6382 _0966_
*6383 _0967_
*6384 _0968_
*6385 _0969_
*6386 _0970_
*6387 _0971_
*6388 _0972_
*6389 _0973_
*6390 _0974_
*6391 _0975_
*6392 _0976_
*6393 _0977_
*6394 _0978_
*6395 _0979_
*6396 _0980_
*6397 _0981_
*6398 _0982_
*6399 _0983_
*6400 _0984_
*6401 _0985_
*6402 _0986_
*6403 _0987_
*6404 _0988_
*6405 _0989_
*6406 _0990_
*6407 _0991_
*6408 _0992_
*6409 _0993_
*6410 _0994_
*6411 _0995_
*6412 _0996_
*6413 _0997_
*6414 _0998_
*6415 _0999_
*6416 _1000_
*6417 _1001_
*6418 _1002_
*6419 _1003_
*6420 _1004_
*6421 _1005_
*6422 _1006_
*6423 _1007_
*6424 _1008_
*6425 _1009_
*6426 _1010_
*6427 _1011_
*6428 _1012_
*6429 _1013_
*6430 _1014_
*6431 _1015_
*6432 _1016_
*6433 _1017_
*6434 _1018_
*6435 _1019_
*6436 _1020_
*6437 _1021_
*6438 _1022_
*6439 _1023_
*6440 _1024_
*6441 _1025_
*6442 _1026_
*6443 _1027_
*6444 _1028_
*6445 _1029_
*6446 _1030_
*6447 _1031_
*6448 _1032_
*6449 _1033_
*6450 _1034_
*6451 _1035_
*6452 _1036_
*6453 _1037_
*6454 _1038_
*6455 _1039_
*6456 _1040_
*6457 _1041_
*6458 _1042_
*6459 _1043_
*6460 _1044_
*6461 _1045_
*6462 _1046_
*6463 _1047_
*6464 _1048_
*6465 _1049_
*6466 _1050_
*6467 _1051_
*6468 _1052_
*6469 _1053_
*6470 _1054_
*6471 _1055_
*6472 _1056_
*6473 _1057_
*6474 _1058_
*6475 _1059_
*6476 _1060_
*6477 _1061_
*6478 _1062_
*6479 _1063_
*6480 _1064_
*6481 _1065_
*6482 _1066_
*6483 _1067_
*6484 _1068_
*6485 _1069_
*6486 _1070_
*6487 _1071_
*6488 _1072_
*6489 _1073_
*6490 _1074_
*6491 _1075_
*6492 _1076_
*6493 _1077_
*6494 _1078_
*6495 _1079_
*6496 clkbuf_0_w_clk
*6497 clkbuf_4_0_0_w_clk
*6498 clkbuf_4_10_0_w_clk
*6499 clkbuf_4_11_0_w_clk
*6500 clkbuf_4_12_0_w_clk
*6501 clkbuf_4_13_0_w_clk
*6502 clkbuf_4_14_0_w_clk
*6503 clkbuf_4_15_0_w_clk
*6504 clkbuf_4_1_0_w_clk
*6505 clkbuf_4_2_0_w_clk
*6506 clkbuf_4_3_0_w_clk
*6507 clkbuf_4_4_0_w_clk
*6508 clkbuf_4_5_0_w_clk
*6509 clkbuf_4_6_0_w_clk
*6510 clkbuf_4_7_0_w_clk
*6511 clkbuf_4_8_0_w_clk
*6512 clkbuf_4_9_0_w_clk
*6513 fanout26
*6514 fanout27
*6515 fanout28
*6516 fanout29
*6517 hold1
*6518 hold10
*6519 hold100
*6520 hold101
*6521 hold102
*6522 hold103
*6523 hold104
*6524 hold105
*6525 hold106
*6526 hold107
*6527 hold108
*6528 hold109
*6529 hold11
*6530 hold110
*6531 hold111
*6532 hold112
*6533 hold113
*6534 hold114
*6535 hold115
*6536 hold116
*6537 hold117
*6538 hold118
*6539 hold119
*6540 hold12
*6541 hold120
*6542 hold121
*6543 hold122
*6544 hold123
*6545 hold124
*6546 hold125
*6547 hold126
*6548 hold127
*6549 hold128
*6550 hold129
*6551 hold13
*6552 hold130
*6553 hold131
*6554 hold132
*6555 hold133
*6556 hold134
*6557 hold135
*6558 hold136
*6559 hold137
*6560 hold14
*6561 hold15
*6562 hold16
*6563 hold17
*6564 hold18
*6565 hold19
*6566 hold2
*6567 hold20
*6568 hold21
*6569 hold22
*6570 hold23
*6571 hold24
*6572 hold25
*6573 hold26
*6574 hold27
*6575 hold28
*6576 hold29
*6577 hold3
*6578 hold30
*6579 hold31
*6580 hold32
*6581 hold33
*6582 hold34
*6583 hold35
*6584 hold36
*6585 hold37
*6586 hold38
*6587 hold39
*6588 hold4
*6589 hold40
*6590 hold41
*6591 hold42
*6592 hold43
*6593 hold44
*6594 hold45
*6595 hold46
*6596 hold47
*6597 hold48
*6598 hold49
*6599 hold5
*6600 hold50
*6601 hold51
*6602 hold52
*6603 hold53
*6604 hold54
*6605 hold55
*6606 hold56
*6607 hold57
*6608 hold58
*6609 hold59
*6610 hold6
*6611 hold60
*6612 hold61
*6613 hold62
*6614 hold63
*6615 hold64
*6616 hold65
*6617 hold66
*6618 hold67
*6619 hold68
*6620 hold69
*6621 hold7
*6622 hold70
*6623 hold71
*6624 hold72
*6625 hold73
*6626 hold74
*6627 hold75
*6628 hold76
*6629 hold77
*6630 hold78
*6631 hold79
*6632 hold8
*6633 hold80
*6634 hold81
*6635 hold82
*6636 hold83
*6637 hold84
*6638 hold85
*6639 hold86
*6640 hold87
*6641 hold88
*6642 hold89
*6643 hold9
*6644 hold90
*6645 hold91
*6646 hold92
*6647 hold93
*6648 hold94
*6649 hold95
*6650 hold96
*6651 hold97
*6652 hold98
*6653 hold99
*6654 input1
*6655 input10
*6656 input11
*6657 input12
*6658 input13
*6659 input2
*6660 input3
*6661 input4
*6662 input5
*6663 input6
*6664 input7
*6665 input8
*6666 input9
*6667 max_cap24
*6668 max_cap25
*6669 output14
*6670 output15
*6671 output16
*6672 output17
*6673 output18
*6674 output19
*6675 output20
*6676 output21
*6677 output22
*6678 output23

*PORTS
empty O
full O
r_clk I
r_data[0] O
r_data[1] O
r_data[2] O
r_data[3] O
r_data[4] O
r_data[5] O
r_data[6] O
r_data[7] O
r_rst_n I
rd I
w_clk I
w_data[0] I
w_data[1] I
w_data[2] I
w_data[3] I
w_data[4] I
w_data[5] I
w_data[6] I
w_data[7] I
w_rst_n I
wr I

*D_NET *1 0.001591
*CONN
*P empty O
*I *6669:X O *D sky130_fd_sc_hd__clkbuf_4
*CAP
1 empty 0.000771353
2 *6669:X 0.000771353
3 empty *828:DIODE 4.82919e-05
4 empty *669:16 0
*RES
1 *6669:X empty 15.57 
*END

*D_NET *2 0.000680166
*CONN
*P full O
*I *6670:X O *D sky130_fd_sc_hd__clkbuf_4
*CAP
1 full 0.000332884
2 *6670:X 0.000332884
3 full *6670:A 1.4399e-05
4 full *6677:A 0
*RES
1 *6670:X full 7.33043 
*END

*D_NET *3 0.00134359
*CONN
*P r_clk I
*I *6654:A I *D sky130_fd_sc_hd__dlymetal6s2s_1
*CAP
1 r_clk 0.000584365
2 *6654:A 0.000584365
3 *6654:A *624:8 8.65905e-05
4 *6654:A *746:6 8.8266e-05
*RES
1 r_clk *6654:A 14.475 
*END

*D_NET *4 0.000693812
*CONN
*P r_data[0] O
*I *6671:X O *D sky130_fd_sc_hd__buf_2
*CAP
1 r_data[0] 0.000346906
2 *6671:X 0.000346906
3 r_data[0] *691:31 0
4 r_data[0] *701:23 0
*RES
1 *6671:X r_data[0] 7.37197 
*END

*D_NET *5 0.00050557
*CONN
*P r_data[1] O
*I *6672:X O *D sky130_fd_sc_hd__buf_2
*CAP
1 r_data[1] 0.000246929
2 *6672:X 0.000246929
3 r_data[1] *6672:A 1.17114e-05
*RES
1 *6672:X r_data[1] 4.9633 
*END

*D_NET *6 0.000719604
*CONN
*P r_data[2] O
*I *6673:X O *D sky130_fd_sc_hd__clkbuf_4
*CAP
1 r_data[2] 0.000325203
2 *6673:X 0.000325203
3 r_data[2] *724:12 2.03645e-05
4 r_data[2] *724:16 4.88345e-05
*RES
1 *6673:X r_data[2] 6.09983 
*END

*D_NET *7 0.00151514
*CONN
*P r_data[3] O
*I *6674:X O *D sky130_fd_sc_hd__clkbuf_4
*CAP
1 r_data[3] 0.000757569
2 *6674:X 0.000757569
*RES
1 *6674:X r_data[3] 16.02 
*END

*D_NET *8 0.000876668
*CONN
*P r_data[4] O
*I *6675:X O *D sky130_fd_sc_hd__clkbuf_4
*CAP
1 r_data[4] 0.000438334
2 *6675:X 0.000438334
*RES
1 *6675:X r_data[4] 10.53 
*END

*D_NET *9 0.000690375
*CONN
*P r_data[5] O
*I *6676:X O *D sky130_fd_sc_hd__clkbuf_4
*CAP
1 r_data[5] 0.000330169
2 *6676:X 0.000330169
3 r_data[5] *6676:A 3.00381e-05
4 r_data[5] *711:38 0
*RES
1 *6676:X r_data[5] 7.33043 
*END

*D_NET *10 0.000589281
*CONN
*P r_data[6] O
*I *6677:X O *D sky130_fd_sc_hd__clkbuf_4
*CAP
1 r_data[6] 0.000294641
2 *6677:X 0.000294641
*RES
1 *6677:X r_data[6] 5.27657 
*END

*D_NET *11 0.000876668
*CONN
*P r_data[7] O
*I *6678:X O *D sky130_fd_sc_hd__clkbuf_4
*CAP
1 r_data[7] 0.000438334
2 *6678:X 0.000438334
*RES
1 *6678:X r_data[7] 10.53 
*END

*D_NET *12 0.00137767
*CONN
*P r_rst_n I
*I *6659:A I *D sky130_fd_sc_hd__clkbuf_2
*CAP
1 r_rst_n 0.000688834
2 *6659:A 0.000688834
*RES
1 r_rst_n *6659:A 15.27 
*END

*D_NET *13 0.000763257
*CONN
*P rd I
*I *6660:A I *D sky130_fd_sc_hd__buf_2
*CAP
1 rd 0.000381629
2 *6660:A 0.000381629
*RES
1 rd *6660:A 10.455 
*END

*D_NET *16 0.0172709
*CONN
*P w_clk I
*I *6496:A I *D sky130_fd_sc_hd__clkbuf_16
*CAP
1 w_clk 0.00459206
2 *6496:A 0.00231774
3 *16:5 0.0069098
4 *6496:A *6241:S 1.44259e-05
5 *6496:A *6246:A 4.39001e-05
6 *6496:A *6444:CLK 5.33085e-05
7 *6496:A *6615:A 0.000209391
8 *6496:A *768:44 0
9 *16:5 *5951:A0 6.95335e-05
10 *16:5 *5951:A3 0
11 *16:5 *5953:A0 0.000199217
12 *16:5 *5953:A1 7.23602e-05
13 *16:5 *5954:A1 0.000433543
14 *16:5 *5959:A0 0.000592664
15 *16:5 *6046:A 2.73658e-05
16 *16:5 *6063:S 0
17 *16:5 *6338:D 7.63125e-05
18 *16:5 *6389:CLK 0.000353462
19 *16:5 *6591:A 0.000130072
20 *16:5 *230:111 0.000380483
21 *16:5 *233:139 0
22 *16:5 *319:84 0
23 *16:5 *382:53 0.000115464
24 *16:5 *382:68 3.46196e-05
25 *16:5 *470:128 0.00013521
26 *16:5 *485:28 0.000156155
27 *16:5 *485:30 0.000353839
28 *16:5 *486:57 0
29 *16:5 *486:72 0
*RES
1 w_clk *16:5 91.8525 
2 *16:5 *6496:A 10.8946 
*END

*D_NET *17 0.00148885
*CONN
*P w_data[0] I
*I *6661:A I *D sky130_fd_sc_hd__clkbuf_8
*CAP
1 w_data[0] 0.00071789
2 *6661:A 0.00071789
3 *6661:A *724:12 5.30673e-05
*RES
1 w_data[0] *6661:A 16.83 
*END

*D_NET *18 0.0010235
*CONN
*P w_data[1] I
*I *6662:A I *D sky130_fd_sc_hd__buf_4
*CAP
1 w_data[1] 0.00051175
2 *6662:A 0.00051175
*RES
1 w_data[1] *6662:A 13.515 
*END

*D_NET *19 0.00106975
*CONN
*P w_data[2] I
*I *6663:A I *D sky130_fd_sc_hd__buf_4
*CAP
1 w_data[2] 0.000510731
2 *6663:A 0.000510731
3 *6663:A *624:8 4.82919e-05
*RES
1 w_data[2] *6663:A 12.645 
*END

*D_NET *20 0.000805497
*CONN
*P w_data[3] I
*I *6664:A I *D sky130_fd_sc_hd__buf_4
*CAP
1 w_data[3] 0.000402748
2 *6664:A 0.000402748
3 *6664:A *691:31 0
4 *6664:A *757:14 0
*RES
1 w_data[3] *6664:A 7.8185 
*END

*D_NET *21 0.000592724
*CONN
*P w_data[4] I
*I *6665:A I *D sky130_fd_sc_hd__buf_4
*CAP
1 w_data[4] 0.000296362
2 *6665:A 0.000296362
3 *6665:A *647:8 0
*RES
1 w_data[4] *6665:A 7.66043 
*END

*D_NET *22 0.00103527
*CONN
*P w_data[5] I
*I *6666:A I *D sky130_fd_sc_hd__buf_4
*CAP
1 w_data[5] 0.000517637
2 *6666:A 0.000517637
*RES
1 w_data[5] *6666:A 12.645 
*END

*D_NET *23 0.000778622
*CONN
*P w_data[6] I
*I *6655:A I *D sky130_fd_sc_hd__buf_4
*CAP
1 w_data[6] 0.000389311
2 *6655:A 0.000389311
*RES
1 w_data[6] *6655:A 10.35 
*END

*D_NET *24 0.000647759
*CONN
*P w_data[7] I
*I *6656:A I *D sky130_fd_sc_hd__buf_4
*CAP
1 w_data[7] 0.000315901
2 *6656:A 0.000315901
3 *6656:A *647:8 1.59562e-05
*RES
1 w_data[7] *6656:A 5.43617 
*END

*D_NET *25 0.00136109
*CONN
*P w_rst_n I
*I *6657:A I *D sky130_fd_sc_hd__clkbuf_2
*CAP
1 w_rst_n 0.000680544
2 *6657:A 0.000680544
*RES
1 w_rst_n *6657:A 15.405 
*END

*D_NET *26 0.000719823
*CONN
*P wr I
*I *6658:A I *D sky130_fd_sc_hd__clkbuf_2
*CAP
1 wr 0.000344893
2 *6658:A 0.000344893
3 *6658:A *6673:A 0
4 *6658:A *658:8 3.00381e-05
*RES
1 wr *6658:A 8.12197 
*END

*D_NET *27 0.000952068
*CONN
*I *6322:D I *D sky130_fd_sc_hd__dfxtp_1
*I *5907:X O *D sky130_fd_sc_hd__clkbuf_1
*CAP
1 *6322:D 0.000395319
2 *5907:X 0.000395319
3 *6322:D *6637:A 0
4 *6322:D *225:121 0
5 *6322:D *225:136 0
6 *6322:D *481:52 0.0001111
7 *6322:D *658:24 5.03301e-05
*RES
1 *5907:X *6322:D 12.7688 
*END

*D_NET *28 0.000443248
*CONN
*I *6323:D I *D sky130_fd_sc_hd__dfxtp_1
*I *5909:X O *D sky130_fd_sc_hd__clkbuf_1
*CAP
1 *6323:D 0.000131141
2 *5909:X 0.000131141
3 *6323:D *5909:A 0
4 *6323:D *5939:A2 5.2325e-05
5 *6323:D *6323:CLK 0.000128642
6 *6323:D *6550:A 0
*RES
1 *5909:X *6323:D 10.0087 
*END

*D_NET *29 0.0008304
*CONN
*I *6324:D I *D sky130_fd_sc_hd__dfxtp_1
*I *5911:X O *D sky130_fd_sc_hd__clkbuf_1
*CAP
1 *6324:D 0.000253159
2 *5911:X 0.000253159
3 *6324:D *5948:A3 3.10498e-05
4 *6324:D *5948:S0 0
5 *6324:D *6324:CLK 0.000293032
6 *6324:D *411:20 0
7 *6324:D *680:14 0
*RES
1 *5911:X *6324:D 11.595 
*END

*D_NET *30 0.000713907
*CONN
*I *6325:D I *D sky130_fd_sc_hd__dfxtp_1
*I *5913:X O *D sky130_fd_sc_hd__clkbuf_1
*CAP
1 *6325:D 0.000181009
2 *5913:X 0.000181009
3 *6325:D *5957:A2 4.82319e-06
4 *6325:D *5975:S1 9.26175e-06
5 *6325:D *6029:S 0.000311102
6 *6325:D *6175:A0 2.67022e-05
7 *6325:D *6175:S 0
8 *6325:D *6211:A0 0
9 *6325:D *6611:A 0
10 *6325:D *401:87 0
*RES
1 *5913:X *6325:D 11.0138 
*END

*D_NET *31 0.000564
*CONN
*I *6326:D I *D sky130_fd_sc_hd__dfxtp_1
*I *5915:X O *D sky130_fd_sc_hd__clkbuf_1
*CAP
1 *6326:D 0.000179375
2 *5915:X 0.000179375
3 *6326:D *5915:A 0
4 *6326:D *6638:A 0
5 *6326:D *488:78 0.00020525
*RES
1 *5915:X *6326:D 10.6987 
*END

*D_NET *32 0.000638788
*CONN
*I *6327:D I *D sky130_fd_sc_hd__dfxtp_1
*I *5917:X O *D sky130_fd_sc_hd__clkbuf_1
*CAP
1 *6327:D 0.000178495
2 *5917:X 0.000178495
3 *6327:D *225:164 8.83125e-05
4 *6327:D *232:58 0.000139238
5 *6327:D *233:45 5.42473e-05
*RES
1 *5917:X *6327:D 11.0437 
*END

*D_NET *33 0.000595525
*CONN
*I *6328:D I *D sky130_fd_sc_hd__dfxtp_1
*I *5919:X O *D sky130_fd_sc_hd__clkbuf_1
*CAP
1 *6328:D 9.39146e-05
2 *5919:X 9.39146e-05
3 *6328:D *6217:A0 0.000159964
4 *6328:D *6328:CLK 8.77684e-05
5 *6328:D *625:32 0.000159964
*RES
1 *5919:X *6328:D 9.91875 
*END

*D_NET *34 0.000729804
*CONN
*I *6329:D I *D sky130_fd_sc_hd__dfxtp_1
*I *5921:X O *D sky130_fd_sc_hd__clkbuf_1
*CAP
1 *6329:D 0.00013469
2 *5921:X 0.00013469
3 *6329:D *5921:A 4.94326e-05
4 *6329:D *5993:A1 2.65814e-06
5 *6329:D *6213:S 0.000279937
6 *6329:D *6329:CLK 0.000128396
*RES
1 *5921:X *6329:D 10.8787 
*END

*D_NET *35 0.000368301
*CONN
*I *6330:D I *D sky130_fd_sc_hd__dfxtp_1
*I *5938:X O *D sky130_fd_sc_hd__clkbuf_1
*CAP
1 *6330:D 0.00018415
2 *5938:X 0.00018415
*RES
1 *5938:X *6330:D 5.61875 
*END

*D_NET *36 0.000526202
*CONN
*I *6331:D I *D sky130_fd_sc_hd__dfxtp_1
*I *5947:X O *D sky130_fd_sc_hd__clkbuf_1
*CAP
1 *6331:D 0.000195905
2 *5947:X 0.000195905
3 *6331:D *5943:S1 3.89528e-05
4 *6331:D *382:80 9.54399e-05
*RES
1 *5947:X *6331:D 10.3837 
*END

*D_NET *37 0.00108514
*CONN
*I *6332:D I *D sky130_fd_sc_hd__dfxtp_1
*I *5956:X O *D sky130_fd_sc_hd__clkbuf_1
*CAP
1 *6332:D 0.000347302
2 *5956:X 0.000347302
3 *6332:D *5955:A1 0.000190272
4 *6332:D *712:72 8.65961e-05
5 *6332:D *712:83 0.000113663
*RES
1 *5956:X *6332:D 13.0087 
*END

*D_NET *38 0.000371547
*CONN
*I *6333:D I *D sky130_fd_sc_hd__dfxtp_1
*I *5965:X O *D sky130_fd_sc_hd__clkbuf_1
*CAP
1 *6333:D 0.000172016
2 *5965:X 0.000172016
3 *6333:D *5965:A 2.75145e-05
*RES
1 *5965:X *6333:D 5.61875 
*END

*D_NET *39 0.000371895
*CONN
*I *6334:D I *D sky130_fd_sc_hd__dfxtp_1
*I *5974:X O *D sky130_fd_sc_hd__clkbuf_1
*CAP
1 *6334:D 0.000130151
2 *5974:X 0.000130151
3 *6334:D *712:53 7.60965e-05
4 *6334:D *712:64 3.54965e-05
*RES
1 *5974:X *6334:D 5.61875 
*END

*D_NET *40 0.000454142
*CONN
*I *6335:D I *D sky130_fd_sc_hd__dfxtp_1
*I *5983:X O *D sky130_fd_sc_hd__clkbuf_1
*CAP
1 *6335:D 0.000190058
2 *5983:X 0.000190058
3 *6335:D *6676:A 7.4027e-05
4 *6335:D *709:90 0
5 *6335:D *711:34 0
6 *6335:D *711:38 0
*RES
1 *5983:X *6335:D 10.3538 
*END

*D_NET *41 0.000505768
*CONN
*I *6336:D I *D sky130_fd_sc_hd__dfxtp_1
*I *5992:X O *D sky130_fd_sc_hd__clkbuf_1
*CAP
1 *6336:D 8.02754e-05
2 *5992:X 8.02754e-05
3 *6336:D *5992:A 9.30717e-05
4 *6336:D *6670:A 0.000126073
5 *6336:D *6677:A 0.000126073
*RES
1 *5992:X *6336:D 9.49875 
*END

*D_NET *42 0.000354366
*CONN
*I *6337:D I *D sky130_fd_sc_hd__dfxtp_1
*I *6001:X O *D sky130_fd_sc_hd__clkbuf_1
*CAP
1 *6337:D 9.67713e-05
2 *6001:X 9.67713e-05
3 *6337:D *6001:A 8.40568e-05
4 *6337:D *703:25 1.20152e-05
5 *6337:D *712:72 6.47516e-05
*RES
1 *6001:X *6337:D 9.57 
*END

*D_NET *43 0.000574681
*CONN
*I *6338:D I *D sky130_fd_sc_hd__dfxtp_1
*I *6005:X O *D sky130_fd_sc_hd__clkbuf_1
*CAP
1 *6338:D 0.000178738
2 *6005:X 0.000178738
3 *6338:D *6005:A 9.60582e-07
4 *6338:D *230:111 0.000139933
5 *16:5 *6338:D 7.63125e-05
*RES
1 *6005:X *6338:D 10.35 
*END

*D_NET *44 0.000414156
*CONN
*I *6339:D I *D sky130_fd_sc_hd__dfxtp_1
*I *6007:X O *D sky130_fd_sc_hd__clkbuf_1
*CAP
1 *6339:D 0.000207078
2 *6007:X 0.000207078
3 *6339:D *724:124 0
*RES
1 *6007:X *6339:D 10.3538 
*END

*D_NET *45 0.000375772
*CONN
*I *6340:D I *D sky130_fd_sc_hd__dfxtp_1
*I *6009:X O *D sky130_fd_sc_hd__clkbuf_1
*CAP
1 *6340:D 8.76283e-05
2 *6009:X 8.76283e-05
3 *6340:D *6009:A 0.000114492
4 *6340:D *233:139 5.35969e-06
5 *6340:D *298:52 8.44338e-06
6 *6340:D *484:34 9.50342e-06
7 *6340:D *484:96 1.86443e-05
8 *6340:D *484:118 4.4073e-05
*RES
1 *6009:X *6340:D 9.21 
*END

*D_NET *46 0.00018304
*CONN
*I *6341:D I *D sky130_fd_sc_hd__dfxtp_1
*I *6011:X O *D sky130_fd_sc_hd__clkbuf_1
*CAP
1 *6341:D 6.48576e-05
2 *6011:X 6.48576e-05
3 *6341:D *6312:S 1.43717e-05
4 *6341:D *298:67 3.89528e-05
*RES
1 *6011:X *6341:D 8.46375 
*END

*D_NET *47 0.000498516
*CONN
*I *6342:D I *D sky130_fd_sc_hd__dfxtp_1
*I *6013:X O *D sky130_fd_sc_hd__clkbuf_1
*CAP
1 *6342:D 0.000168752
2 *6013:X 0.000168752
3 *6342:D *6013:A 7.63204e-05
4 *6342:D *6616:A 0
5 *6342:D *233:98 8.46913e-05
6 *6342:D *525:10 0
*RES
1 *6013:X *6342:D 10.6987 
*END

*D_NET *48 0.000447133
*CONN
*I *6343:D I *D sky130_fd_sc_hd__dfxtp_1
*I *6015:X O *D sky130_fd_sc_hd__clkbuf_1
*CAP
1 *6343:D 0.000101084
2 *6015:X 0.000101084
3 *6343:D *6055:A0 6.65066e-05
4 *6343:D *329:29 8.81214e-05
5 *6343:D *493:14 9.03376e-05
*RES
1 *6015:X *6343:D 9.91875 
*END

*D_NET *49 0.000196614
*CONN
*I *6344:D I *D sky130_fd_sc_hd__dfxtp_1
*I *6017:X O *D sky130_fd_sc_hd__clkbuf_1
*CAP
1 *6344:D 4.5269e-05
2 *6017:X 4.5269e-05
3 *6344:D *6017:A 5.21046e-05
4 *6344:D *485:28 5.39718e-05
*RES
1 *6017:X *6344:D 8.46375 
*END

*D_NET *50 0.000486977
*CONN
*I *6345:D I *D sky130_fd_sc_hd__dfxtp_1
*I *6019:X O *D sky130_fd_sc_hd__clkbuf_1
*CAP
1 *6345:D 0.000158568
2 *6019:X 0.000158568
3 *6345:D *6019:A 4.99619e-05
4 *6345:D *6303:A 4.99619e-05
5 *6345:D *6345:CLK 6.99173e-05
*RES
1 *6019:X *6345:D 6.47 
*END

*D_NET *51 0.00099594
*CONN
*I *6346:D I *D sky130_fd_sc_hd__dfxtp_1
*I *6024:X O *D sky130_fd_sc_hd__clkbuf_1
*CAP
1 *6346:D 0.000208926
2 *6024:X 0.000208926
3 *6346:D *6187:A0 9.54399e-05
4 *6346:D *6346:CLK 0.000112853
5 *6346:D *552:10 0.000369795
*RES
1 *6024:X *6346:D 12.4537 
*END

*D_NET *52 0.00104321
*CONN
*I *6347:D I *D sky130_fd_sc_hd__dfxtp_1
*I *6026:X O *D sky130_fd_sc_hd__clkbuf_1
*CAP
1 *6347:D 0.000244352
2 *6026:X 0.000244352
3 *6347:D *5940:A1 0.00034463
4 *6347:D *5940:A2 0.00010045
5 *6347:D *481:35 0.00010943
6 *6347:D *724:64 0
*RES
1 *6026:X *6347:D 12.9788 
*END

*D_NET *53 0.00208841
*CONN
*I *6348:D I *D sky130_fd_sc_hd__dfxtp_1
*I *6028:X O *D sky130_fd_sc_hd__clkbuf_1
*CAP
1 *6348:D 0.000541795
2 *6028:X 0.000541795
3 *6348:D *5949:A0 0.00023468
4 *6348:D *5949:A2 0.000112893
5 *6348:D *6029:S 0.000173009
6 *6348:D *6565:A 7.63204e-05
7 *6348:D *309:65 0.000317353
8 *6348:D *309:69 9.05678e-05
9 *6348:D *411:111 0
*RES
1 *6028:X *6348:D 18.6038 
*END

*D_NET *54 0.000658319
*CONN
*I *6349:D I *D sky130_fd_sc_hd__dfxtp_1
*I *6030:X O *D sky130_fd_sc_hd__clkbuf_1
*CAP
1 *6349:D 0.000187259
2 *6030:X 0.000187259
3 *6349:D *5958:A3 0.000114492
4 *6349:D *6029:S 0.000131002
5 *6349:D *6632:A 8.53113e-06
6 *6349:D *483:63 1.43717e-05
7 *6349:D *563:10 1.54049e-05
8 *6349:D *757:79 0
*RES
1 *6030:X *6349:D 11.2688 
*END

*D_NET *55 0.000593998
*CONN
*I *6350:D I *D sky130_fd_sc_hd__dfxtp_1
*I *6032:X O *D sky130_fd_sc_hd__clkbuf_1
*CAP
1 *6350:D 0.000174515
2 *6032:X 0.000174515
3 *6350:D *239:168 0.000244968
*RES
1 *6032:X *6350:D 5.87375 
*END

*D_NET *56 0.000387206
*CONN
*I *6351:D I *D sky130_fd_sc_hd__dfxtp_1
*I *6034:X O *D sky130_fd_sc_hd__clkbuf_1
*CAP
1 *6351:D 0.000127775
2 *6034:X 0.000127775
3 *6351:D *5976:A1 0.000123573
4 *6351:D *6197:A0 8.08153e-06
5 *6351:D *232:69 0
*RES
1 *6034:X *6351:D 9.49875 
*END

*D_NET *57 0.000922703
*CONN
*I *6352:D I *D sky130_fd_sc_hd__dfxtp_1
*I *6036:X O *D sky130_fd_sc_hd__clkbuf_1
*CAP
1 *6352:D 0.000312496
2 *6036:X 0.000312496
3 *6352:D *5985:A1 8.88799e-05
4 *6352:D *5988:S0 4.65698e-05
5 *6352:D *6036:A 3.86607e-05
6 *6352:D *6199:A1 0
7 *6352:D *6630:A 9.03508e-06
8 *6352:D *230:66 0.000114565
*RES
1 *6036:X *6352:D 12.8737 
*END

*D_NET *58 0.00120985
*CONN
*I *6353:D I *D sky130_fd_sc_hd__dfxtp_1
*I *6038:X O *D sky130_fd_sc_hd__clkbuf_1
*CAP
1 *6353:D 0.00031359
2 *6038:X 0.00031359
3 *6353:D *5904:A 0
4 *6353:D *5994:A1 0.000166946
5 *6353:D *6038:A 0.000128344
6 *6353:D *6353:CLK 0.000166946
7 *6353:D *309:16 6.9117e-05
8 *6353:D *372:74 0
9 *6353:D *488:8 5.13155e-05
*RES
1 *6038:X *6353:D 13.9237 
*END

*D_NET *59 0.000785455
*CONN
*I *6354:D I *D sky130_fd_sc_hd__dfxtp_1
*I *6042:X O *D sky130_fd_sc_hd__clkbuf_1
*CAP
1 *6354:D 0.000229412
2 *6042:X 0.000229412
3 *6354:D *5931:A1 7.60965e-05
4 *6354:D *319:105 0
5 *6354:D *351:101 4.81438e-05
6 *6354:D *460:78 7.63125e-05
7 *6354:D *486:38 0.000126078
*RES
1 *6042:X *6354:D 11.4937 
*END

*D_NET *60 0.000721199
*CONN
*I *6355:D I *D sky130_fd_sc_hd__dfxtp_1
*I *6044:X O *D sky130_fd_sc_hd__clkbuf_1
*CAP
1 *6355:D 0.000221744
2 *6044:X 0.000221744
3 *6355:D *5942:A0 8.23457e-05
4 *6355:D *6044:A 7.06865e-05
5 *6355:D *6355:CLK 7.25155e-05
6 *6355:D *237:169 5.21627e-05
*RES
1 *6044:X *6355:D 11.04 
*END

*D_NET *61 0.000516566
*CONN
*I *6356:D I *D sky130_fd_sc_hd__dfxtp_1
*I *6046:X O *D sky130_fd_sc_hd__clkbuf_1
*CAP
1 *6356:D 0.000140205
2 *6046:X 0.000140205
3 *6356:D *5951:A1 7.21468e-05
4 *6356:D *6045:A1 0.000164008
5 *6356:D *319:84 0
*RES
1 *6046:X *6356:D 10.3538 
*END

*D_NET *62 0.000477427
*CONN
*I *6357:D I *D sky130_fd_sc_hd__dfxtp_1
*I *6048:X O *D sky130_fd_sc_hd__clkbuf_1
*CAP
1 *6357:D 0.000128372
2 *6048:X 0.000128372
3 *6357:D *5960:A0 7.36892e-05
4 *6357:D *6048:A 8.40269e-05
5 *6357:D *486:83 6.29663e-05
*RES
1 *6048:X *6357:D 5.61875 
*END

*D_NET *63 0.00140796
*CONN
*I *6358:D I *D sky130_fd_sc_hd__dfxtp_1
*I *6050:X O *D sky130_fd_sc_hd__clkbuf_1
*CAP
1 *6358:D 0.000191963
2 *6050:X 0.000191963
3 *6358:D *5969:A1 0.000272835
4 *6358:D *5969:A3 0.000230649
5 *6358:D *6049:A0 9.23635e-05
6 *6358:D *6050:A 5.00391e-05
7 *6358:D *460:66 6.71686e-05
8 *6358:D *532:6 0.000185823
9 *6358:D *548:8 0.000125154
*RES
1 *6050:X *6358:D 13.6388 
*END

*D_NET *64 0.0011245
*CONN
*I *6359:D I *D sky130_fd_sc_hd__dfxtp_1
*I *6052:X O *D sky130_fd_sc_hd__clkbuf_1
*CAP
1 *6359:D 0.000308704
2 *6052:X 0.000308704
3 *6359:D *5978:A3 0.00016113
4 *6359:D *6051:S 0
5 *6359:D *6052:A 3.72081e-05
6 *6359:D *6298:A0 7.03276e-05
7 *6359:D *319:51 0
8 *6359:D *493:69 0.000238421
*RES
1 *6052:X *6359:D 13.3387 
*END

*D_NET *65 0.00106778
*CONN
*I *6360:D I *D sky130_fd_sc_hd__dfxtp_1
*I *6054:X O *D sky130_fd_sc_hd__clkbuf_1
*CAP
1 *6360:D 0.000348917
2 *6054:X 0.000348917
3 *6360:D *485:16 0.000220331
4 *6360:D *485:86 0.000149613
*RES
1 *6054:X *6360:D 8.28875 
*END

*D_NET *66 0.000471227
*CONN
*I *6361:D I *D sky130_fd_sc_hd__dfxtp_1
*I *6056:X O *D sky130_fd_sc_hd__clkbuf_1
*CAP
1 *6361:D 0.000152141
2 *6056:X 0.000152141
3 *6361:D *6361:CLK 0.000166946
4 *6361:D *319:51 0
*RES
1 *6056:X *6361:D 9.84375 
*END

*D_NET *67 0.000776876
*CONN
*I *6362:D I *D sky130_fd_sc_hd__dfxtp_1
*I *6060:X O *D sky130_fd_sc_hd__clkbuf_1
*CAP
1 *6362:D 0.000251368
2 *6060:X 0.000251368
3 *6362:D *5963:A0 7.70938e-05
4 *6362:D *6370:CLK 2.77283e-05
5 *6362:D *233:181 0.000141599
6 *6362:D *486:10 2.77183e-05
*RES
1 *6060:X *6362:D 11.4937 
*END

*D_NET *68 0.000396785
*CONN
*I *6363:D I *D sky130_fd_sc_hd__dfxtp_1
*I *6062:X O *D sky130_fd_sc_hd__clkbuf_1
*CAP
1 *6363:D 0.000146819
2 *6062:X 0.000146819
3 *6363:D *5942:A0 3.09111e-05
4 *6363:D *6363:CLK 7.22354e-05
*RES
1 *6062:X *6363:D 5.61875 
*END

*D_NET *69 0.000476534
*CONN
*I *6364:D I *D sky130_fd_sc_hd__dfxtp_1
*I *6064:X O *D sky130_fd_sc_hd__clkbuf_1
*CAP
1 *6364:D 0.000170475
2 *6064:X 0.000170475
3 *6364:D *6064:A 4.82919e-05
4 *6364:D *6364:CLK 6.52181e-05
5 *6364:D *233:139 2.20732e-05
*RES
1 *6064:X *6364:D 5.96375 
*END

*D_NET *70 0.000822535
*CONN
*I *6365:D I *D sky130_fd_sc_hd__dfxtp_1
*I *6066:X O *D sky130_fd_sc_hd__clkbuf_1
*CAP
1 *6365:D 0.000250627
2 *6066:X 0.000250627
3 *6365:D *5960:A0 0.000198939
4 *6365:D *6065:A0 0
5 *6365:D *6066:A 4.40725e-05
6 *6365:D *486:106 7.82691e-05
*RES
1 *6066:X *6365:D 11.13 
*END

*D_NET *71 0.000794618
*CONN
*I *6366:D I *D sky130_fd_sc_hd__dfxtp_1
*I *6068:X O *D sky130_fd_sc_hd__clkbuf_1
*CAP
1 *6366:D 0.000169066
2 *6068:X 0.000169066
3 *6366:D *5969:A3 0.000136877
4 *6366:D *5969:S0 0
5 *6366:D *6068:A 0.000287337
6 *6366:D *298:52 6.50844e-06
7 *6366:D *484:44 1.43717e-05
8 *6366:D *779:20 1.1392e-05
*RES
1 *6068:X *6366:D 11.2087 
*END

*D_NET *72 0.000508711
*CONN
*I *6367:D I *D sky130_fd_sc_hd__dfxtp_1
*I *6070:X O *D sky130_fd_sc_hd__clkbuf_1
*CAP
1 *6367:D 0.000106315
2 *6070:X 0.000106315
3 *6367:D *6070:A 3.23663e-05
4 *6367:D *6367:CLK 0.000111386
5 *6367:D *298:37 0.00014532
6 *6367:D *460:31 7.00889e-06
*RES
1 *6070:X *6367:D 6.47 
*END

*D_NET *73 0.00113875
*CONN
*I *6368:D I *D sky130_fd_sc_hd__dfxtp_1
*I *6072:X O *D sky130_fd_sc_hd__clkbuf_1
*CAP
1 *6368:D 0.000250552
2 *6072:X 0.000250552
3 *6368:D *5987:A0 4.82319e-06
4 *6368:D *6043:S 1.43717e-05
5 *6368:D *230:128 0.000185324
6 *6368:D *233:181 0.000433133
7 *6368:D *233:191 0
*RES
1 *6072:X *6368:D 13.5037 
*END

*D_NET *74 0.000882636
*CONN
*I *6369:D I *D sky130_fd_sc_hd__dfxtp_1
*I *6074:X O *D sky130_fd_sc_hd__clkbuf_1
*CAP
1 *6369:D 0.000215719
2 *6074:X 0.000215719
3 *6369:D *5996:A0 3.51254e-06
4 *6369:D *5996:S0 0.000124007
5 *6369:D *6074:A 0.000270647
6 *6369:D *292:12 3.86607e-05
7 *6369:D *298:33 1.43717e-05
8 *6369:D *636:57 0
*RES
1 *6074:X *6369:D 11.6438 
*END

*D_NET *75 0.00049194
*CONN
*I *6370:D I *D sky130_fd_sc_hd__dfxtp_1
*I *6078:X O *D sky130_fd_sc_hd__clkbuf_1
*CAP
1 *6370:D 7.75218e-05
2 *6078:X 7.75218e-05
3 *6370:D *5937:A0 1.22464e-05
4 *6370:D *6059:A0 0.000162325
5 *6370:D *339:71 0.000162325
*RES
1 *6078:X *6370:D 9.57375 
*END

*D_NET *76 0.00026888
*CONN
*I *6371:D I *D sky130_fd_sc_hd__dfxtp_1
*I *6080:X O *D sky130_fd_sc_hd__clkbuf_1
*CAP
1 *6371:D 0.000108423
2 *6080:X 0.000108423
3 *6371:D *6371:CLK 0
4 *6371:D *513:10 0
5 *6371:D *735:162 5.20335e-05
*RES
1 *6080:X *6371:D 8.80875 
*END

*D_NET *77 0.000372995
*CONN
*I *6372:D I *D sky130_fd_sc_hd__dfxtp_1
*I *6082:X O *D sky130_fd_sc_hd__clkbuf_1
*CAP
1 *6372:D 0.000186498
2 *6082:X 0.000186498
*RES
1 *6082:X *6372:D 5.61875 
*END

*D_NET *78 0.000341946
*CONN
*I *6373:D I *D sky130_fd_sc_hd__dfxtp_1
*I *6084:X O *D sky130_fd_sc_hd__clkbuf_1
*CAP
1 *6373:D 8.15132e-05
2 *6084:X 8.15132e-05
3 *6373:D *5962:S 8.09497e-05
4 *6373:D *233:247 1.43717e-05
5 *6373:D *351:111 8.35982e-05
*RES
1 *6084:X *6373:D 9.22875 
*END

*D_NET *79 0.000527149
*CONN
*I *6374:D I *D sky130_fd_sc_hd__dfxtp_1
*I *6086:X O *D sky130_fd_sc_hd__clkbuf_1
*CAP
1 *6374:D 0.000206743
2 *6086:X 0.000206743
3 *6374:D *6374:CLK 0.000113663
*RES
1 *6086:X *6374:D 6.30875 
*END

*D_NET *80 0.000594556
*CONN
*I *6375:D I *D sky130_fd_sc_hd__dfxtp_1
*I *6088:X O *D sky130_fd_sc_hd__clkbuf_1
*CAP
1 *6375:D 0.000144712
2 *6088:X 0.000144712
3 *6375:D *6088:A 0.000195707
4 *6375:D *492:16 0.000109424
*RES
1 *6088:X *6375:D 6.68375 
*END

*D_NET *81 0.000196249
*CONN
*I *6376:D I *D sky130_fd_sc_hd__dfxtp_1
*I *6090:X O *D sky130_fd_sc_hd__clkbuf_1
*CAP
1 *6376:D 7.06708e-05
2 *6090:X 7.06708e-05
3 *6376:D *6090:A 4.05358e-05
4 *6376:D *6376:CLK 1.43717e-05
5 *6376:D *482:42 0
*RES
1 *6090:X *6376:D 8.46375 
*END

*D_NET *82 0.000529447
*CONN
*I *6377:D I *D sky130_fd_sc_hd__dfxtp_1
*I *6092:X O *D sky130_fd_sc_hd__clkbuf_1
*CAP
1 *6377:D 0.000166163
2 *6092:X 0.000166163
3 *6377:D *6112:A 4.82863e-05
4 *6377:D *411:77 0.000148835
*RES
1 *6092:X *6377:D 5.96375 
*END

*D_NET *83 0.000534045
*CONN
*I *6378:D I *D sky130_fd_sc_hd__dfxtp_1
*I *6098:X O *D sky130_fd_sc_hd__clkbuf_1
*CAP
1 *6378:D 8.78211e-05
2 *6098:X 8.78211e-05
3 *6378:D *6071:A0 0.000116165
4 *6378:D *6488:CLK 0.000126073
5 *6378:D *724:179 0.000116165
*RES
1 *6098:X *6378:D 9.75375 
*END

*D_NET *84 0.000228746
*CONN
*I *6379:D I *D sky130_fd_sc_hd__dfxtp_1
*I *6100:X O *D sky130_fd_sc_hd__clkbuf_1
*CAP
1 *6379:D 5.67279e-05
2 *6100:X 5.67279e-05
3 *6379:D *5945:A0 0
4 *6379:D *231:18 9.54469e-05
5 *6379:D *482:104 1.54049e-05
6 *6379:D *622:12 4.43871e-06
*RES
1 *6100:X *6379:D 8.46375 
*END

*D_NET *85 0.000603615
*CONN
*I *6380:D I *D sky130_fd_sc_hd__dfxtp_1
*I *6102:X O *D sky130_fd_sc_hd__clkbuf_1
*CAP
1 *6380:D 0.000178153
2 *6102:X 0.000178153
3 *6380:D *6082:A 0.000157626
4 *6380:D *6406:CLK 1.43717e-05
5 *6380:D *230:91 0
6 *6380:D *484:34 7.53115e-05
*RES
1 *6102:X *6380:D 10.7587 
*END

*D_NET *86 0.000362658
*CONN
*I *6381:D I *D sky130_fd_sc_hd__dfxtp_1
*I *6104:X O *D sky130_fd_sc_hd__clkbuf_1
*CAP
1 *6381:D 9.87232e-05
2 *6104:X 9.87232e-05
3 *6381:D *5961:S0 3.00381e-05
4 *6381:D *6104:A 5.21627e-05
5 *6381:D *233:171 7.81876e-05
6 *6381:D *351:101 4.82319e-06
*RES
1 *6104:X *6381:D 9.42375 
*END

*D_NET *87 0.000383533
*CONN
*I *6382:D I *D sky130_fd_sc_hd__dfxtp_1
*I *6106:X O *D sky130_fd_sc_hd__clkbuf_1
*CAP
1 *6382:D 0.000152278
2 *6106:X 0.000152278
3 *6382:D *5980:A0 0
4 *6382:D *6106:A 7.89767e-05
5 *6382:D *6382:CLK 0
*RES
1 *6106:X *6382:D 10.0087 
*END

*D_NET *88 0.000675439
*CONN
*I *6383:D I *D sky130_fd_sc_hd__dfxtp_1
*I *6108:X O *D sky130_fd_sc_hd__clkbuf_1
*CAP
1 *6383:D 0.000249203
2 *6108:X 0.000249203
3 *6383:D *6383:CLK 0.000177033
4 *6383:D *292:12 0
5 *6383:D *319:12 0
*RES
1 *6108:X *6383:D 11.5538 
*END

*D_NET *89 0.00025669
*CONN
*I *6384:D I *D sky130_fd_sc_hd__dfxtp_1
*I *6110:X O *D sky130_fd_sc_hd__clkbuf_1
*CAP
1 *6384:D 8.38941e-05
2 *6110:X 8.38941e-05
3 *6384:D *6384:CLK 5.20335e-05
4 *6384:D *237:124 0
5 *6384:D *482:29 3.68682e-05
*RES
1 *6110:X *6384:D 8.80875 
*END

*D_NET *90 0.000245336
*CONN
*I *6385:D I *D sky130_fd_sc_hd__dfxtp_1
*I *6112:X O *D sky130_fd_sc_hd__clkbuf_1
*CAP
1 *6385:D 0.0001024
2 *6112:X 0.0001024
3 *6385:D *216:14 0
4 *6385:D *428:52 4.05358e-05
*RES
1 *6112:X *6385:D 8.91375 
*END

*D_NET *91 0.000456281
*CONN
*I *6386:D I *D sky130_fd_sc_hd__dfxtp_1
*I *6117:X O *D sky130_fd_sc_hd__clkbuf_1
*CAP
1 *6386:D 0.000115346
2 *6117:X 0.000115346
3 *6386:D *5925:A0 7.62325e-05
4 *6386:D *5955:A0 0.000109787
5 *6386:D *6386:CLK 3.95698e-05
*RES
1 *6117:X *6386:D 6.125 
*END

*D_NET *92 0.000392282
*CONN
*I *6387:D I *D sky130_fd_sc_hd__dfxtp_1
*I *6119:X O *D sky130_fd_sc_hd__clkbuf_1
*CAP
1 *6387:D 0.000160023
2 *6119:X 0.000160023
3 *6387:D *481:35 7.22354e-05
*RES
1 *6119:X *6387:D 5.61875 
*END

*D_NET *93 0.000605001
*CONN
*I *6388:D I *D sky130_fd_sc_hd__dfxtp_1
*I *6121:X O *D sky130_fd_sc_hd__clkbuf_1
*CAP
1 *6388:D 0.000110239
2 *6121:X 0.000110239
3 *6388:D *5950:A1 9.30787e-05
4 *6388:D *5954:A0 0.000158993
5 *6388:D *6027:A0 5.01066e-05
6 *6388:D *498:10 0
7 *6388:D *625:116 8.23457e-05
*RES
1 *6121:X *6388:D 9.84375 
*END

*D_NET *94 0.000478526
*CONN
*I *6389:D I *D sky130_fd_sc_hd__dfxtp_1
*I *6123:X O *D sky130_fd_sc_hd__clkbuf_1
*CAP
1 *6389:D 0.000159559
2 *6123:X 0.000159559
3 *6389:D *6389:CLK 0.000113663
4 *6389:D *6560:A 4.57447e-05
5 *6389:D *563:10 0
*RES
1 *6123:X *6389:D 5.96375 
*END

*D_NET *95 0.000277372
*CONN
*I *6390:D I *D sky130_fd_sc_hd__dfxtp_1
*I *6125:X O *D sky130_fd_sc_hd__clkbuf_1
*CAP
1 *6390:D 9.10114e-05
2 *6125:X 9.10114e-05
3 *6390:D *5968:A0 0
4 *6390:D *6125:A 6.7475e-05
5 *6390:D *6392:CLK 2.3051e-05
6 *6390:D *494:86 4.82319e-06
*RES
1 *6125:X *6390:D 8.97375 
*END

*D_NET *96 0.00103907
*CONN
*I *6391:D I *D sky130_fd_sc_hd__dfxtp_1
*I *6127:X O *D sky130_fd_sc_hd__clkbuf_1
*CAP
1 *6391:D 0.000285505
2 *6127:X 0.000285505
3 *6391:D *5976:A0 0.000270415
4 *6391:D *6126:A0 0
5 *6391:D *6391:CLK 7.82691e-05
6 *6391:D *501:14 7.23533e-05
7 *6391:D *768:44 4.70256e-05
*RES
1 *6127:X *6391:D 11.82 
*END

*D_NET *97 0.00147992
*CONN
*I *6392:D I *D sky130_fd_sc_hd__dfxtp_1
*I *6129:X O *D sky130_fd_sc_hd__clkbuf_1
*CAP
1 *6392:D 0.00024482
2 *6129:X 0.00024482
3 *6392:D *5985:S1 7.90526e-05
4 *6392:D *5986:A1 0.000122313
5 *6392:D *5986:S 4.47209e-05
6 *6392:D *6128:A0 7.4027e-05
7 *6392:D *6512:A 1.27504e-05
8 *6392:D *372:30 0.000133253
9 *6392:D *372:64 0.000353334
10 *6392:D *479:116 5.23132e-05
11 *6392:D *502:12 0.00011852
*RES
1 *6129:X *6392:D 14.8088 
*END

*D_NET *98 0.00194848
*CONN
*I *6393:D I *D sky130_fd_sc_hd__dfxtp_1
*I *6131:X O *D sky130_fd_sc_hd__clkbuf_1
*CAP
1 *6393:D 0.000544465
2 *6131:X 0.000544465
3 *6393:D *6131:A 3.09179e-05
4 *6393:D *6393:CLK 0.000669397
5 *6393:D *636:107 0.000159238
*RES
1 *6131:X *6393:D 12.0837 
*END

*D_NET *99 0.000873715
*CONN
*I *6394:D I *D sky130_fd_sc_hd__dfxtp_1
*I *6135:X O *D sky130_fd_sc_hd__clkbuf_1
*CAP
1 *6394:D 0.000405198
2 *6135:X 0.000405198
3 *6394:D *5972:A1 2.87867e-05
4 *6394:D *6128:A0 7.00889e-06
5 *6394:D *6188:A 0
6 *6394:D *6394:CLK 2.75229e-05
*RES
1 *6135:X *6394:D 12.3188 
*END

*D_NET *100 0.000515721
*CONN
*I *6395:D I *D sky130_fd_sc_hd__dfxtp_1
*I *6137:X O *D sky130_fd_sc_hd__clkbuf_1
*CAP
1 *6395:D 0.000187325
2 *6137:X 0.000187325
3 *6395:D *5986:A0 0
4 *6395:D *6137:A 6.7475e-05
5 *6395:D *494:84 4.17611e-05
6 *6395:D *494:86 3.1835e-05
*RES
1 *6137:X *6395:D 10.59 
*END

*D_NET *101 0.000600081
*CONN
*I *6396:D I *D sky130_fd_sc_hd__dfxtp_1
*I *6139:X O *D sky130_fd_sc_hd__clkbuf_1
*CAP
1 *6396:D 0.00011475
2 *6139:X 0.00011475
3 *6396:D *362:45 0.000103876
4 *6396:D *362:95 6.38291e-05
5 *6396:D *768:44 0.000202876
*RES
1 *6139:X *6396:D 10.5037 
*END

*D_NET *102 0.000327084
*CONN
*I *6397:D I *D sky130_fd_sc_hd__dfxtp_1
*I *6141:X O *D sky130_fd_sc_hd__clkbuf_1
*CAP
1 *6397:D 0.000118373
2 *6141:X 0.000118373
3 *6397:D *401:87 0
4 *6397:D *483:65 9.03376e-05
5 *6397:D *483:69 0
*RES
1 *6141:X *6397:D 9.15375 
*END

*D_NET *103 0.000645307
*CONN
*I *6398:D I *D sky130_fd_sc_hd__dfxtp_1
*I *6143:X O *D sky130_fd_sc_hd__clkbuf_1
*CAP
1 *6398:D 0.000226787
2 *6143:X 0.000226787
3 *6398:D *5904:A 0
4 *6398:D *5995:A0 0
5 *6398:D *6398:CLK 4.82919e-05
6 *6398:D *6648:A 1.40723e-06
7 *6398:D *216:44 6.37653e-05
8 *6398:D *658:24 7.82691e-05
*RES
1 *6143:X *6398:D 11.595 
*END

*D_NET *104 0.000213774
*CONN
*I *6399:D I *D sky130_fd_sc_hd__dfxtp_1
*I *6145:X O *D sky130_fd_sc_hd__clkbuf_1
*CAP
1 *6399:D 5.9028e-05
2 *6145:X 5.9028e-05
3 *6399:D *279:22 2.92496e-05
4 *6399:D *309:16 0
5 *6399:D *372:16 1.43717e-05
6 *6399:D *470:100 5.20968e-05
*RES
1 *6145:X *6399:D 8.46375 
*END

*D_NET *105 0.000319372
*CONN
*I *6400:D I *D sky130_fd_sc_hd__dfxtp_1
*I *6147:X O *D sky130_fd_sc_hd__clkbuf_1
*CAP
1 *6400:D 0.000104859
2 *6147:X 0.000104859
3 *6400:D *5981:S 4.05358e-05
4 *6400:D *6147:A 4.05358e-05
5 *6400:D *232:21 2.85827e-05
*RES
1 *6147:X *6400:D 9.25875 
*END

*D_NET *106 0.00131706
*CONN
*I *6401:D I *D sky130_fd_sc_hd__dfxtp_1
*I *6149:X O *D sky130_fd_sc_hd__clkbuf_1
*CAP
1 *6401:D 0.000334681
2 *6149:X 0.000334681
3 *6401:D *5948:S0 0.000118527
4 *6401:D *6202:A 7.52333e-05
5 *6401:D *216:29 0
6 *6401:D *237:66 9.20132e-05
7 *6401:D *239:168 9.03376e-05
8 *6401:D *480:8 0.000111603
9 *6401:D *480:14 7.97165e-05
10 *6401:D *790:14 1.73877e-05
11 *6401:D *791:35 6.28843e-05
*RES
1 *6149:X *6401:D 15.2738 
*END

*D_NET *107 0.000655336
*CONN
*I *6402:D I *D sky130_fd_sc_hd__dfxtp_1
*I *6153:X O *D sky130_fd_sc_hd__clkbuf_1
*CAP
1 *6402:D 0.00025653
2 *6153:X 0.00025653
3 *6402:D *6152:A1 5.77007e-05
4 *6402:D *6153:A 8.45758e-05
5 *6402:D *339:81 0
*RES
1 *6153:X *6402:D 10.7212 
*END

*D_NET *108 0.000299411
*CONN
*I *6403:D I *D sky130_fd_sc_hd__dfxtp_1
*I *6155:X O *D sky130_fd_sc_hd__clkbuf_1
*CAP
1 *6403:D 7.34416e-05
2 *6155:X 7.34416e-05
3 *6403:D *6164:S 9.26175e-06
4 *6403:D *6403:CLK 0.000143266
*RES
1 *6155:X *6403:D 8.97375 
*END

*D_NET *109 0.00105957
*CONN
*I *6404:D I *D sky130_fd_sc_hd__dfxtp_1
*I *6157:X O *D sky130_fd_sc_hd__clkbuf_1
*CAP
1 *6404:D 0.000230866
2 *6157:X 0.000230866
3 *6404:D *6157:A 8.71001e-05
4 *6404:D *6404:CLK 0.00035077
5 *6404:D *230:111 0.000159964
*RES
1 *6157:X *6404:D 12.3337 
*END

*D_NET *110 0.000576394
*CONN
*I *6405:D I *D sky130_fd_sc_hd__dfxtp_1
*I *6159:X O *D sky130_fd_sc_hd__clkbuf_1
*CAP
1 *6405:D 0.00018824
2 *6159:X 0.00018824
3 *6405:D *5961:A0 2.97453e-05
4 *6405:D *6405:CLK 0.000170169
*RES
1 *6159:X *6405:D 6.06875 
*END

*D_NET *111 0.000412467
*CONN
*I *6406:D I *D sky130_fd_sc_hd__dfxtp_1
*I *6161:X O *D sky130_fd_sc_hd__clkbuf_1
*CAP
1 *6406:D 0.00014214
2 *6161:X 0.00014214
3 *6406:D *6161:A 1.61831e-05
4 *6406:D *6406:CLK 0.000112003
*RES
1 *6161:X *6406:D 6.125 
*END

*D_NET *112 0.000219936
*CONN
*I *6407:D I *D sky130_fd_sc_hd__dfxtp_1
*I *6163:X O *D sky130_fd_sc_hd__clkbuf_1
*CAP
1 *6407:D 6.14148e-05
2 *6163:X 6.14148e-05
3 *6407:D *6087:S 0
4 *6407:D *492:64 9.71067e-05
*RES
1 *6163:X *6407:D 8.46375 
*END

*D_NET *113 0.000270423
*CONN
*I *6408:D I *D sky130_fd_sc_hd__dfxtp_1
*I *6165:X O *D sky130_fd_sc_hd__clkbuf_1
*CAP
1 *6408:D 0.000130445
2 *6165:X 0.000130445
3 *6408:D *6408:CLK 9.53428e-06
4 *6408:D *482:8 0
5 *6408:D *482:76 0
*RES
1 *6165:X *6408:D 9.10875 
*END

*D_NET *114 0.001398
*CONN
*I *6409:D I *D sky130_fd_sc_hd__dfxtp_1
*I *6167:X O *D sky130_fd_sc_hd__clkbuf_1
*CAP
1 *6409:D 0.000261087
2 *6167:X 0.000261087
3 *6409:D *5904:A 0.000380335
4 *6409:D *5997:A1 0.000159747
5 *6409:D *5997:A3 0
6 *6409:D *6167:A 4.82031e-05
7 *6409:D *6495:D 0.000113314
8 *6409:D *489:40 0.000126078
9 *6409:D *615:10 4.81438e-05
10 *6409:D *636:84 0
*RES
1 *6167:X *6409:D 14.6587 
*END

*D_NET *115 0.000797516
*CONN
*I *6410:D I *D sky130_fd_sc_hd__dfxtp_1
*I *6170:X O *D sky130_fd_sc_hd__clkbuf_1
*CAP
1 *6410:D 0.000309349
2 *6170:X 0.000309349
3 *6410:D *6426:CLK 1.56428e-05
4 *6410:D *6426:D 6.16582e-05
5 *6410:D *225:108 1.99848e-05
6 *6410:D *494:20 7.70938e-05
7 *6410:D *494:22 4.43871e-06
8 *6410:D *735:46 0
*RES
1 *6170:X *6410:D 11.535 
*END

*D_NET *116 0.00115333
*CONN
*I *6411:D I *D sky130_fd_sc_hd__dfxtp_1
*I *6172:X O *D sky130_fd_sc_hd__clkbuf_1
*CAP
1 *6411:D 0.000323684
2 *6172:X 0.000323684
3 *6411:D *5939:A1 0
4 *6411:D *6169:S 5.33874e-05
5 *6411:D *6172:A 3.86607e-05
6 *6411:D *6208:A 6.50844e-06
7 *6411:D *601:10 3.89528e-05
8 *6411:D *735:27 0.00020525
9 *6411:D *735:35 0
10 *6411:D *735:81 0.000163204
*RES
1 *6172:X *6411:D 14.1187 
*END

*D_NET *117 0.000512124
*CONN
*I *6412:D I *D sky130_fd_sc_hd__dfxtp_1
*I *6174:X O *D sky130_fd_sc_hd__clkbuf_1
*CAP
1 *6412:D 0.000136059
2 *6174:X 0.000136059
3 *6412:D *6174:A 0.000139933
4 *6412:D *6412:CLK 1.43717e-05
5 *6412:D *709:185 8.57024e-05
6 *6412:D *709:211 0
*RES
1 *6174:X *6412:D 9.76875 
*END

*D_NET *118 0.000753029
*CONN
*I *6413:D I *D sky130_fd_sc_hd__dfxtp_1
*I *6176:X O *D sky130_fd_sc_hd__clkbuf_1
*CAP
1 *6413:D 0.000248629
2 *6176:X 0.000248629
3 *6413:D *5912:S 0.000150298
4 *6413:D *6176:A 2.77283e-05
5 *6413:D *6413:CLK 2.75229e-05
6 *6413:D *270:12 5.02217e-05
*RES
1 *6176:X *6413:D 11.1788 
*END

*D_NET *119 0.000555757
*CONN
*I *6414:D I *D sky130_fd_sc_hd__dfxtp_1
*I *6178:X O *D sky130_fd_sc_hd__clkbuf_1
*CAP
1 *6414:D 0.000135074
2 *6178:X 0.000135074
3 *6414:D *6213:A0 9.29751e-06
4 *6414:D *6213:A1 7.53592e-05
5 *6414:D *225:39 4.82863e-05
6 *6414:D *488:39 7.89767e-05
7 *6414:D *488:52 7.36892e-05
*RES
1 *6178:X *6414:D 10.2188 
*END

*D_NET *120 0.000764481
*CONN
*I *6415:D I *D sky130_fd_sc_hd__dfxtp_1
*I *6180:X O *D sky130_fd_sc_hd__clkbuf_1
*CAP
1 *6415:D 0.000261981
2 *6180:X 0.000261981
3 *6415:D *5904:A 7.81954e-05
4 *6415:D *6166:S 0
5 *6415:D *215:10 0.000162325
6 *6415:D *309:16 0
*RES
1 *6180:X *6415:D 12.0787 
*END

*D_NET *121 0.00078848
*CONN
*I *6416:D I *D sky130_fd_sc_hd__dfxtp_1
*I *6182:X O *D sky130_fd_sc_hd__clkbuf_1
*CAP
1 *6416:D 0.000351894
2 *6182:X 0.000351894
3 *6416:D *5968:A0 0
4 *6416:D *5984:A2 0
5 *6416:D *6243:A1 0
6 *6416:D *391:59 8.46913e-05
*RES
1 *6182:X *6416:D 12.7388 
*END

*D_NET *122 0.000953437
*CONN
*I *6417:D I *D sky130_fd_sc_hd__dfxtp_1
*I *6184:X O *D sky130_fd_sc_hd__clkbuf_1
*CAP
1 *6417:D 0.000392253
2 *6184:X 0.000392253
3 *6417:D *6528:A 2.92496e-05
4 *6417:D *391:47 9.30717e-05
5 *6417:D *480:16 0
6 *6417:D *607:6 4.66108e-05
*RES
1 *6184:X *6417:D 12.9487 
*END

*D_NET *123 0.000595728
*CONN
*I *6418:D I *D sky130_fd_sc_hd__dfxtp_1
*I *6188:X O *D sky130_fd_sc_hd__clkbuf_1
*CAP
1 *6418:D 0.000270175
2 *6188:X 0.000270175
3 *6418:D *5972:A1 0
4 *6418:D *5986:S 5.4155e-06
5 *6418:D *6418:CLK 4.99619e-05
*RES
1 *6188:X *6418:D 11.2537 
*END

*D_NET *124 0.000712638
*CONN
*I *6419:D I *D sky130_fd_sc_hd__dfxtp_1
*I *6190:X O *D sky130_fd_sc_hd__clkbuf_1
*CAP
1 *6419:D 0.000210494
2 *6190:X 0.000210494
3 *6419:D *6190:A 8.8266e-05
4 *6419:D *239:180 0.000203383
*RES
1 *6190:X *6419:D 7.505 
*END

*D_NET *125 0.00102063
*CONN
*I *6420:D I *D sky130_fd_sc_hd__dfxtp_1
*I *6192:X O *D sky130_fd_sc_hd__clkbuf_1
*CAP
1 *6420:D 0.000245404
2 *6192:X 0.000245404
3 *6420:D *5972:A1 2.16267e-05
4 *6420:D *270:12 0.000286613
5 *6420:D *372:24 8.44437e-05
6 *6420:D *372:30 7.62026e-05
7 *6420:D *411:92 4.65607e-05
8 *6420:D *495:58 1.43717e-05
*RES
1 *6192:X *6420:D 12.4087 
*END

*D_NET *126 0.000222684
*CONN
*I *6421:D I *D sky130_fd_sc_hd__dfxtp_1
*I *6194:X O *D sky130_fd_sc_hd__clkbuf_1
*CAP
1 *6421:D 0.000111342
2 *6194:X 0.000111342
3 *6421:D *270:12 0
4 *6421:D *757:75 0
*RES
1 *6194:X *6421:D 8.80875 
*END

*D_NET *127 0.00117402
*CONN
*I *6422:D I *D sky130_fd_sc_hd__dfxtp_1
*I *6196:X O *D sky130_fd_sc_hd__clkbuf_1
*CAP
1 *6422:D 0.000371155
2 *6196:X 0.000371155
3 *6422:D *6143:A 4.9253e-06
4 *6422:D *6196:A 6.80968e-05
5 *6422:D *6422:CLK 0.000160641
6 *6422:D *768:85 0.000198051
*RES
1 *6196:X *6422:D 9.38 
*END

*D_NET *128 0.000577039
*CONN
*I *6423:D I *D sky130_fd_sc_hd__dfxtp_1
*I *6198:X O *D sky130_fd_sc_hd__clkbuf_1
*CAP
1 *6423:D 0.000111725
2 *6198:X 0.000111725
3 *6423:D *6351:CLK 0.000164377
4 *6423:D *339:31 9.37731e-05
5 *6423:D *470:100 9.54399e-05
*RES
1 *6198:X *6423:D 9.84375 
*END

*D_NET *129 0.0002509
*CONN
*I *6424:D I *D sky130_fd_sc_hd__dfxtp_1
*I *6200:X O *D sky130_fd_sc_hd__clkbuf_1
*CAP
1 *6424:D 9.94331e-05
2 *6200:X 9.94331e-05
3 *6424:D *5981:S 0
4 *6424:D *233:45 0
5 *6424:D *746:99 5.20335e-05
*RES
1 *6200:X *6424:D 8.80875 
*END

*D_NET *130 0.000430112
*CONN
*I *6425:D I *D sky130_fd_sc_hd__dfxtp_1
*I *6202:X O *D sky130_fd_sc_hd__clkbuf_1
*CAP
1 *6425:D 0.000125743
2 *6202:X 0.000125743
3 *6425:D *6202:A 0.000151967
4 *6425:D *791:14 2.66586e-05
*RES
1 *6202:X *6425:D 5.61875 
*END

*D_NET *131 0.000950993
*CONN
*I *6426:D I *D sky130_fd_sc_hd__dfxtp_1
*I *6206:X O *D sky130_fd_sc_hd__clkbuf_1
*CAP
1 *6426:D 0.000296068
2 *6206:X 0.000296068
3 *6426:D *5986:A0 0.000163992
4 *6426:D *6170:A 0
5 *6426:D *6247:A0 8.65961e-05
6 *6426:D *6426:CLK 4.66108e-05
7 *6410:D *6426:D 6.16582e-05
*RES
1 *6206:X *6426:D 12.5288 
*END

*D_NET *132 0.000742188
*CONN
*I *6427:D I *D sky130_fd_sc_hd__dfxtp_1
*I *6208:X O *D sky130_fd_sc_hd__clkbuf_1
*CAP
1 *6427:D 0.000212448
2 *6208:X 0.000212448
3 *6427:D *6208:A 7.06865e-05
4 *6427:D *6427:CLK 8.44437e-05
5 *6427:D *216:79 1.43717e-05
6 *6427:D *391:73 8.49205e-05
7 *6427:D *494:22 6.28687e-05
8 *6427:D *735:35 0
*RES
1 *6208:X *6427:D 11.2987 
*END

*D_NET *133 0.000297141
*CONN
*I *6428:D I *D sky130_fd_sc_hd__dfxtp_1
*I *6210:X O *D sky130_fd_sc_hd__clkbuf_1
*CAP
1 *6428:D 5.39263e-05
2 *6210:X 5.39263e-05
3 *6428:D *6173:A1 5.20335e-05
4 *6428:D *6428:CLK 5.20335e-05
5 *6428:D *487:25 3.39064e-05
6 *6428:D *602:10 5.13155e-05
*RES
1 *6210:X *6428:D 8.80875 
*END

*D_NET *134 0.000335094
*CONN
*I *6429:D I *D sky130_fd_sc_hd__dfxtp_1
*I *6212:X O *D sky130_fd_sc_hd__clkbuf_1
*CAP
1 *6429:D 9.24536e-05
2 *6212:X 9.24536e-05
3 *6429:D *5975:S1 1.43717e-05
4 *6429:D *6211:S 9.14049e-05
5 *6429:D *6212:A 3.00381e-05
6 *6429:D *495:90 1.43717e-05
*RES
1 *6212:X *6429:D 8.91375 
*END

*D_NET *135 0.000458162
*CONN
*I *6430:D I *D sky130_fd_sc_hd__dfxtp_1
*I *6214:X O *D sky130_fd_sc_hd__clkbuf_1
*CAP
1 *6430:D 0.000126694
2 *6214:X 0.000126694
3 *6430:D *6214:A 8.8266e-05
4 *6430:D *6430:CLK 0.000116508
*RES
1 *6214:X *6430:D 6.125 
*END

*D_NET *136 0.000834698
*CONN
*I *6431:D I *D sky130_fd_sc_hd__dfxtp_1
*I *6216:X O *D sky130_fd_sc_hd__clkbuf_1
*CAP
1 *6431:D 0.000210257
2 *6216:X 0.000210257
3 *6431:D *6215:A0 0.000146924
4 *6431:D *6216:A 5.05437e-05
5 *6431:D *6431:CLK 4.82919e-05
6 *6431:D *225:160 4.75576e-05
7 *6431:D *411:92 2.94625e-05
8 *6431:D *489:95 9.14049e-05
*RES
1 *6216:X *6431:D 11.1788 
*END

*D_NET *137 0.000559352
*CONN
*I *6432:D I *D sky130_fd_sc_hd__dfxtp_1
*I *6218:X O *D sky130_fd_sc_hd__clkbuf_1
*CAP
1 *6432:D 0.000260396
2 *6218:X 0.000260396
3 *6432:D *6218:A 3.85599e-05
4 *6432:D *488:82 0
*RES
1 *6218:X *6432:D 11.5988 
*END

*D_NET *138 0.000433665
*CONN
*I *6433:D I *D sky130_fd_sc_hd__dfxtp_1
*I *6220:X O *D sky130_fd_sc_hd__clkbuf_1
*CAP
1 *6433:D 0.000155845
2 *6220:X 0.000155845
3 *6433:D *6433:CLK 4.82863e-05
4 *6433:D *480:37 7.36892e-05
*RES
1 *6220:X *6433:D 5.61875 
*END

*D_NET *139 0.000366673
*CONN
*I *6434:D I *D sky130_fd_sc_hd__dfrtp_1
*I *6223:X O *D sky130_fd_sc_hd__clkbuf_1
*CAP
1 *6434:D 0.000164902
2 *6223:X 0.000164902
3 *6434:D *6479:CLK 0
4 *6434:D *710:8 1.01661e-05
5 *6434:D *710:10 2.67022e-05
*RES
1 *6223:X *6434:D 9.465 
*END

*D_NET *140 0.000508229
*CONN
*I *6435:D I *D sky130_fd_sc_hd__dfrtp_1
*I *6226:X O *D sky130_fd_sc_hd__clkbuf_1
*CAP
1 *6435:D 0.00016415
2 *6226:X 0.00016415
3 *6435:D *5897:C 9.08126e-05
4 *6435:D *6260:A 2.11084e-05
5 *6435:D *6435:CLK 6.80075e-05
6 *6435:D *710:10 0
7 *6435:D *710:12 0
*RES
1 *6226:X *6435:D 9.915 
*END

*D_NET *141 0.000232567
*CONN
*I *6436:D I *D sky130_fd_sc_hd__dfrtp_1
*I *6228:X O *D sky130_fd_sc_hd__o21ba_1
*CAP
1 *6436:D 5.61903e-05
2 *6228:X 5.61903e-05
3 *6436:D *391:22 0.000120186
4 *6436:D *479:61 0
*RES
1 *6228:X *6436:D 8.58 
*END

*D_NET *142 0.000618212
*CONN
*I *6437:D I *D sky130_fd_sc_hd__dfrtp_1
*I *6230:X O *D sky130_fd_sc_hd__clkbuf_1
*CAP
1 *6437:D 0.000223935
2 *6230:X 0.000223935
3 *6437:D *6260:A 6.55406e-05
4 *6437:D *6437:CLK 0.0001048
*RES
1 *6230:X *6437:D 11.445 
*END

*D_NET *143 0.000684108
*CONN
*I *6438:D I *D sky130_fd_sc_hd__dfrtp_1
*I *6232:X O *D sky130_fd_sc_hd__clkbuf_1
*CAP
1 *6438:D 0.000200121
2 *6232:X 0.000200121
3 *6438:D *5897:B 9.71067e-05
4 *6438:D *6265:A0 9.54399e-05
5 *6438:D *6451:D 9.13204e-05
*RES
1 *6232:X *6438:D 10.5 
*END

*D_NET *144 0.00076034
*CONN
*I *6439:D I *D sky130_fd_sc_hd__dfxtp_1
*I *6236:X O *D sky130_fd_sc_hd__clkbuf_1
*CAP
1 *6439:D 0.000166681
2 *6236:X 0.000166681
3 *6439:D *5906:A0 0.000183779
4 *6439:D *5906:A1 0.000154372
5 *6439:D *6578:A 0
6 *6439:D *724:24 4.82919e-05
7 *6439:D *724:107 4.05358e-05
*RES
1 *6236:X *6439:D 11.8387 
*END

*D_NET *145 0.000758557
*CONN
*I *6440:D I *D sky130_fd_sc_hd__dfxtp_1
*I *6238:X O *D sky130_fd_sc_hd__clkbuf_1
*CAP
1 *6440:D 0.000175397
2 *6238:X 0.000175397
3 *6440:D *6238:A 4.05358e-05
4 *6440:D *481:56 0.000319167
5 *6440:D *735:92 4.8061e-05
*RES
1 *6238:X *6440:D 11.595 
*END

*D_NET *146 0.000986539
*CONN
*I *6441:D I *D sky130_fd_sc_hd__dfxtp_1
*I *6240:X O *D sky130_fd_sc_hd__clkbuf_1
*CAP
1 *6441:D 0.000269718
2 *6240:X 0.000269718
3 *6441:D *411:20 1.5693e-05
4 *6441:D *428:75 0
5 *6441:D *578:10 8.66724e-05
6 *6441:D *746:109 0.000218666
7 *6441:D *746:117 0.000126073
*RES
1 *6240:X *6441:D 12.6038 
*END

*D_NET *147 0.000919353
*CONN
*I *6442:D I *D sky130_fd_sc_hd__dfxtp_1
*I *6242:X O *D sky130_fd_sc_hd__clkbuf_1
*CAP
1 *6442:D 0.000266115
2 *6242:X 0.000266115
3 *6442:D *6241:A0 7.4027e-05
4 *6442:D *6442:CLK 0.000239069
5 *6442:D *579:14 7.4027e-05
*RES
1 *6242:X *6442:D 12.0938 
*END

*D_NET *148 0.00116311
*CONN
*I *6443:D I *D sky130_fd_sc_hd__dfxtp_1
*I *6244:X O *D sky130_fd_sc_hd__clkbuf_1
*CAP
1 *6443:D 0.000244018
2 *6244:X 0.000244018
3 *6443:D *5915:A 0.000154435
4 *6443:D *5966:A2 0.000116158
5 *6443:D *5966:S1 6.28687e-05
6 *6443:D *6541:A 5.98004e-06
7 *6443:D *391:59 0.000122331
8 *6443:D *488:78 0.000152314
9 *6443:D *588:10 6.09866e-05
*RES
1 *6244:X *6443:D 13.17 
*END

*D_NET *149 0.000560213
*CONN
*I *6444:D I *D sky130_fd_sc_hd__dfxtp_1
*I *6246:X O *D sky130_fd_sc_hd__clkbuf_1
*CAP
1 *6444:D 0.000108416
2 *6246:X 0.000108416
3 *6444:D *6241:S 1.08758e-05
4 *6444:D *6246:A 0.000140905
5 *6444:D *225:164 4.82319e-06
6 *6444:D *411:92 4.92062e-05
7 *6444:D *768:44 0.000137571
*RES
1 *6246:X *6444:D 9.76875 
*END

*D_NET *150 0.000577042
*CONN
*I *6445:D I *D sky130_fd_sc_hd__dfxtp_1
*I *6248:X O *D sky130_fd_sc_hd__clkbuf_1
*CAP
1 *6445:D 0.00013804
2 *6248:X 0.00013804
3 *6445:D *5984:A0 0.000150298
4 *6445:D *6248:A 3.70009e-05
5 *6445:D *6445:CLK 0.000113663
*RES
1 *6248:X *6445:D 6.30875 
*END

*D_NET *151 0.000823696
*CONN
*I *6446:D I *D sky130_fd_sc_hd__dfxtp_1
*I *6250:X O *D sky130_fd_sc_hd__clkbuf_1
*CAP
1 *6446:D 0.000280506
2 *6250:X 0.000280506
3 *6446:D *5993:A0 4.82319e-06
4 *6446:D *6250:A 6.54766e-05
5 *6446:D *226:95 3.29441e-05
6 *6446:D *428:75 0.000145069
7 *6446:D *488:24 1.43717e-05
*RES
1 *6250:X *6446:D 11.4937 
*END

*D_NET *152 0.000756779
*CONN
*I *6467:D I *D sky130_fd_sc_hd__dfrtp_4
*I *6251:Y O *D sky130_fd_sc_hd__xnor2_1
*CAP
1 *6467:D 0.000202178
2 *6251:Y 0.000202178
3 *6467:D *5934:A 5.30673e-05
4 *6467:D *237:12 2.06853e-05
5 *6467:D *391:30 0.000159747
6 *6467:D *712:39 9.50342e-06
7 *6467:D *712:53 0.00010942
*RES
1 *6251:Y *6467:D 11.76 
*END

*D_NET *153 0.000555743
*CONN
*I *6468:D I *D sky130_fd_sc_hd__dfrtp_1
*I *6256:X O *D sky130_fd_sc_hd__clkbuf_1
*CAP
1 *6468:D 0.000173716
2 *6256:X 0.000173716
3 *6468:D *5936:A 0
4 *6468:D *6470:CLK 5.53249e-06
5 *6468:D *6670:A 1.4399e-05
6 *6468:D *226:14 4.99619e-05
7 *6468:D *230:263 5.05437e-05
8 *6468:D *712:53 8.78735e-05
*RES
1 *6256:X *6468:D 10.335 
*END

*D_NET *154 0.000292488
*CONN
*I *6469:D I *D sky130_fd_sc_hd__dfrtp_2
*I *6257:Y O *D sky130_fd_sc_hd__xnor2_1
*CAP
1 *6469:D 9.46804e-05
2 *6257:Y 9.46804e-05
3 *6469:D *6469:RESET_B 0.000103128
*RES
1 *6257:Y *6469:D 5.15 
*END

*D_NET *155 0.00100382
*CONN
*I *6470:D I *D sky130_fd_sc_hd__dfrtp_1
*I *6259:Y O *D sky130_fd_sc_hd__xnor2_1
*CAP
1 *6470:D 0.00050191
2 *6259:Y 0.00050191
3 *6470:D *6258:A 0
4 *6470:D *6259:B 0
5 *6470:D *713:8 0
*RES
1 *6259:Y *6470:D 14.655 
*END

*D_NET *156 0.000480023
*CONN
*I *6471:D I *D sky130_fd_sc_hd__dfrtp_1
*I *6262:X O *D sky130_fd_sc_hd__clkbuf_1
*CAP
1 *6471:D 0.00013096
2 *6262:X 0.00013096
3 *6471:D *6447:D 0.000124895
4 *6471:D *6471:RESET_B 4.70343e-05
5 *6471:D *712:14 4.61744e-05
*RES
1 *6262:X *6471:D 9.72 
*END

*D_NET *157 0.000448874
*CONN
*I *6472:D I *D sky130_fd_sc_hd__dfrtp_1
*I *6266:X O *D sky130_fd_sc_hd__clkbuf_1
*CAP
1 *6472:D 0.000224437
2 *6266:X 0.000224437
3 *6472:D *709:90 0
*RES
1 *6266:X *6472:D 10.065 
*END

*D_NET *158 0.000411912
*CONN
*I *6473:D I *D sky130_fd_sc_hd__dfrtp_1
*I *6270:X O *D sky130_fd_sc_hd__clkbuf_1
*CAP
1 *6473:D 0.000158867
2 *6270:X 0.000158867
3 *6473:D *6472:RESET_B 0
4 *6473:D *711:109 9.41783e-05
*RES
1 *6270:X *6473:D 10.065 
*END

*D_NET *159 0.000445724
*CONN
*I *6474:D I *D sky130_fd_sc_hd__dfrtp_1
*I *6274:X O *D sky130_fd_sc_hd__clkbuf_1
*CAP
1 *6474:D 0.0002074
2 *6274:X 0.0002074
3 *6474:D *711:54 3.09233e-05
*RES
1 *6274:X *6474:D 9.81 
*END

*D_NET *160 0.00118413
*CONN
*I *6475:D I *D sky130_fd_sc_hd__dfrtp_2
*I *6277:Y O *D sky130_fd_sc_hd__xnor2_1
*CAP
1 *6475:D 0.000473063
2 *6277:Y 0.000473063
3 *6475:D *5991:S 7.85595e-05
4 *6475:D *6475:CLK 1.37328e-05
5 *6475:D *6475:RESET_B 1.58862e-05
6 *6475:D *709:38 7.94826e-05
7 *6475:D *794:16 5.03424e-05
*RES
1 *6277:Y *6475:D 13.365 
*END

*D_NET *161 0.000603386
*CONN
*I *6476:D I *D sky130_fd_sc_hd__dfrtp_1
*I *6278:X O *D sky130_fd_sc_hd__xor2_1
*CAP
1 *6476:D 0.00018455
2 *6278:X 0.00018455
3 *6476:D *6476:RESET_B 3.67779e-05
4 *6476:D *6478:RESET_B 3.9442e-05
5 *6476:D *182:14 0.000158066
6 *6476:D *460:14 0
*RES
1 *6278:X *6476:D 10.575 
*END

*D_NET *162 0.000726827
*CONN
*I *6477:D I *D sky130_fd_sc_hd__dfrtp_4
*I *6280:X O *D sky130_fd_sc_hd__clkbuf_1
*CAP
1 *6477:D 0.000207176
2 *6280:X 0.000207176
3 *6477:D *5885:A 0.000238919
4 *6477:D *5889:C1 3.67779e-05
5 *6477:D *710:185 0
6 *6477:D *810:12 3.67779e-05
*RES
1 *6280:X *6477:D 10.5 
*END

*D_NET *163 0.000577513
*CONN
*I *6478:D I *D sky130_fd_sc_hd__dfrtp_4
*I *6283:X O *D sky130_fd_sc_hd__clkbuf_1
*CAP
1 *6478:D 0.000198858
2 *6283:X 0.000198858
3 *6478:D *6283:A 5.05437e-05
4 *6478:D *6478:RESET_B 0
5 *6478:D *420:85 9.54399e-05
6 *6478:D *812:36 3.3814e-05
*RES
1 *6283:X *6478:D 10.155 
*END

*D_NET *164 0.000457577
*CONN
*I *6479:D I *D sky130_fd_sc_hd__dfrtp_4
*I *6286:X O *D sky130_fd_sc_hd__clkbuf_1
*CAP
1 *6479:D 0.000200101
2 *6286:X 0.000200101
3 *6479:D *490:6 5.73739e-05
*RES
1 *6286:X *6479:D 10.065 
*END

*D_NET *165 0.000911656
*CONN
*I *6480:D I *D sky130_fd_sc_hd__dfxtp_1
*I *6289:X O *D sky130_fd_sc_hd__clkbuf_1
*CAP
1 *6480:D 0.00016985
2 *6289:X 0.00016985
3 *6480:D *6004:A0 1.53032e-05
4 *6480:D *6004:A1 0.000162784
5 *6480:D *6289:A 4.05358e-05
6 *6480:D *6480:CLK 0.000353334
*RES
1 *6289:X *6480:D 11.8237 
*END

*D_NET *166 0.000855769
*CONN
*I *6481:D I *D sky130_fd_sc_hd__dfxtp_1
*I *6291:X O *D sky130_fd_sc_hd__clkbuf_1
*CAP
1 *6481:D 0.000257762
2 *6291:X 0.000257762
3 *6481:D *5989:A0 5.92849e-05
4 *6481:D *6290:A0 8.08439e-05
5 *6481:D *6481:CLK 0.000200117
*RES
1 *6291:X *6481:D 12.0938 
*END

*D_NET *167 0.00018304
*CONN
*I *6482:D I *D sky130_fd_sc_hd__dfxtp_1
*I *6293:X O *D sky130_fd_sc_hd__clkbuf_1
*CAP
1 *6482:D 6.48576e-05
2 *6293:X 6.48576e-05
3 *6482:D *319:84 1.43717e-05
4 *6482:D *484:118 3.89528e-05
5 *6482:D *746:12 0
*RES
1 *6293:X *6482:D 8.46375 
*END

*D_NET *168 0.000182253
*CONN
*I *6483:D I *D sky130_fd_sc_hd__dfxtp_1
*I *6295:X O *D sky130_fd_sc_hd__clkbuf_1
*CAP
1 *6483:D 8.39408e-05
2 *6295:X 8.39408e-05
3 *6483:D *460:76 0
4 *6483:D *486:72 0
5 *6483:D *486:83 1.43717e-05
*RES
1 *6295:X *6483:D 8.46375 
*END

*D_NET *169 0.000739861
*CONN
*I *6484:D I *D sky130_fd_sc_hd__dfxtp_1
*I *6297:X O *D sky130_fd_sc_hd__clkbuf_1
*CAP
1 *6484:D 0.000287493
2 *6297:X 0.000287493
3 *6484:D *6484:CLK 0
4 *6484:D *319:59 0.000164874
*RES
1 *6297:X *6484:D 11.4937 
*END

*D_NET *170 0.000326879
*CONN
*I *6485:D I *D sky130_fd_sc_hd__dfxtp_1
*I *6299:X O *D sky130_fd_sc_hd__clkbuf_1
*CAP
1 *6485:D 0.000161028
2 *6299:X 0.000161028
3 *6485:D *6485:CLK 4.82319e-06
*RES
1 *6299:X *6485:D 9.42375 
*END

*D_NET *171 0.000671584
*CONN
*I *6486:D I *D sky130_fd_sc_hd__dfxtp_1
*I *6301:X O *D sky130_fd_sc_hd__clkbuf_1
*CAP
1 *6486:D 0.000167577
2 *6301:X 0.000167577
3 *6486:D *298:77 0
4 *6486:D *485:20 0.000240991
5 *6486:D *724:124 9.54399e-05
*RES
1 *6301:X *6486:D 10.5337 
*END

*D_NET *172 0.000170082
*CONN
*I *6487:D I *D sky130_fd_sc_hd__dfxtp_1
*I *6303:X O *D sky130_fd_sc_hd__clkbuf_1
*CAP
1 *6487:D 8.50409e-05
2 *6303:X 8.50409e-05
3 *6487:D *6303:A 0
4 *6487:D *6487:CLK 0
*RES
1 *6303:X *6487:D 8.46375 
*END

*D_NET *173 0.000937419
*CONN
*I *6488:D I *D sky130_fd_sc_hd__dfxtp_1
*I *6307:X O *D sky130_fd_sc_hd__clkbuf_1
*CAP
1 *6488:D 0.000159581
2 *6307:X 0.000159581
3 *6488:D *6306:A0 0.000165025
4 *6488:D *6307:A 0.000180249
5 *6488:D *616:10 0.000272984
*RES
1 *6307:X *6488:D 8.18375 
*END

*D_NET *174 0.000688819
*CONN
*I *6489:D I *D sky130_fd_sc_hd__dfxtp_1
*I *6309:X O *D sky130_fd_sc_hd__clkbuf_1
*CAP
1 *6489:D 0.00021451
2 *6309:X 0.00021451
3 *6489:D *5943:A1 8.58122e-05
4 *6489:D *5943:A2 0.000122337
5 *6489:D *6489:CLK 5.16512e-05
*RES
1 *6309:X *6489:D 7.04375 
*END

*D_NET *175 0.000308923
*CONN
*I *6490:D I *D sky130_fd_sc_hd__dfxtp_1
*I *6311:X O *D sky130_fd_sc_hd__clkbuf_1
*CAP
1 *6490:D 7.1402e-05
2 *6311:X 7.1402e-05
3 *6490:D *6490:CLK 1.43521e-05
4 *6490:D *232:118 0.000139238
5 *6490:D *470:128 7.70553e-06
6 *6490:D *757:56 4.82319e-06
*RES
1 *6311:X *6490:D 8.97375 
*END

*D_NET *176 0.000608036
*CONN
*I *6491:D I *D sky130_fd_sc_hd__dfxtp_1
*I *6313:X O *D sky130_fd_sc_hd__clkbuf_1
*CAP
1 *6491:D 0.000177591
2 *6313:X 0.000177591
3 *6491:D *5962:A1 2.97004e-06
4 *6491:D *6083:A1 0.000149745
5 *6491:D *6405:CLK 1.52184e-05
6 *6491:D *6531:A 0
7 *6491:D *486:106 0
8 *6491:D *486:131 8.49205e-05
*RES
1 *6313:X *6491:D 10.59 
*END

*D_NET *177 0.000832796
*CONN
*I *6492:D I *D sky130_fd_sc_hd__dfxtp_1
*I *6315:X O *D sky130_fd_sc_hd__clkbuf_1
*CAP
1 *6492:D 0.000193785
2 *6315:X 0.000193785
3 *6492:D *5970:A1 4.82863e-05
4 *6492:D *6105:A0 0.000162325
5 *6492:D *6315:A 4.05358e-05
6 *6492:D *6492:CLK 1.27027e-05
7 *6492:D *508:14 0.000181376
*RES
1 *6315:X *6492:D 12.0787 
*END

*D_NET *178 0.000202257
*CONN
*I *6493:D I *D sky130_fd_sc_hd__dfxtp_1
*I *6317:X O *D sky130_fd_sc_hd__clkbuf_1
*CAP
1 *6493:D 4.94704e-05
2 *6317:X 4.94704e-05
3 *6493:D *5979:A1 1.43717e-05
4 *6493:D *5996:S0 3.51254e-06
5 *6493:D *6493:CLK 3.59997e-05
6 *6493:D *232:289 4.94326e-05
*RES
1 *6317:X *6493:D 8.46375 
*END

*D_NET *179 0.000765167
*CONN
*I *6494:D I *D sky130_fd_sc_hd__dfxtp_1
*I *6319:X O *D sky130_fd_sc_hd__clkbuf_1
*CAP
1 *6494:D 0.000160689
2 *6319:X 0.000160689
3 *6494:D *5988:A0 1.26548e-05
4 *6494:D *5989:A1 9.53894e-05
5 *6494:D *482:93 0.000335745
*RES
1 *6319:X *6494:D 11.2388 
*END

*D_NET *180 0.000745179
*CONN
*I *6495:D I *D sky130_fd_sc_hd__dfxtp_1
*I *6321:X O *D sky130_fd_sc_hd__clkbuf_1
*CAP
1 *6495:D 0.00025796
2 *6321:X 0.00025796
3 *6495:D *5904:A 3.60648e-05
4 *6495:D *5997:A3 0
5 *6495:D *6111:A0 4.82919e-05
6 *6495:D *6199:S 1.61831e-05
7 *6495:D *6320:A1 1.54049e-05
8 *6495:D *6495:CLK 0
9 *6409:D *6495:D 0.000113314
*RES
1 *6321:X *6495:D 11.8088 
*END

*D_NET *181 0.00132073
*CONN
*I *5875:A0 I *D sky130_fd_sc_hd__mux2_1
*I *5871:A I *D sky130_fd_sc_hd__xnor2_1
*I *5868:Y O *D sky130_fd_sc_hd__inv_2
*CAP
1 *5875:A0 0.000239045
2 *5871:A 0.000162002
3 *5868:Y 0.000133155
4 *181:6 0.000534201
5 *5871:A *5871:B 3.25831e-05
6 *5871:A *6229:S 7.75412e-05
7 *5871:A *188:8 6.55406e-05
8 *5871:A *420:51 7.6664e-05
9 *5871:A *708:12 0
10 *5875:A0 *5884:A 0
11 *5875:A0 *188:8 0
*RES
1 *5868:Y *181:6 3.43 
2 *181:6 *5871:A 9.785 
3 *181:6 *5875:A0 9.155 
*END

*D_NET *182 0.0109502
*CONN
*I *6039:A I *D sky130_fd_sc_hd__and4_1
*I *6057:A_N I *D sky130_fd_sc_hd__and4b_1
*I *6075:D I *D sky130_fd_sc_hd__and4b_1
*I *5872:A I *D sky130_fd_sc_hd__and3_1
*I *6002:A_N I *D sky130_fd_sc_hd__and4b_1
*I *5870:A I *D sky130_fd_sc_hd__and4_1
*I *5878:A1 I *D sky130_fd_sc_hd__a21oi_2
*I *6185:C I *D sky130_fd_sc_hd__and4b_1
*I *6113:A I *D sky130_fd_sc_hd__or2_1
*I *5901:A I *D sky130_fd_sc_hd__nand2_1
*I *6093:A I *D sky130_fd_sc_hd__or2_1
*I *6278:A I *D sky130_fd_sc_hd__xor2_1
*I *5879:A I *D sky130_fd_sc_hd__xor2_1
*I *5869:X O *D sky130_fd_sc_hd__clkbuf_4
*CAP
1 *6039:A 2.4637e-05
2 *6057:A_N 0
3 *6075:D 2.16688e-05
4 *5872:A 1.88809e-05
5 *6002:A_N 0
6 *5870:A 0
7 *5878:A1 6.14661e-05
8 *6185:C 6.48009e-05
9 *6113:A 0
10 *5901:A 0.000170886
11 *6093:A 0
12 *6278:A 0
13 *5879:A 0.000265751
14 *5869:X 0.000166477
15 *182:142 3.65792e-05
16 *182:114 0.000117908
17 *182:104 0.000126144
18 *182:102 0.000242375
19 *182:91 0.000303815
20 *182:56 0.000321429
21 *182:46 0.000197629
22 *182:44 0.000267904
23 *182:42 0.00020379
24 *182:40 0.000191754
25 *182:14 0.000761595
26 *182:12 0.000776156
27 *5872:A *6002:B 5.4155e-06
28 *5872:A *6185:D 0
29 *5878:A1 *5870:B 0.000127457
30 *5878:A1 *5878:B1 4.82919e-05
31 *5878:A1 *6282:A1 5.16479e-05
32 *5878:A1 *186:41 4.82863e-05
33 *5879:A *6222:A1 0.000349587
34 *5879:A *420:85 8.3877e-05
35 *5879:A *420:87 8.65961e-05
36 *5879:A *491:20 0.000163204
37 *5879:A *710:185 7.35813e-05
38 *5879:A *810:75 0
39 *5901:A *5901:B 0.000123034
40 *5901:A *6021:A 3.40435e-05
41 *5901:A *6021:B 0
42 *5901:A *6132:A 8.53113e-06
43 *5901:A *6186:C1 0
44 *5901:A *203:184 0.000162325
45 *5901:A *203:197 9.50342e-06
46 *5901:A *212:14 2.42271e-05
47 *5901:A *215:174 0.000191521
48 *5901:A *215:176 1.16578e-05
49 *5901:A *307:6 3.74161e-05
50 *6039:A *6039:D 4.66108e-05
51 *6075:D *6057:D 6.6564e-05
52 *6075:D *811:16 1.24905e-06
53 *6075:D *812:107 0.000103362
54 *6185:C *6185:D 5.87007e-05
55 *182:12 *298:18 0
56 *182:12 *319:12 6.55406e-05
57 *182:14 *710:185 0.000138791
58 *182:40 *211:23 0.000198279
59 *182:40 *211:25 8.53113e-06
60 *182:40 *298:18 0.000329681
61 *182:40 *319:12 0
62 *182:42 *211:25 0.000229904
63 *182:42 *298:18 0.000221373
64 *182:44 *6003:B1 4.19797e-05
65 *182:44 *211:25 4.21314e-05
66 *182:44 *211:31 0.000355882
67 *182:44 *298:18 0.000158297
68 *182:44 *401:12 2.23922e-05
69 *182:44 *401:79 9.77943e-05
70 *182:44 *810:81 0
71 *182:46 *190:192 0
72 *182:46 *211:31 7.23533e-05
73 *182:46 *401:12 0.000104287
74 *182:56 *5901:B 4.35348e-05
75 *182:56 *6020:A 0.000236878
76 *182:56 *6132:A 0
77 *182:56 *6132:B 0
78 *182:56 *190:192 0
79 *182:56 *211:31 5.94277e-05
80 *182:56 *307:6 0.000123225
81 *182:56 *360:25 0.000170841
82 *182:56 *401:12 5.33085e-05
83 *182:91 *6186:B1 2.31229e-05
84 *182:102 *5872:C 0.000106433
85 *182:102 *6003:B1 0.000105462
86 *182:102 *6185:B 4.82863e-05
87 *182:102 *6185:D 0.000193233
88 *182:102 *6186:B1 1.38655e-06
89 *182:102 *811:76 0.000232099
90 *182:104 *5870:C 0.000152328
91 *182:104 *6002:B 2.16917e-05
92 *182:104 *811:76 0.000101745
93 *182:104 *811:78 0.000209543
94 *182:104 *812:68 4.82863e-05
95 *182:114 *5870:B 4.59521e-05
96 *182:114 *5870:C 0.000132649
97 *182:114 *5878:B1 0.000164085
98 *182:114 *811:78 0.000112349
99 *182:142 *6057:D 2.49909e-05
100 *182:142 *812:107 3.57349e-05
101 *6476:D *182:14 0.000158066
*RES
1 *5869:X *182:12 8.465 
2 *182:12 *182:14 8.385 
3 *182:14 *5879:A 12.455 
4 *182:14 *6278:A 1.6 
5 *182:12 *182:40 5.93 
6 *182:40 *182:42 2.655 
7 *182:42 *182:44 4.695 
8 *182:44 *182:46 1.38 
9 *182:46 *182:56 6.89 
10 *182:56 *6093:A 1.6 
11 *182:56 *5901:A 10.49 
12 *182:46 *6113:A 3.6 
13 *182:44 *182:91 3.04625 
14 *182:91 *6185:C 2.48875 
15 *182:91 *182:102 4.95375 
16 *182:102 *182:104 2.865 
17 *182:104 *182:114 2.955 
18 *182:114 *5878:A1 3.43 
19 *182:114 *5870:A 1.6 
20 *182:104 *6002:A_N 1.6 
21 *182:102 *5872:A 1.96 
22 *182:42 *182:142 2.45 
23 *182:142 *6075:D 2.64625 
24 *182:142 *6057:A_N 1.6 
25 *182:40 *6039:A 4.05 
*END

*D_NET *183 0.00464308
*CONN
*I *5871:B I *D sky130_fd_sc_hd__xnor2_1
*I *6287:C1 I *D sky130_fd_sc_hd__o211a_4
*I *5870:X O *D sky130_fd_sc_hd__and4_1
*CAP
1 *5871:B 0.00119025
2 *6287:C1 0.000475327
3 *5870:X 0.000170021
4 *183:8 0.00183559
5 *5871:B *5882:A2 3.4687e-05
6 *5871:B *5882:B1_N 3.72916e-05
7 *5871:B *5887:B 6.26945e-05
8 *5871:B *420:51 0
9 *6287:C1 *5982:A0 0.000275857
10 *6287:C1 *6168:A1 1.44792e-05
11 *6287:C1 *6168:A2 9.72742e-06
12 *6287:C1 *6168:B1 0
13 *6287:C1 *6287:A1 0
14 *6287:C1 *200:10 0
15 *6287:C1 *420:27 0.000162325
16 *183:8 *199:10 0
17 *183:8 *200:10 0
18 *183:8 *420:27 0.000342247
19 *183:8 *479:61 0
20 *5871:A *5871:B 3.25831e-05
*RES
1 *5870:X *183:8 7.53 
2 *183:8 *6287:C1 12.435 
3 *183:8 *5871:B 22.225 
*END

*D_NET *184 0.0009934
*CONN
*I *6668:A I *D sky130_fd_sc_hd__buf_1
*I *6231:A1 I *D sky130_fd_sc_hd__mux2_1
*I *5871:Y O *D sky130_fd_sc_hd__xnor2_1
*CAP
1 *6668:A 7.73884e-05
2 *6231:A1 0.000295178
3 *5871:Y 0
4 *184:4 0.000372566
5 *6231:A1 *5982:A0 9.44765e-05
6 *6231:A1 *6229:S 5.53249e-06
7 *6231:A1 *420:51 5.99925e-05
8 *6231:A1 *710:16 0
9 *6668:A *5982:A0 8.8266e-05
*RES
1 *5871:Y *184:4 1.6 
2 *184:4 *6231:A1 9.845 
3 *184:4 *6668:A 3.265 
*END

*D_NET *185 0.00179375
*CONN
*I *5873:A I *D sky130_fd_sc_hd__clkbuf_2
*I *5872:X O *D sky130_fd_sc_hd__and3_1
*CAP
1 *5873:A 0.000674494
2 *5872:X 0.000674494
3 *5873:A *186:10 1.1392e-05
4 *5873:A *460:14 0.000268271
5 *5873:A *811:20 0.000107651
6 *5873:A *811:26 2.65288e-05
7 *5873:A *811:32 3.09164e-05
*RES
1 *5872:X *5873:A 18.06 
*END

*D_NET *186 0.00308209
*CONN
*I *6281:A I *D sky130_fd_sc_hd__nor2_1
*I *5874:B I *D sky130_fd_sc_hd__xnor2_1
*I *5880:A1 I *D sky130_fd_sc_hd__o21ai_1
*I *5881:A I *D sky130_fd_sc_hd__or3_1
*I *6168:D1 I *D sky130_fd_sc_hd__o2111a_4
*I *5873:X O *D sky130_fd_sc_hd__clkbuf_2
*CAP
1 *6281:A 1.66402e-05
2 *5874:B 0.000180665
3 *5880:A1 2.21321e-05
4 *5881:A 1.17533e-05
5 *6168:D1 0.00013628
6 *5873:X 0.000128909
7 *186:41 0.000231084
8 *186:23 3.38854e-05
9 *186:12 0.000223865
10 *186:10 0.000250272
11 *5874:B *5875:S 2.96426e-05
12 *5874:B *6281:B 3.1835e-05
13 *5874:B *6282:A1 8.49205e-05
14 *5874:B *6284:A 0.000164874
15 *5874:B *6667:A 0.00012657
16 *5880:A1 *5880:A2 4.08514e-05
17 *5880:A1 *5881:C 8.40269e-05
18 *5881:A *5880:A2 2.75145e-05
19 *5881:A *5881:C 4.82863e-05
20 *6168:D1 *5882:A2 0.000109441
21 *6168:D1 *5889:A1 7.23602e-05
22 *6168:D1 *5889:A2 0
23 *6168:D1 *479:61 0.000358264
24 *6281:A *5870:B 9.53428e-06
25 *6281:A *6281:B 5.4155e-06
26 *186:10 *479:61 0.000112123
27 *186:10 *810:18 3.81581e-05
28 *186:12 *5882:A2 2.15594e-05
29 *186:12 *191:19 2.16389e-05
30 *186:12 *193:18 0
31 *186:12 *479:61 0.000174279
32 *186:12 *810:18 1.22676e-05
33 *186:41 *5870:B 4.60584e-05
34 *186:41 *6281:B 8.34281e-06
35 *186:41 *6282:A1 0.00015896
36 *5873:A *186:10 1.1392e-05
37 *5878:A1 *186:41 4.82863e-05
*RES
1 *5873:X *186:10 5.775 
2 *186:10 *186:12 2.145 
3 *186:12 *6168:D1 7.785 
4 *186:12 *186:23 2 
5 *186:23 *5881:A 2.05 
6 *186:23 *5880:A1 2.395 
7 *186:10 *186:41 3.485 
8 *186:41 *5874:B 5.845 
9 *186:41 *6281:A 1.96 
*END

*D_NET *187 0.0017794
*CONN
*I *6667:A I *D sky130_fd_sc_hd__clkbuf_1
*I *5875:S I *D sky130_fd_sc_hd__mux2_1
*I *5874:Y O *D sky130_fd_sc_hd__xnor2_1
*CAP
1 *6667:A 7.86253e-05
2 *5875:S 0.000565964
3 *5874:Y 0
4 *187:4 0.000644589
5 *5875:S *5875:A1 5.4155e-06
6 *5875:S *5884:A 3.09233e-05
7 *5875:S *5884:B 5.47473e-05
8 *5875:S *708:12 0
9 *5875:S *712:33 0.00024292
10 *6667:A *6281:B 0
11 *5874:B *5875:S 2.96426e-05
12 *5874:B *6667:A 0.00012657
*RES
1 *5874:Y *187:4 1.6 
2 *187:4 *5875:S 16.16 
3 *187:4 *6667:A 3.355 
*END

*D_NET *188 0.00140145
*CONN
*I *5876:B I *D sky130_fd_sc_hd__xnor2_2
*I *6229:A1 I *D sky130_fd_sc_hd__mux2_1
*I *5875:X O *D sky130_fd_sc_hd__mux2_1
*CAP
1 *5876:B 9.33165e-05
2 *6229:A1 0.000290247
3 *5875:X 0.00018625
4 *188:8 0.000569813
5 *5876:B *5884:A 0.00012657
6 *6229:A1 *5876:A 0
7 *6229:A1 *6229:A0 6.97118e-05
8 *6229:A1 *6229:S 0
9 *188:8 *6229:S 0
10 *5871:A *188:8 6.55406e-05
11 *5875:A0 *188:8 0
*RES
1 *5875:X *188:8 7.02 
2 *188:8 *6229:A1 7.41 
3 *188:8 *5876:B 5.43 
*END

*D_NET *189 0.00207944
*CONN
*I *6168:A1 I *D sky130_fd_sc_hd__o2111a_4
*I *5877:A I *D sky130_fd_sc_hd__buf_8
*I *5876:Y O *D sky130_fd_sc_hd__xnor2_2
*CAP
1 *6168:A1 0.000165012
2 *5877:A 4.64748e-05
3 *5876:Y 0.000487668
4 *189:10 0.000699154
5 *5877:A *6227:B1 3.1835e-05
6 *6168:A1 *5982:A0 3.46699e-05
7 *6168:A1 *6168:A2 5.23433e-06
8 *6168:A1 *6168:B1 0.000187509
9 *6168:A1 *420:27 0.000137752
10 *189:10 *6168:B1 0.000174472
11 *189:10 *6227:A1 8.71001e-05
12 *189:10 *420:27 8.08153e-06
13 *189:10 *479:61 0
14 *6287:C1 *6168:A1 1.44792e-05
*RES
1 *5876:Y *189:10 12.06 
2 *189:10 *5877:A 4.395 
3 *189:10 *6168:A1 8.49 
*END

*D_NET *190 0.014718
*CONN
*I *6227:A1 I *D sky130_fd_sc_hd__o211a_1
*I *6040:A1 I *D sky130_fd_sc_hd__o211a_4
*I *6003:A1 I *D sky130_fd_sc_hd__o211a_4
*I *6186:A1 I *D sky130_fd_sc_hd__o211a_4
*I *6287:A1 I *D sky130_fd_sc_hd__o211a_4
*I *5905:A1 I *D sky130_fd_sc_hd__o211a_4
*I *6058:A1 I *D sky130_fd_sc_hd__o211a_4
*I *6076:A1 I *D sky130_fd_sc_hd__o211a_4
*I *6022:A1 I *D sky130_fd_sc_hd__o211a_4
*I *6115:A1 I *D sky130_fd_sc_hd__o211a_4
*I *6133:A1 I *D sky130_fd_sc_hd__o211a_4
*I *6096:A1 I *D sky130_fd_sc_hd__o211a_4
*I *6151:A1 I *D sky130_fd_sc_hd__o211a_4
*I *6305:A1 I *D sky130_fd_sc_hd__o211a_4
*I *6234:A1 I *D sky130_fd_sc_hd__o211a_4
*I *6204:A1 I *D sky130_fd_sc_hd__o211a_4
*I *6221:A1 I *D sky130_fd_sc_hd__o21a_4
*I *5891:A I *D sky130_fd_sc_hd__nor2_1
*I *5877:X O *D sky130_fd_sc_hd__buf_8
*CAP
1 *6227:A1 0.000106352
2 *6040:A1 0.00010854
3 *6003:A1 4.01094e-05
4 *6186:A1 3.1808e-05
5 *6287:A1 0.00018548
6 *5905:A1 9.12158e-05
7 *6058:A1 0.000169891
8 *6076:A1 6.00042e-05
9 *6022:A1 0.000110532
10 *6115:A1 3.37454e-05
11 *6133:A1 0
12 *6096:A1 5.73692e-05
13 *6151:A1 0
14 *6305:A1 0.000108527
15 *6234:A1 0
16 *6204:A1 1.55346e-05
17 *6221:A1 1.99507e-05
18 *5891:A 9.45312e-05
19 *5877:X 0
20 *190:207 0.000264999
21 *190:192 0.000528906
22 *190:179 0.000661698
23 *190:166 0.000243899
24 *190:144 0.000348917
25 *190:131 0.000306078
26 *190:120 0.000282814
27 *190:109 0.000350843
28 *190:94 0.000279022
29 *190:76 0.00021634
30 *190:70 0.00029014
31 *190:59 0.000335817
32 *190:42 0.000371115
33 *190:34 0.000413921
34 *190:21 0.000461969
35 *190:8 0.000513542
36 *190:4 0.000281314
37 *5891:A *215:53 0
38 *5891:A *420:10 3.18137e-05
39 *5891:A *680:14 4.13171e-05
40 *5905:A1 *5903:A 5.36372e-05
41 *5905:A1 *6095:B 2.75145e-05
42 *5905:A1 *6151:B1 0
43 *5905:A1 *216:116 0.000105508
44 *6003:A1 *6003:A2 0.000119631
45 *6003:A1 *6076:B1 0.000111285
46 *6022:A1 *309:10 0.000135468
47 *6040:A1 *6003:A2 4.21757e-05
48 *6040:A1 *6040:A2 7.31656e-05
49 *6040:A1 *6040:C1 4.82863e-05
50 *6040:A1 *6076:B1 0.000353831
51 *6058:A1 *6058:A2 0.000204431
52 *6058:A1 *6058:C1 0
53 *6058:A1 *203:144 2.07184e-05
54 *6058:A1 *492:68 0
55 *6076:A1 *6076:A2 8.65905e-05
56 *6076:A1 *339:31 1.19928e-05
57 *6096:A1 *6096:A2 4.82919e-05
58 *6096:A1 *6305:B1 4.66108e-05
59 *6096:A1 *215:133 2.05056e-05
60 *6186:A1 *215:176 3.90375e-05
61 *6204:A1 *215:24 9.53428e-06
62 *6221:A1 *215:36 2.98281e-05
63 *6227:A1 *6168:B1 2.75229e-05
64 *6227:A1 *203:14 3.57924e-05
65 *6227:A1 *420:27 0.000115464
66 *6227:A1 *479:61 0
67 *6287:A1 *6233:B 7.60965e-05
68 *6287:A1 *6234:B1 4.82863e-05
69 *6287:A1 *213:29 5.28932e-05
70 *6305:A1 *6151:A2 6.10014e-05
71 *6305:A1 *6415:CLK 2.66765e-05
72 *6305:A1 *309:16 0
73 *190:8 *6227:B1 0.000118081
74 *190:8 *203:36 6.1357e-05
75 *190:8 *420:10 0.000123225
76 *190:21 *6221:B1 8.65905e-05
77 *190:21 *203:36 0.000131166
78 *190:21 *215:36 8.91713e-05
79 *190:21 *420:10 8.65961e-05
80 *190:34 *6234:C1 1.91597e-05
81 *190:34 *215:36 0.000190759
82 *190:42 *6204:B1 0.000143726
83 *190:42 *215:24 0.00012173
84 *190:42 *215:28 9.54399e-05
85 *190:59 *6111:S 0.00013521
86 *190:59 *6234:B1 4.18603e-06
87 *190:59 *203:54 0
88 *190:59 *203:75 8.49205e-05
89 *190:59 *203:175 0
90 *190:59 *215:24 6.90876e-05
91 *190:59 *428:16 0.00015639
92 *190:70 *6166:S 1.07797e-05
93 *190:70 *6305:B1 0.000222813
94 *190:70 *203:75 0.000317814
95 *190:70 *203:101 0.000159964
96 *190:70 *428:16 0.000295274
97 *190:70 *470:12 2.05056e-05
98 *190:76 *6151:A2 8.95508e-06
99 *190:76 *6151:B1 4.66108e-05
100 *190:76 *216:116 0.000308719
101 *190:76 *382:16 7.08613e-05
102 *190:94 *6305:B1 0.000114492
103 *190:94 *203:101 0.000129047
104 *190:94 *215:133 1.07797e-05
105 *190:109 *6133:A2 8.65961e-05
106 *190:109 *6415:CLK 0
107 *190:109 *203:101 2.14129e-05
108 *190:109 *203:112 0.000155928
109 *190:109 *203:129 3.09233e-05
110 *190:109 *215:133 1.52184e-05
111 *190:109 *372:16 4.60584e-05
112 *190:120 *6415:CLK 4.82919e-05
113 *190:120 *203:129 0
114 *190:120 *215:155 0
115 *190:120 *372:16 1.46744e-05
116 *190:120 *492:68 0
117 *190:131 *203:133 0.000120186
118 *190:131 *215:155 0
119 *190:131 *492:68 0
120 *190:144 *203:133 4.21314e-05
121 *190:144 *203:144 0.000183738
122 *190:144 *492:68 0
123 *190:166 *5905:C1 0.000162325
124 *190:166 *6204:B1 0.00020613
125 *190:166 *215:28 4.38051e-05
126 *190:179 *6204:B1 0.000138551
127 *190:179 *203:184 8.08153e-06
128 *190:179 *216:116 0
129 *190:179 *401:12 0
130 *190:192 *6233:B 0
131 *190:192 *203:184 0.000183213
132 *190:192 *211:31 0
133 *190:192 *279:22 3.86607e-05
134 *190:192 *401:12 0
135 *190:207 *6003:A2 0
136 *190:207 *6003:C1 9.14049e-05
137 *190:207 *6040:A2 4.00541e-06
138 *190:207 *6040:B1 5.53249e-06
139 *190:207 *6040:C1 0
140 *190:207 *203:184 2.97004e-06
141 *190:207 *203:197 4.83328e-05
142 *190:207 *211:31 0
143 *190:207 *319:12 9.50342e-06
144 *6287:C1 *6287:A1 0
145 *182:46 *190:192 0
146 *182:56 *190:192 0
147 *189:10 *6227:A1 8.71001e-05
*RES
1 *5877:X *190:4 1.6 
2 *190:4 *190:8 3.225 
3 *190:8 *5891:A 7.49 
4 *190:8 *190:21 4.68375 
5 *190:21 *6221:A1 2.15875 
6 *190:21 *190:34 5.46125 
7 *190:34 *190:42 5.315 
8 *190:42 *6204:A1 1.96 
9 *190:42 *190:59 8.26 
10 *190:59 *6234:A1 1.6 
11 *190:59 *190:70 7.52 
12 *190:70 *190:76 5.225 
13 *190:76 *6305:A1 7.745 
14 *190:76 *6151:A1 1.6 
15 *190:70 *190:94 1.635 
16 *190:94 *6096:A1 4.74 
17 *190:94 *190:109 5.885 
18 *190:109 *6133:A1 1.6 
19 *190:109 *190:120 4.685 
20 *190:120 *6115:A1 4.05 
21 *190:120 *190:131 1.635 
22 *190:131 *6022:A1 5.355 
23 *190:131 *190:144 2.655 
24 *190:144 *6076:A1 4.74 
25 *190:144 *6058:A1 6.885 
26 *190:34 *190:166 2.4 
27 *190:166 *5905:A1 5.79 
28 *190:166 *190:179 1.89 
29 *190:179 *6287:A1 6.825 
30 *190:179 *190:192 6.48 
31 *190:192 *6186:A1 4.2225 
32 *190:192 *190:207 4.505 
33 *190:207 *6003:A1 3.43 
34 *190:207 *6040:A1 5.53 
35 *190:4 *6227:A1 8.195 
*END

*D_NET *191 0.00201522
*CONN
*I *5880:A2 I *D sky130_fd_sc_hd__o21ai_1
*I *5881:B I *D sky130_fd_sc_hd__or3_1
*I *5887:B I *D sky130_fd_sc_hd__xnor2_1
*I *6281:B I *D sky130_fd_sc_hd__nor2_1
*I *5878:Y O *D sky130_fd_sc_hd__a21oi_2
*CAP
1 *5880:A2 0.000104977
2 *5881:B 5.43556e-05
3 *5887:B 0.000160737
4 *6281:B 0.000127066
5 *5878:Y 5.04407e-05
6 *191:34 0.000159333
7 *191:19 0.00021752
8 *191:6 0.000234289
9 *5880:A2 *5880:B1 2.29156e-05
10 *5880:A2 *5881:C 3.52362e-05
11 *5880:A2 *199:10 4.82919e-05
12 *5887:B *5882:A1 9.71067e-05
13 *5887:B *5882:A2 0.000141358
14 *5887:B *5882:B1_N 0
15 *6281:B *5870:B 2.06033e-05
16 *191:6 *5870:B 8.65961e-05
17 *191:19 *5882:A1 6.68849e-05
18 *191:19 *5882:A2 9.61414e-05
19 *191:19 *193:18 9.30717e-05
20 *5871:B *5887:B 6.26945e-05
21 *5874:B *6281:B 3.1835e-05
22 *5880:A1 *5880:A2 4.08514e-05
23 *5881:A *5880:A2 2.75145e-05
24 *6281:A *6281:B 5.4155e-06
25 *6667:A *6281:B 0
26 *186:12 *191:19 2.16389e-05
27 *186:41 *6281:B 8.34281e-06
*RES
1 *5878:Y *191:6 2.395 
2 *191:6 *6281:B 3.355 
3 *191:6 *191:19 3.89 
4 *191:19 *5887:B 6.825 
5 *191:19 *191:34 2 
6 *191:34 *5881:B 2.41 
7 *191:34 *5880:A2 3.775 
*END

*D_NET *192 0.00306001
*CONN
*I *6279:A1 I *D sky130_fd_sc_hd__mux2_1
*I *5880:B1 I *D sky130_fd_sc_hd__o21ai_1
*I *5881:C I *D sky130_fd_sc_hd__or3_1
*I *5879:X O *D sky130_fd_sc_hd__xor2_1
*CAP
1 *6279:A1 0.000140836
2 *5880:B1 5.84604e-05
3 *5881:C 8.29198e-05
4 *5879:X 0
5 *192:12 0.000591636
6 *192:6 0.000591092
7 *5880:B1 *193:16 4.40241e-05
8 *5880:B1 *199:10 4.60584e-05
9 *5881:C *5883:B 2.26862e-05
10 *5881:C *194:6 0.00010978
11 *5881:C *194:10 2.98128e-05
12 *6279:A1 *6222:S 3.23663e-05
13 *6279:A1 *420:87 8.65905e-05
14 *6279:A1 *491:20 0.000180675
15 *6279:A1 *710:185 5.05437e-05
16 *6279:A1 *810:14 0
17 *192:12 *6282:A0 0
18 *192:12 *6283:A 0.000172418
19 *192:12 *193:16 0.000180682
20 *192:12 *420:31 0
21 *192:12 *479:61 0.000439464
22 *192:12 *491:12 0
23 *192:12 *491:20 9.50342e-06
24 *192:12 *810:14 0
25 *192:12 *810:18 0
26 *5880:A1 *5881:C 8.40269e-05
27 *5880:A2 *5880:B1 2.29156e-05
28 *5880:A2 *5881:C 3.52362e-05
29 *5881:A *5881:C 4.82863e-05
*RES
1 *5879:X *192:6 3.6 
2 *192:6 *192:12 12.155 
3 *192:12 *5881:C 4.015 
4 *192:12 *5880:B1 3.46 
5 *192:6 *6279:A1 7.23 
*END

*D_NET *193 0.00271184
*CONN
*I *6224:A I *D sky130_fd_sc_hd__nand2_1
*I *5883:B I *D sky130_fd_sc_hd__nand3b_1
*I *5882:A1 I *D sky130_fd_sc_hd__a21bo_1
*I *5880:Y O *D sky130_fd_sc_hd__o21ai_1
*CAP
1 *6224:A 3.66174e-05
2 *5883:B 8.46433e-05
3 *5882:A1 6.60229e-05
4 *5880:Y 0.000359154
5 *193:18 0.00024508
6 *193:16 0.000490185
7 *5882:A1 *5882:A2 2.68721e-05
8 *5882:A1 *5889:A2 6.74079e-05
9 *5882:A1 *5889:C1 3.26566e-05
10 *5882:A1 *6224:B 4.43871e-06
11 *5883:B *5883:C 8.57024e-05
12 *5883:B *194:10 4.89503e-05
13 *6224:A *6224:B 7.53115e-05
14 *6224:A *810:18 0.000141599
15 *193:16 *5870:D 0
16 *193:16 *6282:A1 0.000266164
17 *193:16 *420:27 0
18 *193:18 *6224:B 0.000104221
19 *193:18 *810:18 7.23533e-05
20 *5880:B1 *193:16 4.40241e-05
21 *5881:C *5883:B 2.26862e-05
22 *5887:B *5882:A1 9.71067e-05
23 *186:12 *193:18 0
24 *191:19 *5882:A1 6.68849e-05
25 *191:19 *193:18 9.30717e-05
26 *192:12 *193:16 0.000180682
*RES
1 *5880:Y *193:16 13.06 
2 *193:16 *193:18 2.4 
3 *193:18 *5882:A1 6 
4 *193:18 *5883:B 5.445 
5 *193:16 *6224:A 5.235 
*END

*D_NET *194 0.00234555
*CONN
*I *5882:A2 I *D sky130_fd_sc_hd__a21bo_1
*I *6224:B I *D sky130_fd_sc_hd__nand2_1
*I *5883:C I *D sky130_fd_sc_hd__nand3b_1
*I *5881:X O *D sky130_fd_sc_hd__or3_1
*CAP
1 *5882:A2 0.000116951
2 *6224:B 0.00012601
3 *5883:C 8.53474e-05
4 *5881:X 8.72974e-05
5 *194:10 0.000353261
6 *194:6 0.000346152
7 *5882:A2 *5889:A2 0
8 *6224:B *5889:C1 0.000342254
9 *5871:B *5882:A2 3.4687e-05
10 *5881:C *194:6 0.00010978
11 *5881:C *194:10 2.98128e-05
12 *5882:A1 *5882:A2 2.68721e-05
13 *5882:A1 *6224:B 4.43871e-06
14 *5883:B *5883:C 8.57024e-05
15 *5883:B *194:10 4.89503e-05
16 *5887:B *5882:A2 0.000141358
17 *6168:D1 *5882:A2 0.000109441
18 *6224:A *6224:B 7.53115e-05
19 *186:12 *5882:A2 2.15594e-05
20 *191:19 *5882:A2 9.61414e-05
21 *193:18 *6224:B 0.000104221
*RES
1 *5881:X *194:6 2.74 
2 *194:6 *194:10 1.845 
3 *194:10 *5883:C 3.1 
4 *194:10 *6224:B 9.53 
5 *194:6 *5882:A2 8.96 
*END

*D_NET *195 0.000277438
*CONN
*I *5889:A1 I *D sky130_fd_sc_hd__a2111o_1
*I *5882:X O *D sky130_fd_sc_hd__a21bo_1
*CAP
1 *5889:A1 7.75581e-05
2 *5882:X 7.75581e-05
3 *5889:A1 *5889:A2 0
4 *5889:A1 *5982:A0 4.99619e-05
5 *6168:D1 *5889:A1 7.23602e-05
*RES
1 *5882:X *5889:A1 8.52 
*END

*D_NET *196 0.00100765
*CONN
*I *5889:A2 I *D sky130_fd_sc_hd__a2111o_1
*I *5883:Y O *D sky130_fd_sc_hd__nand3b_1
*CAP
1 *5889:A2 0.000150629
2 *5883:Y 0.000150629
3 *5889:A2 *5889:C1 0.000345355
4 *5889:A2 *5982:A0 0.000201508
5 *5889:A2 *202:6 9.21168e-05
6 *5882:A1 *5889:A2 6.74079e-05
7 *5882:A2 *5889:A2 0
8 *5889:A1 *5889:A2 0
9 *6168:D1 *5889:A2 0
*RES
1 *5883:Y *5889:A2 12.45 
*END

*D_NET *197 0.000601667
*CONN
*I *5889:B1 I *D sky130_fd_sc_hd__a2111o_1
*I *5884:Y O *D sky130_fd_sc_hd__xnor2_1
*CAP
1 *5889:B1 0.000281503
2 *5884:Y 0.000281503
3 *5889:B1 *5889:D1 3.86607e-05
4 *5889:B1 *479:61 0
*RES
1 *5884:Y *5889:B1 10.59 
*END

*D_NET *198 0.00314479
*CONN
*I *5889:C1 I *D sky130_fd_sc_hd__a2111o_1
*I *5885:Y O *D sky130_fd_sc_hd__xnor2_1
*CAP
1 *5889:C1 0.00104718
2 *5885:Y 0.00104718
3 *5889:C1 *5874:A 0
4 *5889:C1 *5882:B1_N 5.72004e-05
5 *5889:C1 *5885:A 0
6 *5889:C1 *5982:A0 2.30292e-05
7 *5889:C1 *6285:A1 0
8 *5889:C1 *6477:RESET_B 0.000124895
9 *5889:C1 *202:6 8.8266e-05
10 *5889:C1 *420:47 0
11 *5889:C1 *712:33 0
12 *5889:C1 *810:14 0
13 *5889:C1 *810:18 0
14 *5889:C1 *812:10 0
15 *5882:A1 *5889:C1 3.26566e-05
16 *5889:A2 *5889:C1 0.000345355
17 *6224:B *5889:C1 0.000342254
18 *6477:D *5889:C1 3.67779e-05
*RES
1 *5885:Y *5889:C1 27.195 
*END

*D_NET *199 0.00390318
*CONN
*I *6185:D I *D sky130_fd_sc_hd__and4b_1
*I *6094:A I *D sky130_fd_sc_hd__or2_1
*I *5902:A I *D sky130_fd_sc_hd__nand2_1
*I *5887:A I *D sky130_fd_sc_hd__xnor2_1
*I *6168:C1 I *D sky130_fd_sc_hd__o2111a_4
*I *5886:Y O *D sky130_fd_sc_hd__inv_2
*CAP
1 *6185:D 0.00021542
2 *6094:A 7.14932e-05
3 *5902:A 0
4 *5887:A 0
5 *6168:C1 5.5142e-05
6 *5886:Y 0
7 *199:40 0.000392019
8 *199:28 0.000535946
9 *199:10 0.000782703
10 *199:4 0.000727561
11 *6094:A *6094:B 4.82863e-05
12 *6168:C1 *200:10 6.35622e-05
13 *6168:C1 *479:61 0.000161637
14 *6185:D *6113:B 0
15 *6185:D *460:14 4.284e-05
16 *6185:D *811:32 7.23602e-05
17 *6185:D *811:38 0
18 *199:10 *6020:A 1.34503e-05
19 *199:10 *200:10 3.46842e-05
20 *199:10 *479:61 0.000131408
21 *199:10 *812:46 0.000130209
22 *199:40 *6094:B 5.14739e-05
23 *199:40 *460:14 2.66935e-05
24 *5872:A *6185:D 0
25 *5880:A2 *199:10 4.82919e-05
26 *5880:B1 *199:10 4.60584e-05
27 *6185:C *6185:D 5.87007e-05
28 *182:102 *6185:D 0.000193233
29 *183:8 *199:10 0
*RES
1 *5886:Y *199:4 1.6 
2 *199:4 *199:10 11.675 
3 *199:10 *6168:C1 5.49 
4 *199:10 *5887:A 3.6 
5 *199:4 *199:28 2 
6 *199:28 *199:40 6.815 
7 *199:40 *5902:A 1.6 
8 *199:40 *6094:A 2.74 
9 *199:28 *6185:D 8.13375 
*END

*D_NET *200 0.00286721
*CONN
*I *6227:B1 I *D sky130_fd_sc_hd__o211a_1
*I *5888:B I *D sky130_fd_sc_hd__xnor2_1
*I *5887:Y O *D sky130_fd_sc_hd__xnor2_1
*CAP
1 *6227:B1 0.000288963
2 *5888:B 0.000294412
3 *5887:Y 0.00032004
4 *200:10 0.000903416
5 *5888:B *5889:D1 5.34747e-05
6 *6227:B1 *203:14 0.00013687
7 *6227:B1 *391:8 0.00013687
8 *200:10 *5890:A 5.20968e-05
9 *200:10 *6168:B1 0.000432906
10 *200:10 *479:61 0
11 *5877:A *6227:B1 3.1835e-05
12 *6168:C1 *200:10 6.35622e-05
13 *6287:C1 *200:10 0
14 *183:8 *200:10 0
15 *190:8 *6227:B1 0.000118081
16 *199:10 *200:10 3.46842e-05
*RES
1 *5887:Y *200:10 13.1 
2 *200:10 *5888:B 5.875 
3 *200:10 *6227:B1 10.1 
*END

*D_NET *201 0.000664747
*CONN
*I *5889:D1 I *D sky130_fd_sc_hd__a2111o_1
*I *5888:Y O *D sky130_fd_sc_hd__xnor2_1
*CAP
1 *5889:D1 0.000286306
2 *5888:Y 0.000286306
3 *5889:D1 *479:61 0
4 *5889:D1 *712:33 0
5 *5888:B *5889:D1 5.34747e-05
6 *5889:B1 *5889:D1 3.86607e-05
*RES
1 *5888:Y *5889:D1 11.595 
*END

*D_NET *202 0.00133378
*CONN
*I *6168:A2 I *D sky130_fd_sc_hd__o2111a_4
*I *5890:A I *D sky130_fd_sc_hd__buf_8
*I *5889:X O *D sky130_fd_sc_hd__a2111o_1
*CAP
1 *6168:A2 0.000105752
2 *5890:A 9.11614e-05
3 *5889:X 0.000237682
4 *202:6 0.000434595
5 *5890:A *479:61 5.20968e-05
6 *6168:A2 *5982:A0 2.81942e-05
7 *6168:A2 *6168:B1 4.66742e-05
8 *202:6 *5982:A0 9.01848e-05
9 *5889:A2 *202:6 9.21168e-05
10 *5889:C1 *202:6 8.8266e-05
11 *6168:A1 *6168:A2 5.23433e-06
12 *6287:C1 *6168:A2 9.72742e-06
13 *200:10 *5890:A 5.20968e-05
*RES
1 *5889:X *202:6 5.845 
2 *202:6 *5890:A 7.595 
3 *202:6 *6168:A2 3.445 
*END

*D_NET *203 0.0152147
*CONN
*I *6221:A2 I *D sky130_fd_sc_hd__o21a_4
*I *6287:A2 I *D sky130_fd_sc_hd__o211a_4
*I *6204:A2 I *D sky130_fd_sc_hd__o211a_4
*I *6040:A2 I *D sky130_fd_sc_hd__o211a_4
*I *6003:A2 I *D sky130_fd_sc_hd__o211a_4
*I *6186:A2 I *D sky130_fd_sc_hd__o211a_4
*I *5905:A2 I *D sky130_fd_sc_hd__o211a_4
*I *6115:A2 I *D sky130_fd_sc_hd__o211a_4
*I *6058:A2 I *D sky130_fd_sc_hd__o211a_4
*I *6076:A2 I *D sky130_fd_sc_hd__o211a_4
*I *6022:A2 I *D sky130_fd_sc_hd__o211a_4
*I *6133:A2 I *D sky130_fd_sc_hd__o211a_4
*I *6096:A2 I *D sky130_fd_sc_hd__o211a_4
*I *6151:A2 I *D sky130_fd_sc_hd__o211a_4
*I *6305:A2 I *D sky130_fd_sc_hd__o211a_4
*I *6234:A2 I *D sky130_fd_sc_hd__o211a_4
*I *6227:A2 I *D sky130_fd_sc_hd__o211a_1
*I *5891:B I *D sky130_fd_sc_hd__nor2_1
*I *5890:X O *D sky130_fd_sc_hd__buf_8
*CAP
1 *6221:A2 0
2 *6287:A2 0.000227022
3 *6204:A2 0
4 *6040:A2 0.000105258
5 *6003:A2 0.000167782
6 *6186:A2 0
7 *5905:A2 0
8 *6115:A2 0
9 *6058:A2 0.000192494
10 *6076:A2 4.53709e-05
11 *6022:A2 2.71058e-05
12 *6133:A2 3.34882e-05
13 *6096:A2 2.23714e-05
14 *6151:A2 5.44195e-05
15 *6305:A2 2.78682e-05
16 *6234:A2 0
17 *6227:A2 0
18 *5891:B 0.000135921
19 *5890:X 8.10956e-05
20 *203:197 0.000361896
21 *203:184 0.000364478
22 *203:175 0.000360528
23 *203:144 0.000349489
24 *203:133 0.000229892
25 *203:129 0.000385789
26 *203:112 0.000383757
27 *203:101 0.000194542
28 *203:79 0.000280093
29 *203:75 0.000458546
30 *203:64 0.000361025
31 *203:54 0.000394093
32 *203:50 0.000579695
33 *203:38 0.000714342
34 *203:36 0.000279097
35 *203:14 0.000207867
36 *203:10 0.000432138
37 *5891:B *6168:B1 4.29016e-05
38 *5891:B *6227:C1 1.1767e-05
39 *5891:B *215:53 3.97461e-05
40 *6003:A2 *6003:C1 0.000235568
41 *6003:A2 *6076:B1 1.90762e-05
42 *6003:A2 *298:18 4.00541e-06
43 *6022:A2 *309:10 8.40269e-05
44 *6022:A2 *401:79 3.03775e-05
45 *6040:A2 *6040:C1 4.82863e-05
46 *6040:A2 *339:8 0
47 *6058:A2 *6058:C1 0
48 *6076:A2 *339:31 9.66021e-05
49 *6096:A2 *6305:B1 1.91597e-05
50 *6096:A2 *215:133 8.40269e-05
51 *6133:A2 *372:16 0.000122331
52 *6151:A2 *6415:CLK 0.000116158
53 *6151:A2 *382:16 8.95508e-06
54 *6287:A2 *5903:B 0
55 *6287:A2 *5982:A0 2.91399e-05
56 *6287:A2 *6287:B1 0.000336077
57 *6287:A2 *279:22 3.45438e-05
58 *6287:A2 *401:12 0
59 *6287:A2 *460:14 0
60 *6305:A2 *470:12 3.26889e-05
61 *203:10 *391:8 7.71016e-05
62 *203:10 *420:27 0.000132096
63 *203:14 *391:8 3.50033e-05
64 *203:14 *420:27 0.000136877
65 *203:36 *6221:B1 8.65905e-05
66 *203:36 *215:36 4.66108e-05
67 *203:36 *420:10 0.000201508
68 *203:50 *6287:B1 2.92496e-05
69 *203:50 *215:24 0.000165655
70 *203:50 *215:53 0.000183043
71 *203:50 *401:12 0
72 *203:50 *411:10 8.65961e-05
73 *203:54 *6111:S 0
74 *203:54 *428:52 0.000136884
75 *203:64 *6111:S 7.23602e-05
76 *203:64 *292:12 3.67779e-05
77 *203:64 *428:16 0.000271303
78 *203:75 *6166:S 5.16418e-05
79 *203:75 *470:12 0.00015896
80 *203:79 *470:12 0.000245164
81 *203:101 *6091:S 0
82 *203:101 *6096:B1 6.86906e-05
83 *203:101 *6166:S 8.35683e-05
84 *203:112 *6091:S 0
85 *203:112 *215:146 0.000136884
86 *203:112 *215:155 9.50342e-06
87 *203:129 *6115:B1 4.82919e-05
88 *203:129 *6115:C1 1.61831e-05
89 *203:129 *215:155 0.000133763
90 *203:133 *215:166 0
91 *203:144 *6058:C1 0
92 *203:144 *215:170 0
93 *203:144 *215:213 0
94 *203:175 *6095:B 9.50342e-06
95 *203:175 *6204:B1 9.68787e-05
96 *203:175 *6234:B1 9.68787e-05
97 *203:175 *428:52 4.38051e-05
98 *203:184 *6095:B 0.000205435
99 *203:184 *6132:A 3.05646e-05
100 *203:184 *6204:B1 7.00066e-05
101 *203:184 *279:22 7.06865e-05
102 *203:184 *348:10 8.60912e-05
103 *203:184 *349:10 0.000127366
104 *203:197 *6040:C1 9.30787e-05
105 *203:197 *292:12 0
106 *5901:A *203:184 0.000162325
107 *5901:A *203:197 9.50342e-06
108 *6003:A1 *6003:A2 0.000119631
109 *6040:A1 *6003:A2 4.21757e-05
110 *6040:A1 *6040:A2 7.31656e-05
111 *6058:A1 *6058:A2 0.000204431
112 *6058:A1 *203:144 2.07184e-05
113 *6076:A1 *6076:A2 8.65905e-05
114 *6096:A1 *6096:A2 4.82919e-05
115 *6227:A1 *203:14 3.57924e-05
116 *6227:B1 *203:14 0.00013687
117 *6305:A1 *6151:A2 6.10014e-05
118 *190:8 *203:36 6.1357e-05
119 *190:21 *203:36 0.000131166
120 *190:59 *203:54 0
121 *190:59 *203:75 8.49205e-05
122 *190:59 *203:175 0
123 *190:70 *203:75 0.000317814
124 *190:70 *203:101 0.000159964
125 *190:76 *6151:A2 8.95508e-06
126 *190:94 *203:101 0.000129047
127 *190:109 *6133:A2 8.65961e-05
128 *190:109 *203:101 2.14129e-05
129 *190:109 *203:112 0.000155928
130 *190:109 *203:129 3.09233e-05
131 *190:120 *203:129 0
132 *190:131 *203:133 0.000120186
133 *190:144 *203:133 4.21314e-05
134 *190:144 *203:144 0.000183738
135 *190:179 *203:184 8.08153e-06
136 *190:192 *203:184 0.000183213
137 *190:207 *6003:A2 0
138 *190:207 *6040:A2 4.00541e-06
139 *190:207 *203:184 2.97004e-06
140 *190:207 *203:197 4.83328e-05
*RES
1 *5890:X *203:10 5.685 
2 *203:10 *203:14 4.4 
3 *203:14 *5891:B 4.0975 
4 *203:14 *6227:A2 1.6 
5 *203:10 *203:36 7.97 
6 *203:36 *203:38 2 
7 *203:38 *203:50 10.505 
8 *203:50 *203:54 3.635 
9 *203:54 *203:64 9.39 
10 *203:64 *6234:A2 1.6 
11 *203:64 *203:75 5.825 
12 *203:75 *203:79 4.52 
13 *203:79 *6305:A2 2.215 
14 *203:79 *6151:A2 7.14125 
15 *203:75 *203:101 3.675 
16 *203:101 *6096:A2 4.395 
17 *203:101 *203:112 1.89 
18 *203:112 *6133:A2 4.74 
19 *203:112 *203:129 6.68 
20 *203:129 *203:133 3.89 
21 *203:133 *6022:A2 4.395 
22 *203:133 *203:144 2.4 
23 *203:144 *6076:A2 5.085 
24 *203:144 *6058:A2 7.185 
25 *203:129 *6115:A2 1.6 
26 *203:54 *203:175 2.655 
27 *203:175 *5905:A2 3.6 
28 *203:175 *203:184 8.265 
29 *203:184 *6186:A2 3.6 
30 *203:184 *203:197 3.995 
31 *203:197 *6003:A2 5.77 
32 *203:197 *6040:A2 3.805 
33 *203:50 *6204:A2 1.6 
34 *203:38 *6287:A2 8.58 
35 *203:36 *6221:A2 1.6 
*END

*D_NET *204 0.00139811
*CONN
*I *5898:A I *D sky130_fd_sc_hd__or3_4
*I *5892:X O *D sky130_fd_sc_hd__xor2_1
*CAP
1 *5898:A 0.000550799
2 *5892:X 0.000550799
3 *5898:A *5892:A 0.000129871
4 *5898:A *5892:B 0
5 *5898:A *5898:B 3.57275e-05
6 *5898:A *6460:CLK 5.58436e-05
7 *5898:A *6460:D 9.53428e-06
8 *5898:A *6472:RESET_B 5.20968e-05
9 *5898:A *210:8 0
10 *5898:A *239:54 1.34361e-05
*RES
1 *5892:X *5898:A 15.87 
*END

*D_NET *205 0.000720322
*CONN
*I *5898:B I *D sky130_fd_sc_hd__or3_4
*I *5893:X O *D sky130_fd_sc_hd__xor2_1
*CAP
1 *5898:B 0.000270925
2 *5893:X 0.000270925
3 *5898:B *6260:A 4.05358e-05
4 *5898:B *6465:CLK 8.88799e-05
5 *5898:B *210:8 1.33293e-05
6 *5898:B *710:36 0
7 *5898:A *5898:B 3.57275e-05
*RES
1 *5893:X *5898:B 11.64 
*END

*D_NET *206 0.00102354
*CONN
*I *5897:A I *D sky130_fd_sc_hd__or3_1
*I *5894:X O *D sky130_fd_sc_hd__xor2_1
*CAP
1 *5897:A 0.000316879
2 *5894:X 0.000316879
3 *5897:A *6261:S 0.000319096
4 *5897:A *6265:A1 0
5 *5897:A *490:35 7.06865e-05
*RES
1 *5894:X *5897:A 13.32 
*END

*D_NET *207 0.0016355
*CONN
*I *5897:B I *D sky130_fd_sc_hd__or3_1
*I *5895:X O *D sky130_fd_sc_hd__xor2_1
*CAP
1 *5897:B 0.000501344
2 *5895:X 0.000501344
3 *5897:B *5897:C 3.64998e-06
4 *5897:B *6265:A0 0.000126952
5 *5897:B *6265:A1 0
6 *5897:B *6472:RESET_B 0
7 *5897:B *490:35 0.000405104
8 *6438:D *5897:B 9.71067e-05
*RES
1 *5895:X *5897:B 17.055 
*END

*D_NET *208 0.00346134
*CONN
*I *5897:C I *D sky130_fd_sc_hd__or3_1
*I *5896:X O *D sky130_fd_sc_hd__xor2_1
*CAP
1 *5897:C 0.00130759
2 *5896:X 0.00130759
3 *5897:C *5896:B 0.000161893
4 *5897:C *6261:S 1.91597e-05
5 *5897:C *6265:A0 4.66108e-05
6 *5897:C *6479:CLK 0.00052404
7 *5897:B *5897:C 3.64998e-06
8 *6435:D *5897:C 9.08126e-05
*RES
1 *5896:X *5897:C 29.265 
*END

*D_NET *209 0.00246387
*CONN
*I *5898:C I *D sky130_fd_sc_hd__or3_4
*I *5897:X O *D sky130_fd_sc_hd__or3_1
*CAP
1 *5898:C 0.00102977
2 *5897:X 0.00102977
3 *5898:C *6265:A0 3.60024e-06
4 *5898:C *6437:CLK 2.56536e-05
5 *5898:C *6566:A 0.000114196
6 *5898:C *487:71 7.28789e-05
7 *5898:C *490:50 0.000187996
*RES
1 *5897:X *5898:C 24.81 
*END

*D_NET *210 0.00442025
*CONN
*I *5899:A I *D sky130_fd_sc_hd__inv_2
*I *5936:B I *D sky130_fd_sc_hd__nand2_8
*I *6254:A3 I *D sky130_fd_sc_hd__a31o_1
*I *5898:X O *D sky130_fd_sc_hd__or3_4
*CAP
1 *5899:A 0.000364723
2 *5936:B 0
3 *6254:A3 0.000123738
4 *5898:X 0.000616572
5 *210:12 0.000848267
6 *210:8 0.00170582
7 *5899:A *5876:A 4.92935e-05
8 *5899:A *6449:RESET_B 3.45679e-05
9 *6254:A3 *5936:A 0
10 *6254:A3 *6255:B 9.33406e-05
11 *6254:A3 *225:247 4.99619e-05
12 *6254:A3 *711:115 4.82919e-05
13 *210:8 *6465:CLK 2.75229e-05
14 *210:8 *6465:D 3.96073e-05
15 *210:12 *5893:A 0.000139238
16 *210:12 *5936:A 0
17 *210:12 *6255:B 8.34426e-05
18 *210:12 *6256:A 2.87867e-05
19 *210:12 *6454:CLK 0
20 *210:12 *6599:A 9.6227e-05
21 *210:12 *438:10 8.08153e-06
22 *210:12 *709:177 4.94404e-05
23 *210:12 *709:211 0
24 *210:12 *711:135 0
25 *5898:A *210:8 0
26 *5898:B *210:8 1.33293e-05
*RES
1 *5898:X *210:8 8.62 
2 *210:8 *210:12 15.62 
3 *210:12 *6254:A3 6.195 
4 *210:12 *5936:B 3.6 
5 *210:8 *5899:A 6.115 
*END

*D_NET *211 0.0083753
*CONN
*I *6039:B I *D sky130_fd_sc_hd__and4_1
*I *6057:B I *D sky130_fd_sc_hd__and4b_1
*I *5901:B I *D sky130_fd_sc_hd__nand2_1
*I *6093:B I *D sky130_fd_sc_hd__or2_1
*I *6222:A1 I *D sky130_fd_sc_hd__mux2_1
*I *5900:Y O *D sky130_fd_sc_hd__inv_2
*CAP
1 *6039:B 0
2 *6057:B 3.38648e-05
3 *5901:B 0.000221412
4 *6093:B 2.08101e-05
5 *6222:A1 0.0018697
6 *5900:Y 0
7 *211:31 0.00068012
8 *211:25 0.000577024
9 *211:23 0.000318595
10 *211:4 0.00208303
11 *5901:B *6021:A 1.85674e-05
12 *5901:B *6132:A 4.99619e-05
13 *5901:B *212:14 7.81914e-05
14 *5901:B *307:6 9.80032e-06
15 *6057:B *812:107 4.82919e-05
16 *6093:B *6132:A 0
17 *6222:A1 *5900:A 5.05521e-05
18 *6222:A1 *6447:D 0.000122325
19 *6222:A1 *6479:RESET_B 6.55328e-05
20 *6222:A1 *491:20 2.05056e-05
21 *6222:A1 *710:10 0
22 *6222:A1 *810:75 0.000316648
23 *211:23 *319:12 0
24 *211:25 *6039:C 0.000187071
25 *211:25 *319:12 0
26 *211:31 *6020:A 3.23663e-05
27 *211:31 *6020:B 8.8266e-05
28 *211:31 *319:12 0
29 *5879:A *6222:A1 0.000349587
30 *5901:A *5901:B 0.000123034
31 *182:40 *211:23 0.000198279
32 *182:40 *211:25 8.53113e-06
33 *182:42 *211:25 0.000229904
34 *182:44 *211:25 4.21314e-05
35 *182:44 *211:31 0.000355882
36 *182:46 *211:31 7.23533e-05
37 *182:56 *5901:B 4.35348e-05
38 *182:56 *211:31 5.94277e-05
39 *190:192 *211:31 0
40 *190:207 *211:31 0
*RES
1 *5900:Y *211:4 1.6 
2 *211:4 *6222:A1 28.475 
3 *211:4 *211:23 5.54 
4 *211:23 *211:25 3.165 
5 *211:25 *211:31 9.47 
6 *211:31 *6093:B 1.96 
7 *211:31 *5901:B 9.365 
8 *211:25 *6057:B 4.05 
9 *211:23 *6039:B 3.6 
*END

*D_NET *212 0.00332139
*CONN
*I *6021:A I *D sky130_fd_sc_hd__nor2_1
*I *6304:A I *D sky130_fd_sc_hd__nor2_1
*I *5903:A I *D sky130_fd_sc_hd__nor2_1
*I *5901:Y O *D sky130_fd_sc_hd__nand2_1
*CAP
1 *6021:A 0.000115175
2 *6304:A 0
3 *5903:A 0.000565276
4 *5901:Y 0
5 *212:14 0.000821159
6 *212:4 0.000371059
7 *5903:A *5903:B 5.4155e-06
8 *5903:A *5905:B1 6.32842e-05
9 *5903:A *6095:A 4.36999e-05
10 *5903:A *6095:B 9.66839e-05
11 *5903:A *6111:S 0
12 *5903:A *6150:A 5.53249e-06
13 *5903:A *6151:B1 9.47454e-05
14 *5903:A *6234:B1 0.00022282
15 *5903:A *216:8 6.97118e-05
16 *5903:A *216:116 6.0147e-06
17 *5903:A *349:10 5.53249e-06
18 *6021:A *6022:B1 2.75145e-05
19 *6021:A *215:174 2.32597e-05
20 *212:14 *6021:B 2.66935e-05
21 *212:14 *6114:B 2.84117e-05
22 *212:14 *6132:A 3.50033e-05
23 *212:14 *6133:B1 7.4027e-05
24 *212:14 *6150:A 0.000228403
25 *212:14 *292:12 0
26 *212:14 *348:10 0.0001654
27 *212:14 *349:10 1.7902e-05
28 *5901:A *6021:A 3.40435e-05
29 *5901:A *212:14 2.42271e-05
30 *5901:B *6021:A 1.85674e-05
31 *5901:B *212:14 7.81914e-05
32 *5905:A1 *5903:A 5.36372e-05
*RES
1 *5901:Y *212:4 1.6 
2 *212:4 *212:14 8.465 
3 *212:14 *5903:A 12.405 
4 *212:14 *6304:A 3.6 
5 *212:4 *6021:A 3.805 
*END

*D_NET *213 0.00164567
*CONN
*I *6203:B I *D sky130_fd_sc_hd__nor2_1
*I *6233:A I *D sky130_fd_sc_hd__nor2_1
*I *5903:B I *D sky130_fd_sc_hd__nor2_1
*I *5902:Y O *D sky130_fd_sc_hd__nand2_1
*CAP
1 *6203:B 1.0276e-05
2 *6233:A 0
3 *5903:B 0.000206023
4 *5902:Y 5.51722e-05
5 *213:29 9.06935e-05
6 *213:8 0.000341613
7 *5903:B *5905:B1 8.8266e-05
8 *5903:B *401:12 0.000162325
9 *6203:B *6234:B1 4.82919e-05
10 *6203:B *279:22 2.16917e-05
11 *213:8 *401:12 9.30787e-05
12 *213:29 *6203:A 1.37328e-05
13 *213:29 *6233:B 0.0001249
14 *213:29 *6234:B1 2.16833e-05
15 *213:29 *279:22 0.000309612
16 *5903:A *5903:B 5.4155e-06
17 *6287:A1 *213:29 5.28932e-05
18 *6287:A2 *5903:B 0
*RES
1 *5902:Y *213:8 4.725 
2 *213:8 *5903:B 7.605 
3 *213:8 *213:29 5.225 
4 *213:29 *6233:A 1.6 
5 *213:29 *6203:B 2.05 
*END

*D_NET *214 0.000536571
*CONN
*I *5905:B1 I *D sky130_fd_sc_hd__o211a_4
*I *5903:Y O *D sky130_fd_sc_hd__nor2_1
*CAP
1 *5905:B1 9.4554e-05
2 *5903:Y 9.4554e-05
3 *5905:B1 *216:8 0.000122331
4 *5905:B1 *216:116 7.35813e-05
5 *5903:A *5905:B1 6.32842e-05
6 *5903:B *5905:B1 8.8266e-05
*RES
1 *5903:Y *5905:B1 6.065 
*END

*D_NET *215 0.0150744
*CONN
*I *6022:C1 I *D sky130_fd_sc_hd__o211a_4
*I *6058:C1 I *D sky130_fd_sc_hd__o211a_4
*I *6076:C1 I *D sky130_fd_sc_hd__o211a_4
*I *6040:C1 I *D sky130_fd_sc_hd__o211a_4
*I *6003:C1 I *D sky130_fd_sc_hd__o211a_4
*I *6186:C1 I *D sky130_fd_sc_hd__o211a_4
*I *6115:C1 I *D sky130_fd_sc_hd__o211a_4
*I *6133:C1 I *D sky130_fd_sc_hd__o211a_4
*I *6096:C1 I *D sky130_fd_sc_hd__o211a_4
*I *6151:C1 I *D sky130_fd_sc_hd__o211a_4
*I *6305:C1 I *D sky130_fd_sc_hd__o211a_4
*I *6204:C1 I *D sky130_fd_sc_hd__o211a_4
*I *5905:C1 I *D sky130_fd_sc_hd__o211a_4
*I *6234:C1 I *D sky130_fd_sc_hd__o211a_4
*I *6287:B1 I *D sky130_fd_sc_hd__o211a_4
*I *6168:B1 I *D sky130_fd_sc_hd__o2111a_4
*I *6227:C1 I *D sky130_fd_sc_hd__o211a_1
*I *6221:B1 I *D sky130_fd_sc_hd__o21a_4
*I *5904:X O *D sky130_fd_sc_hd__buf_8
*CAP
1 *6022:C1 2.91235e-05
2 *6058:C1 9.53912e-05
3 *6076:C1 0
4 *6040:C1 0.000129962
5 *6003:C1 0.000381254
6 *6186:C1 2.89361e-05
7 *6115:C1 5.50497e-05
8 *6133:C1 0
9 *6096:C1 4.64287e-05
10 *6151:C1 0
11 *6305:C1 0
12 *6204:C1 0
13 *5905:C1 8.29253e-05
14 *6234:C1 0.000144735
15 *6287:B1 0.000168782
16 *6168:B1 0.000373319
17 *6227:C1 1.69559e-05
18 *6221:B1 1.41866e-05
19 *5904:X 0.000208914
20 *215:213 0.000190424
21 *215:176 0.000479503
22 *215:174 0.000295442
23 *215:170 0.0002495
24 *215:166 0.000173637
25 *215:155 0.000214142
26 *215:146 0.000124893
27 *215:133 0.000280632
28 *215:118 0.000242337
29 *215:109 0.000149287
30 *215:53 0.000824389
31 *215:45 0.000602896
32 *215:36 0.00023011
33 *215:30 0.000360659
34 *215:28 0.000187875
35 *215:24 0.000626151
36 *215:10 0.000819256
37 *5905:C1 *216:14 0
38 *6003:C1 *6076:B1 2.8585e-06
39 *6003:C1 *298:18 5.5833e-05
40 *6022:C1 *6022:B1 0.000163204
41 *6022:C1 *309:10 0.000201508
42 *6022:C1 *401:79 1.61831e-05
43 *6040:C1 *6040:B1 1.89685e-05
44 *6040:C1 *292:12 0
45 *6058:C1 *351:31 0.000154481
46 *6096:C1 *6305:B1 2.11084e-05
47 *6096:C1 *351:31 0
48 *6115:C1 *6115:B1 5.05521e-05
49 *6168:B1 *5982:A0 8.40213e-05
50 *6168:B1 *420:27 0.000155491
51 *6168:B1 *479:61 0
52 *6186:C1 *6186:B1 1.85674e-05
53 *6234:C1 *428:16 8.12264e-05
54 *6287:B1 *460:14 0
55 *215:10 *5904:A 4.82863e-05
56 *215:10 *6166:S 0
57 *215:10 *6415:CLK 4.18603e-06
58 *215:10 *309:16 0
59 *215:10 *391:122 4.01869e-05
60 *215:24 *6204:B1 4.99619e-05
61 *215:28 *6204:B1 2.68721e-05
62 *215:28 *216:14 0
63 *215:28 *428:52 8.09021e-06
64 *215:109 *6166:S 0
65 *215:109 *6305:B1 3.25831e-05
66 *215:109 *6415:CLK 7.66727e-05
67 *215:118 *6305:B1 0.000149759
68 *215:118 *6415:CLK 6.05917e-05
69 *215:133 *6305:B1 0.000157892
70 *215:133 *6415:CLK 8.09325e-05
71 *215:146 *351:31 7.3664e-05
72 *215:155 *351:31 0.000110323
73 *215:166 *351:31 8.05665e-05
74 *215:170 *351:31 5.16348e-05
75 *215:174 *6022:B1 0.000229536
76 *215:174 *401:79 0.000495995
77 *215:176 *401:79 0.000194694
78 *215:213 *351:31 0.000151432
79 *5891:A *215:53 0
80 *5891:B *6168:B1 4.29016e-05
81 *5891:B *6227:C1 1.1767e-05
82 *5891:B *215:53 3.97461e-05
83 *5901:A *6186:C1 0
84 *5901:A *215:174 0.000191521
85 *5901:A *215:176 1.16578e-05
86 *6003:A2 *6003:C1 0.000235568
87 *6021:A *215:174 2.32597e-05
88 *6040:A1 *6040:C1 4.82863e-05
89 *6040:A2 *6040:C1 4.82863e-05
90 *6058:A1 *6058:C1 0
91 *6058:A2 *6058:C1 0
92 *6096:A1 *215:133 2.05056e-05
93 *6096:A2 *215:133 8.40269e-05
94 *6168:A1 *6168:B1 0.000187509
95 *6168:A2 *6168:B1 4.66742e-05
96 *6186:A1 *215:176 3.90375e-05
97 *6204:A1 *215:24 9.53428e-06
98 *6221:A1 *215:36 2.98281e-05
99 *6227:A1 *6168:B1 2.75229e-05
100 *6287:A2 *6287:B1 0.000336077
101 *6287:C1 *6168:B1 0
102 *6415:D *215:10 0.000162325
103 *189:10 *6168:B1 0.000174472
104 *190:21 *6221:B1 8.65905e-05
105 *190:21 *215:36 8.91713e-05
106 *190:34 *6234:C1 1.91597e-05
107 *190:34 *215:36 0.000190759
108 *190:42 *215:24 0.00012173
109 *190:42 *215:28 9.54399e-05
110 *190:59 *215:24 6.90876e-05
111 *190:94 *215:133 1.07797e-05
112 *190:109 *215:133 1.52184e-05
113 *190:120 *215:155 0
114 *190:131 *215:155 0
115 *190:166 *5905:C1 0.000162325
116 *190:166 *215:28 4.38051e-05
117 *190:207 *6003:C1 9.14049e-05
118 *190:207 *6040:C1 0
119 *200:10 *6168:B1 0.000432906
120 *203:36 *6221:B1 8.65905e-05
121 *203:36 *215:36 4.66108e-05
122 *203:50 *6287:B1 2.92496e-05
123 *203:50 *215:24 0.000165655
124 *203:50 *215:53 0.000183043
125 *203:112 *215:146 0.000136884
126 *203:112 *215:155 9.50342e-06
127 *203:129 *6115:C1 1.61831e-05
128 *203:129 *215:155 0.000133763
129 *203:133 *215:166 0
130 *203:144 *6058:C1 0
131 *203:144 *215:170 0
132 *203:144 *215:213 0
133 *203:197 *6040:C1 9.30787e-05
*RES
1 *5904:X *215:10 7.485 
2 *215:10 *215:24 11.33 
3 *215:24 *215:28 4.4 
4 *215:28 *215:30 2 
5 *215:30 *215:36 4.71 
6 *215:36 *6221:B1 2.395 
7 *215:36 *215:45 2 
8 *215:45 *215:53 9.095 
9 *215:53 *6227:C1 1.96 
10 *215:53 *6168:B1 15.935 
11 *215:45 *6287:B1 7.785 
12 *215:30 *6234:C1 3.9475 
13 *215:28 *5905:C1 5.49 
14 *215:24 *6204:C1 1.6 
15 *215:10 *215:109 2.145 
16 *215:109 *6305:C1 3.6 
17 *215:109 *215:118 1.89 
18 *215:118 *6151:C1 3.6 
19 *215:118 *215:133 6.245 
20 *215:133 *6096:C1 2.41 
21 *215:133 *215:146 3.635 
22 *215:146 *6133:C1 3.6 
23 *215:146 *215:155 2.4 
24 *215:155 *6115:C1 4.74 
25 *215:155 *215:166 1.89 
26 *215:166 *215:170 1.065 
27 *215:170 *215:174 6.59 
28 *215:174 *215:176 1.83 
29 *215:176 *6186:C1 2.215 
30 *215:176 *6003:C1 11.15 
31 *215:174 *6040:C1 7.94 
32 *215:170 *215:213 1.89 
33 *215:213 *6076:C1 3.6 
34 *215:213 *6058:C1 5.49 
35 *215:166 *6022:C1 5.43 
*END

*D_NET *216 0.0278408
*CONN
*I *5912:S I *D sky130_fd_sc_hd__mux2_1
*I *5916:S I *D sky130_fd_sc_hd__mux2_1
*I *5914:S I *D sky130_fd_sc_hd__mux2_1
*I *5906:S I *D sky130_fd_sc_hd__mux2_1
*I *5908:S I *D sky130_fd_sc_hd__mux2_1
*I *5918:S I *D sky130_fd_sc_hd__mux2_1
*I *5920:S I *D sky130_fd_sc_hd__mux2_1
*I *5910:S I *D sky130_fd_sc_hd__mux2_1
*I *5905:X O *D sky130_fd_sc_hd__o211a_4
*CAP
1 *5912:S 0.00142709
2 *5916:S 6.22304e-05
3 *5914:S 0
4 *5906:S 0.000533197
5 *5908:S 0
6 *5918:S 0
7 *5920:S 0
8 *5910:S 0.000102335
9 *5905:X 2.97592e-05
10 *216:116 0.00345453
11 *216:79 0.00171227
12 *216:60 0.00238615
13 *216:44 0.00279002
14 *216:29 0.00223202
15 *216:14 0.00160209
16 *216:8 0.00284565
17 *5906:S *5906:A0 4.62857e-05
18 *5906:S *5906:A1 4.82863e-05
19 *5906:S *5907:A 0
20 *5906:S *5908:A0 2.16917e-05
21 *5906:S *5924:A3 2.75229e-05
22 *5906:S *5939:A1 0.000199833
23 *5906:S *5939:A2 8.78813e-05
24 *5906:S *5939:S0 0.000503559
25 *5906:S *5939:S1 0
26 *5906:S *225:121 4.36438e-05
27 *5906:S *226:135 0
28 *5906:S *481:56 0
29 *5910:S *5998:S 3.79651e-05
30 *5912:S *5912:A0 4.66742e-05
31 *5912:S *5913:A 8.09753e-05
32 *5912:S *5957:A3 0.000194251
33 *5912:S *6413:CLK 1.68092e-05
34 *5912:S *6615:A 4.82919e-05
35 *5916:S *230:66 8.44359e-05
36 *5916:S *232:58 0.000159262
37 *216:14 *5948:S1 0.000315132
38 *216:14 *5998:S 5.30541e-05
39 *216:14 *6562:A 5.01654e-05
40 *216:14 *401:12 0.0005829
41 *216:14 *401:22 0.000594873
42 *216:14 *428:52 0
43 *216:14 *746:109 0.000109533
44 *216:29 *5910:A1 0.000116853
45 *216:29 *5920:A1 0.000119277
46 *216:29 *5948:S0 0
47 *216:29 *6202:A 5.14583e-05
48 *216:29 *6585:A 7.30547e-05
49 *216:29 *225:21 0.000588774
50 *216:29 *225:27 0.00047052
51 *216:29 *287:22 3.79595e-05
52 *216:29 *401:22 0.000174099
53 *216:29 *480:16 0
54 *216:29 *790:14 3.7729e-05
55 *216:29 *791:35 1.73877e-05
56 *216:44 *5914:A0 3.86607e-05
57 *216:44 *5920:A0 0.000182343
58 *216:44 *5967:S0 0
59 *216:44 *6243:S 0
60 *216:44 *6244:A 1.70935e-05
61 *216:44 *6398:CLK 2.75229e-05
62 *216:44 *6541:A 0
63 *216:44 *225:160 0
64 *216:44 *226:114 0
65 *216:44 *428:105 0
66 *216:44 *658:24 0.000653462
67 *216:60 *5918:A0 0
68 *216:60 *5919:A 0
69 *216:60 *5984:A1 0.000311282
70 *216:60 *6182:A 0.000126028
71 *216:60 *6244:A 6.28765e-05
72 *216:60 *6416:CLK 7.96827e-05
73 *216:60 *6541:A 0
74 *216:60 *488:78 0.000123225
75 *216:60 *488:82 1.0183e-05
76 *216:60 *580:12 1.7386e-05
77 *216:60 *588:10 0
78 *216:60 *590:12 5.02217e-05
79 *216:60 *625:12 9.50342e-06
80 *216:60 *735:20 5.21545e-05
81 *216:79 *5909:A 0
82 *216:79 *5918:A0 0.000354725
83 *216:79 *5939:A1 1.22762e-05
84 *216:79 *5939:A2 1.39472e-05
85 *216:79 *6323:CLK 8.8266e-05
86 *216:79 *6427:CLK 4.82863e-05
87 *216:79 *593:6 1.86399e-05
88 *216:79 *625:21 3.26889e-05
89 *216:116 *6095:B 1.6418e-05
90 *216:116 *6151:B1 0.000267095
91 *216:116 *382:16 5.81952e-05
92 *216:116 *401:12 3.68784e-05
93 *5903:A *216:8 6.97118e-05
94 *5903:A *216:116 6.0147e-06
95 *5905:A1 *216:116 0.000105508
96 *5905:B1 *216:8 0.000122331
97 *5905:B1 *216:116 7.35813e-05
98 *5905:C1 *216:14 0
99 *6385:D *216:14 0
100 *6398:D *216:44 6.37653e-05
101 *6401:D *216:29 0
102 *6413:D *5912:S 0.000150298
103 *6427:D *216:79 1.43717e-05
104 *190:76 *216:116 0.000308719
105 *190:179 *216:116 0
106 *215:28 *216:14 0
*RES
1 *5905:X *216:8 4.74 
2 *216:8 *216:14 22.88 
3 *216:14 *5910:S 3.01 
4 *216:14 *216:29 20.935 
5 *216:29 *5920:S 1.6 
6 *216:29 *216:44 26.045 
7 *216:44 *216:60 26.07 
8 *216:60 *5918:S 1.6 
9 *216:60 *216:79 20.62 
10 *216:79 *5908:S 1.6 
11 *216:79 *5906:S 17.63 
12 *216:44 *5914:S 3.6 
13 *216:8 *216:116 25.49 
14 *216:116 *5916:S 7.49 
15 *216:116 *5912:S 21.985 
*END

*D_NET *217 0.000268881
*CONN
*I *5907:A I *D sky130_fd_sc_hd__clkbuf_1
*I *5906:X O *D sky130_fd_sc_hd__mux2_1
*CAP
1 *5907:A 4.93403e-05
2 *5906:X 4.93403e-05
3 *5907:A *5906:A0 0
4 *5907:A *5924:A3 8.8266e-05
5 *5907:A *225:108 8.19346e-05
6 *5906:S *5907:A 0
*RES
1 *5906:X *5907:A 4.61 
*END

*D_NET *218 0.00112421
*CONN
*I *5909:A I *D sky130_fd_sc_hd__clkbuf_1
*I *5908:X O *D sky130_fd_sc_hd__mux2_1
*CAP
1 *5909:A 0.000501785
2 *5908:X 0.000501785
3 *5909:A *6550:A 0.00012064
4 *6323:D *5909:A 0
5 *216:79 *5909:A 0
*RES
1 *5908:X *5909:A 15.225 
*END

*D_NET *219 0.00041847
*CONN
*I *5911:A I *D sky130_fd_sc_hd__clkbuf_1
*I *5910:X O *D sky130_fd_sc_hd__mux2_1
*CAP
1 *5911:A 0.000144935
2 *5910:X 0.000144935
3 *5911:A *5948:S0 0
4 *5911:A *5998:S 1.34503e-05
5 *5911:A *6209:A0 4.99619e-05
6 *5911:A *6324:CLK 4.18603e-06
7 *5911:A *6529:A 0
8 *5911:A *480:79 6.10014e-05
*RES
1 *5910:X *5911:A 9.63 
*END

*D_NET *220 0.000181269
*CONN
*I *5913:A I *D sky130_fd_sc_hd__clkbuf_1
*I *5912:X O *D sky130_fd_sc_hd__mux2_1
*CAP
1 *5913:A 4.09592e-05
2 *5912:X 4.09592e-05
3 *5913:A *5957:A3 1.83756e-05
4 *5912:S *5913:A 8.09753e-05
*RES
1 *5912:X *5913:A 4.265 
*END

*D_NET *221 0.00154749
*CONN
*I *5915:A I *D sky130_fd_sc_hd__clkbuf_1
*I *5914:X O *D sky130_fd_sc_hd__mux2_1
*CAP
1 *5915:A 0.000522791
2 *5914:X 0.000522791
3 *5915:A *5966:A3 4.24562e-05
4 *5915:A *5966:S0 5.7344e-05
5 *5915:A *6443:CLK 4.76239e-05
6 *5915:A *225:58 6.54401e-05
7 *5915:A *588:10 0
8 *5915:A *768:93 1.22762e-05
9 *5915:A *768:119 0.000122337
10 *6326:D *5915:A 0
11 *6443:D *5915:A 0.000154435
*RES
1 *5914:X *5915:A 16.815 
*END

*D_NET *222 0.00155128
*CONN
*I *5917:A I *D sky130_fd_sc_hd__clkbuf_1
*I *5916:X O *D sky130_fd_sc_hd__mux2_1
*CAP
1 *5917:A 0.000409411
2 *5916:X 0.000409411
3 *5917:A *5975:A0 0
4 *5917:A *5975:A2 0.000282834
5 *5917:A *5981:S 0
6 *5917:A *6175:S 7.4027e-05
7 *5917:A *6215:A1 0
8 *5917:A *6626:A 7.30547e-05
9 *5917:A *233:45 3.21271e-05
10 *5917:A *411:92 0.000270415
*RES
1 *5916:X *5917:A 15.435 
*END

*D_NET *223 0.000882258
*CONN
*I *5919:A I *D sky130_fd_sc_hd__clkbuf_1
*I *5918:X O *D sky130_fd_sc_hd__mux2_1
*CAP
1 *5919:A 0.000221385
2 *5918:X 0.000221385
3 *5919:A *6217:A1 2.75145e-05
4 *5919:A *625:21 2.75229e-05
5 *5919:A *625:32 0.00031209
6 *5919:A *735:20 7.23602e-05
7 *216:60 *5919:A 0
*RES
1 *5918:X *5919:A 11.67 
*END

*D_NET *224 0.00119128
*CONN
*I *5921:A I *D sky130_fd_sc_hd__clkbuf_1
*I *5920:X O *D sky130_fd_sc_hd__mux2_1
*CAP
1 *5921:A 0.000399998
2 *5920:X 0.000399998
3 *5921:A *5920:A0 3.64998e-06
4 *5921:A *5920:A1 3.09164e-05
5 *5921:A *5993:A1 6.10014e-05
6 *5921:A *5993:A3 5.17188e-05
7 *5921:A *6329:CLK 0
8 *5921:A *225:27 6.78418e-05
9 *5921:A *225:39 0.000126725
10 *5921:A *480:16 0
11 *6329:D *5921:A 4.94326e-05
*RES
1 *5920:X *5921:A 15.165 
*END

*D_NET *225 0.0444921
*CONN
*I *6251:A I *D sky130_fd_sc_hd__xnor2_1
*I *6254:A1 I *D sky130_fd_sc_hd__a31o_1
*I *6263:A I *D sky130_fd_sc_hd__nor2_1
*I *6271:A1 I *D sky130_fd_sc_hd__a31o_1
*I *6252:A I *D sky130_fd_sc_hd__nand2_1
*I *5993:S0 I *D sky130_fd_sc_hd__mux4_1
*I *5975:S0 I *D sky130_fd_sc_hd__mux4_1
*I *5958:S0 I *D sky130_fd_sc_hd__mux4_1
*I *5957:S0 I *D sky130_fd_sc_hd__mux4_1
*I *5949:S0 I *D sky130_fd_sc_hd__mux4_1
*I *5925:S0 I *D sky130_fd_sc_hd__mux4_1
*I *5940:S0 I *D sky130_fd_sc_hd__mux4_1
*I *5924:S0 I *D sky130_fd_sc_hd__mux4_1
*I *5939:S0 I *D sky130_fd_sc_hd__mux4_1
*I *5984:S0 I *D sky130_fd_sc_hd__mux4_1
*I *5967:S0 I *D sky130_fd_sc_hd__mux4_1
*I *5966:S0 I *D sky130_fd_sc_hd__mux4_1
*I *5948:S0 I *D sky130_fd_sc_hd__mux4_1
*I *5922:X O *D sky130_fd_sc_hd__buf_8
*CAP
1 *6251:A 0
2 *6254:A1 0
3 *6263:A 0
4 *6271:A1 0.000127082
5 *6252:A 0
6 *5993:S0 2.55105e-05
7 *5975:S0 0.000292859
8 *5958:S0 0.00070791
9 *5957:S0 1.86282e-05
10 *5949:S0 0.000237621
11 *5925:S0 0.000504203
12 *5940:S0 0
13 *5924:S0 9.73191e-06
14 *5939:S0 0.000252919
15 *5984:S0 0.000107939
16 *5967:S0 0.000360732
17 *5966:S0 5.91105e-05
18 *5948:S0 0.000511905
19 *5922:X 0
20 *225:262 0.000620312
21 *225:247 0.000599622
22 *225:245 0.00029188
23 *225:237 0.00125885
24 *225:181 0.00105126
25 *225:164 0.00231069
26 *225:160 0.00343612
27 *225:136 0.00100184
28 *225:121 0.000666315
29 *225:108 0.00152189
30 *225:79 0.00160532
31 *225:62 0.000976362
32 *225:58 0.0018871
33 *225:39 0.00139587
34 *225:27 0.00148235
35 *225:21 0.00169088
36 *225:4 0.000745427
37 *5924:S0 *5924:A0 4.82863e-05
38 *5924:S0 *5924:A2 4.82863e-05
39 *5925:S0 *5925:A0 4.82863e-05
40 *5925:S0 *5925:A2 4.82863e-05
41 *5925:S0 *5940:A0 0
42 *5925:S0 *5955:A0 0.000159957
43 *5925:S0 *6023:A0 4.05358e-05
44 *5925:S0 *6025:A0 2.87867e-05
45 *5925:S0 *6025:S 0
46 *5925:S0 *6026:A 0
47 *5925:S0 *6545:A 0
48 *5925:S0 *226:183 0
49 *5939:S0 *5939:A0 4.99619e-05
50 *5939:S0 *5939:A1 0
51 *5939:S0 *5939:A3 4.82863e-05
52 *5948:S0 *5910:A1 0
53 *5948:S0 *5948:A3 1.43521e-05
54 *5948:S0 *5991:A0 8.69098e-05
55 *5948:S0 *6324:CLK 0
56 *5948:S0 *411:20 1.73593e-05
57 *5948:S0 *480:8 5.53249e-06
58 *5948:S0 *480:79 0.000284088
59 *5948:S0 *790:33 0.000120655
60 *5949:S0 *6029:S 0
61 *5949:S0 *6565:A 0.000140905
62 *5949:S0 *411:111 0.000181315
63 *5949:S0 *495:88 0
64 *5957:S0 *5957:A0 0.0001249
65 *5957:S0 *5957:A1 0.0001249
66 *5958:S0 *5958:A0 6.10643e-05
67 *5958:S0 *6029:S 0.000599797
68 *5958:S0 *6241:A1 0
69 *5958:S0 *483:63 2.66568e-05
70 *5958:S0 *757:87 0
71 *5958:S0 *757:89 0
72 *5966:S0 *5966:A3 6.11382e-05
73 *5967:S0 *5967:A0 0.000183359
74 *5967:S0 *5967:A2 0
75 *5967:S0 *226:114 0
76 *5967:S0 *295:20 4.40812e-05
77 *5975:S0 *5975:A0 0.00015896
78 *5975:S0 *5975:A1 3.54025e-05
79 *5975:S0 *5975:A3 0.000307831
80 *5975:S0 *6180:A 0.000134531
81 *5975:S0 *470:18 0.000138196
82 *5984:S0 *5968:A0 0
83 *5984:S0 *5984:A0 0
84 *5984:S0 *5984:A1 8.53113e-06
85 *5984:S0 *625:45 9.7872e-05
86 *5993:S0 *5993:A2 4.82863e-05
87 *6271:A1 *6263:B 9.42091e-06
88 *6271:A1 *6271:A2 1.65432e-05
89 *6271:A1 *6271:B1 4.82863e-05
90 *6271:A1 *226:28 3.90495e-05
91 *6271:A1 *226:30 3.7712e-05
92 *225:21 *226:85 0
93 *225:21 *401:22 0.000224099
94 *225:21 *575:8 4.40073e-05
95 *225:27 *5993:A3 6.28687e-05
96 *225:27 *226:85 0
97 *225:27 *226:95 0
98 *225:39 *6213:S 0
99 *225:39 *6249:A1 0
100 *225:39 *226:95 0
101 *225:39 *391:47 0.000806365
102 *225:39 *391:59 0.000543676
103 *225:58 *5966:S1 8.25609e-05
104 *225:58 *6244:A 4.82863e-05
105 *225:58 *6596:A 0
106 *225:58 *226:114 0.000123759
107 *225:58 *391:59 0.000160641
108 *225:58 *768:93 0
109 *225:58 *768:119 6.27114e-05
110 *225:62 *226:114 0.00027446
111 *225:62 *428:105 3.45679e-05
112 *225:79 *5968:A0 0
113 *225:79 *6248:A 3.67779e-05
114 *225:79 *226:114 0.000142669
115 *225:79 *428:105 0.000189272
116 *225:79 *625:45 0.000109433
117 *225:79 *625:51 0.000312176
118 *225:108 *5924:A3 0.000207263
119 *225:108 *5984:A0 0.000424525
120 *225:108 *6169:A0 0
121 *225:108 *6445:CLK 0.000860597
122 *225:108 *494:53 1.91597e-05
123 *225:108 *600:8 3.23663e-05
124 *225:121 *5924:A3 4.94326e-05
125 *225:121 *226:135 0
126 *225:136 *5924:A3 4.71585e-05
127 *225:136 *5940:A1 0
128 *225:136 *5940:A2 0
129 *225:136 *226:133 0
130 *225:136 *481:41 0.000192876
131 *225:136 *658:24 8.97564e-05
132 *225:160 *5981:S 0
133 *225:160 *6142:A0 9.54399e-05
134 *225:160 *6180:A 4.05358e-05
135 *225:160 *6195:S 8.26692e-05
136 *225:160 *6320:A0 2.87867e-05
137 *225:160 *6327:CLK 2.25161e-05
138 *225:160 *226:114 3.05373e-05
139 *225:160 *309:16 0
140 *225:160 *372:74 0.000655126
141 *225:160 *470:18 0.000450957
142 *225:160 *488:14 4.06309e-05
143 *225:160 *488:20 0.000121696
144 *225:160 *489:34 0.000202893
145 *225:160 *489:95 0.000150662
146 *225:160 *623:10 0.000105849
147 *225:160 *768:69 0.000371935
148 *225:160 *768:85 9.54469e-05
149 *225:160 *768:93 0
150 *225:164 *6215:A1 0.000181005
151 *225:164 *6241:S 0.000742763
152 *225:164 *6327:CLK 4.85494e-05
153 *225:164 *6444:CLK 2.11084e-05
154 *225:181 *6029:S 0.000210843
155 *225:181 *6241:A1 0
156 *225:181 *6241:S 0.000235573
157 *225:181 *226:219 0.00010131
158 *225:237 *6401:CLK 1.34503e-05
159 *225:237 *6470:CLK 7.70758e-05
160 *225:237 *237:12 5.42949e-05
161 *225:237 *237:66 0.000151335
162 *225:237 *239:168 0.00116364
163 *225:237 *712:53 8.09021e-06
164 *225:245 *6258:A 0
165 *225:245 *237:12 0.000462829
166 *225:245 *239:134 0.000256469
167 *225:245 *713:8 8.5225e-05
168 *225:247 *6254:A2 4.82863e-05
169 *225:247 *6255:B 4.99619e-05
170 *225:247 *6670:A 4.70919e-05
171 *225:247 *226:18 0.000269236
172 *225:247 *711:115 0.000113903
173 *225:262 *6257:B 0.000117832
174 *225:262 *6267:A 0.000158297
175 *225:262 *6267:B 3.26889e-05
176 *225:262 *6276:B 3.90266e-05
177 *225:262 *6454:CLK 6.02273e-05
178 *225:262 *226:28 4.82863e-05
179 *225:262 *711:109 4.18603e-06
180 *225:262 *711:135 0.000192537
181 *5906:S *5939:S0 0.000503559
182 *5906:S *225:121 4.36438e-05
183 *5907:A *225:108 8.19346e-05
184 *5911:A *5948:S0 0
185 *5915:A *5966:S0 5.7344e-05
186 *5915:A *225:58 6.54401e-05
187 *5921:A *225:27 6.78418e-05
188 *5921:A *225:39 0.000126725
189 *6254:A3 *225:247 4.99619e-05
190 *6322:D *225:121 0
191 *6322:D *225:136 0
192 *6324:D *5948:S0 0
193 *6327:D *225:164 8.83125e-05
194 *6401:D *5948:S0 0.000118527
195 *6410:D *225:108 1.99848e-05
196 *6414:D *225:39 4.82863e-05
197 *6431:D *225:160 4.75576e-05
198 *6444:D *225:164 4.82319e-06
199 *216:29 *5948:S0 0
200 *216:29 *225:21 0.000588774
201 *216:29 *225:27 0.00047052
202 *216:44 *5967:S0 0
203 *216:44 *225:160 0
*RES
1 *5922:X *225:4 1.6 
2 *225:4 *5948:S0 16.385 
3 *225:4 *225:21 8.99 
4 *225:21 *225:27 8.565 
5 *225:27 *225:39 21.865 
6 *225:39 *5966:S0 4.98 
7 *225:39 *225:58 10.54 
8 *225:58 *225:62 6.935 
9 *225:62 *5967:S0 11.825 
10 *225:62 *225:79 11.66 
11 *225:79 *5984:S0 5.745 
12 *225:79 *225:108 23.6725 
13 *225:108 *5939:S0 9.8925 
14 *225:108 *225:121 2.5275 
15 *225:121 *5924:S0 4.05 
16 *225:121 *225:136 8.82 
17 *225:136 *5940:S0 3.6 
18 *225:136 *5925:S0 12.315 
19 *225:58 *225:160 32.88 
20 *225:160 *225:164 23.84 
21 *225:164 *5949:S0 10.805 
22 *225:164 *225:181 8.615 
23 *225:181 *5957:S0 4.74 
24 *225:181 *5958:S0 18.12 
25 *225:160 *5975:S0 11.115 
26 *225:27 *5993:S0 4.05 
27 *225:21 *225:237 21.57 
28 *225:237 *225:245 10.135 
29 *225:245 *225:247 4.245 
30 *225:247 *6252:A 1.6 
31 *225:247 *225:262 14.2 
32 *225:262 *6271:A1 4.15 
33 *225:262 *6263:A 1.6 
34 *225:245 *6254:A1 1.6 
35 *225:237 *6251:A 1.6 
*END

*D_NET *226 0.0476865
*CONN
*I *5948:S1 I *D sky130_fd_sc_hd__mux4_1
*I *5993:S1 I *D sky130_fd_sc_hd__mux4_1
*I *5957:S1 I *D sky130_fd_sc_hd__mux4_1
*I *5958:S1 I *D sky130_fd_sc_hd__mux4_1
*I *5975:S1 I *D sky130_fd_sc_hd__mux4_1
*I *5949:S1 I *D sky130_fd_sc_hd__mux4_1
*I *5925:S1 I *D sky130_fd_sc_hd__mux4_1
*I *5940:S1 I *D sky130_fd_sc_hd__mux4_1
*I *5924:S1 I *D sky130_fd_sc_hd__mux4_1
*I *5984:S1 I *D sky130_fd_sc_hd__mux4_1
*I *5939:S1 I *D sky130_fd_sc_hd__mux4_1
*I *5967:S1 I *D sky130_fd_sc_hd__mux4_1
*I *5966:S1 I *D sky130_fd_sc_hd__mux4_1
*I *6254:B1 I *D sky130_fd_sc_hd__a31o_1
*I *6252:B I *D sky130_fd_sc_hd__nand2_1
*I *6263:B I *D sky130_fd_sc_hd__nor2_1
*I *6260:A I *D sky130_fd_sc_hd__inv_2
*I *6271:A2 I *D sky130_fd_sc_hd__a31o_1
*I *5923:X O *D sky130_fd_sc_hd__buf_6
*CAP
1 *5948:S1 0.000540271
2 *5993:S1 0
3 *5957:S1 4.1095e-05
4 *5958:S1 0.000330957
5 *5975:S1 0.00122001
6 *5949:S1 5.24704e-05
7 *5925:S1 4.75219e-05
8 *5940:S1 0
9 *5924:S1 0
10 *5984:S1 0.000558086
11 *5939:S1 0.000174313
12 *5967:S1 0
13 *5966:S1 0.00013107
14 *6254:B1 3.55506e-05
15 *6252:B 0
16 *6263:B 9.79893e-06
17 *6260:A 0.00167973
18 *6271:A2 3.52301e-05
19 *5923:X 0
20 *226:240 0.000655465
21 *226:219 0.00190875
22 *226:204 0.00156363
23 *226:183 0.00157728
24 *226:170 0.000568082
25 *226:135 0.000950374
26 *226:133 0.000576534
27 *226:131 0.00138432
28 *226:114 0.00178207
29 *226:95 0.00178466
30 *226:85 0.0015119
31 *226:83 0.00157516
32 *226:30 0.00173702
33 *226:28 0.000510257
34 *226:18 0.000919354
35 *226:14 0.00172428
36 *226:4 0.00152389
37 *5925:S1 *5925:A0 4.41506e-05
38 *5939:S1 *481:56 0.000193815
39 *5948:S1 *5948:A0 8.63479e-05
40 *5948:S1 *5948:A1 3.64998e-06
41 *5948:S1 *5948:A2 0
42 *5948:S1 *5994:A1 2.97096e-05
43 *5948:S1 *6149:A 0.000316535
44 *5948:S1 *6201:A0 0
45 *5948:S1 *6240:A 0
46 *5948:S1 *401:22 0.000103553
47 *5948:S1 *578:10 5.03066e-05
48 *5948:S1 *746:109 0.000139933
49 *5948:S1 *790:33 0
50 *5949:S1 *5949:A1 1.83756e-05
51 *5949:S1 *6029:S 6.27904e-06
52 *5957:S1 *5957:A2 7.9642e-06
53 *5957:S1 *746:45 6.34568e-05
54 *5958:S1 *5957:A3 8.88403e-05
55 *5958:S1 *5958:A1 7.06865e-05
56 *5958:S1 *5958:A2 6.45317e-05
57 *5958:S1 *6564:A 8.89751e-05
58 *5958:S1 *746:45 0.000553372
59 *5958:S1 *757:87 0.000192064
60 *5966:S1 *6541:A 0.000312083
61 *5975:S1 *5957:A2 3.3414e-05
62 *5975:S1 *5975:A1 0.000123295
63 *5975:S1 *5975:A3 0
64 *5975:S1 *6175:S 0.000249532
65 *5975:S1 *6325:CLK 8.30487e-05
66 *5975:S1 *6444:CLK 0.000604823
67 *5975:S1 *479:16 1.56428e-05
68 *5975:S1 *495:90 0.00026153
69 *5984:S1 *5986:A0 3.72916e-05
70 *5984:S1 *6169:A0 2.30292e-05
71 *5984:S1 *6170:A 0.000106005
72 *5984:S1 *428:121 0.00126938
73 *5984:S1 *724:43 0.000962453
74 *6260:A *5893:B 0.000537498
75 *6260:A *6226:A 8.65905e-05
76 *6260:A *6261:A0 1.77595e-05
77 *6260:A *6261:S 0
78 *6260:A *6264:B 9.72742e-06
79 *6260:A *6437:CLK 3.18219e-05
80 *6260:A *6450:D 0
81 *6260:A *6459:RESET_B 0
82 *6260:A *6517:A 7.4027e-05
83 *6260:A *6566:A 0
84 *6260:A *487:71 1.82476e-05
85 *6260:A *490:50 0
86 *6260:A *710:12 0.000185626
87 *6260:A *710:16 0.000313824
88 *6260:A *710:30 0
89 *6260:A *710:32 0
90 *6260:A *710:34 0
91 *6260:A *710:36 0
92 *6260:A *710:38 0
93 *6260:A *797:19 0.000318473
94 *6260:A *813:10 0
95 *6271:A2 *6264:B 3.29384e-05
96 *226:14 *5936:A 6.32842e-05
97 *226:14 *6254:A2 1.83756e-05
98 *226:14 *6670:A 5.44552e-05
99 *226:14 *411:30 8.69196e-05
100 *226:14 *480:14 0
101 *226:14 *680:14 0.000250667
102 *226:14 *711:115 7.69787e-05
103 *226:14 *790:14 3.09088e-05
104 *226:14 *791:14 4.82919e-05
105 *226:14 *791:35 0.000114912
106 *226:18 *6254:A2 1.47347e-05
107 *226:18 *6267:B 4.84155e-05
108 *226:18 *6670:A 2.86265e-06
109 *226:28 *6257:B 4.61744e-05
110 *226:28 *6264:B 7.00889e-06
111 *226:28 *6267:B 8.49205e-05
112 *226:28 *6271:B1 0
113 *226:28 *6276:B 0.000180675
114 *226:28 *237:24 0.000351152
115 *226:28 *437:12 6.54674e-05
116 *226:28 *797:19 0
117 *226:30 *6264:B 7.60965e-05
118 *226:30 *6271:B1 4.82863e-05
119 *226:83 *6201:A0 0.000118081
120 *226:83 *6201:A1 8.23457e-05
121 *226:83 *6201:S 4.00541e-06
122 *226:83 *6202:A 2.75229e-05
123 *226:83 *401:22 1.92187e-05
124 *226:83 *790:14 1.61831e-05
125 *226:83 *791:35 0.000236355
126 *226:85 *5920:A0 5.42473e-05
127 *226:85 *5993:A3 3.98865e-05
128 *226:85 *5994:A1 1.0183e-05
129 *226:85 *5994:S0 0
130 *226:85 *6149:A 0.000156621
131 *226:85 *6201:A1 0
132 *226:85 *6249:A1 0
133 *226:85 *636:111 0
134 *226:95 *5920:A0 5.92849e-05
135 *226:95 *5993:A3 4.18603e-06
136 *226:95 *6249:A0 0.000662828
137 *226:95 *6249:A1 0.00042877
138 *226:95 *6250:A 0.000162311
139 *226:95 *428:75 6.90876e-05
140 *226:95 *428:84 0.000173988
141 *226:114 *5967:A0 0
142 *226:114 *5967:A2 0.000289698
143 *226:114 *6541:A 3.09233e-05
144 *226:114 *625:51 0
145 *226:131 *5940:A2 1.7635e-05
146 *226:131 *5967:A1 7.96104e-06
147 *226:131 *5973:A0 0.00123717
148 *226:131 *712:53 0.00279715
149 *226:133 *5924:A3 9.3062e-06
150 *226:133 *5928:A0 0
151 *226:133 *6579:A 0
152 *226:133 *481:52 0.000103185
153 *226:133 *658:24 8.5225e-05
154 *226:135 *5924:A3 4.40812e-05
155 *226:135 *481:52 9.68709e-05
156 *226:135 *481:56 9.70985e-05
157 *226:170 *5940:A2 0.000111543
158 *226:170 *6579:A 0
159 *226:183 *5925:A0 0
160 *226:183 *5928:A0 0
161 *226:183 *6025:A0 2.67022e-05
162 *226:183 *6025:S 8.92272e-05
163 *226:183 *6117:A 0
164 *226:183 *237:124 0.000400381
165 *226:204 *5928:A0 0
166 *226:204 *5949:A1 5.65627e-05
167 *226:204 *5954:A0 0.000133698
168 *226:204 *6027:A0 0.000126167
169 *226:204 *6028:A 0.00025225
170 *226:204 *6029:S 0
171 *226:204 *6525:A 7.98631e-05
172 *226:204 *231:18 0
173 *226:204 *237:124 0.000306608
174 *226:204 *625:116 7.13792e-05
175 *226:219 *6028:A 6.50954e-05
176 *226:219 *6029:S 0
177 *226:219 *6120:A1 0
178 *226:219 *6241:A1 2.66935e-05
179 *226:219 *746:45 0
180 *226:240 *5957:A2 0.000158
181 *226:240 *5957:A3 6.34568e-05
182 *226:240 *6241:A1 0.000131968
183 *226:240 *746:45 4.78859e-05
184 *5898:B *6260:A 4.05358e-05
185 *5906:S *5939:S1 0
186 *5906:S *226:135 0
187 *5925:S0 *226:183 0
188 *5967:S0 *226:114 0
189 *6271:A1 *6263:B 9.42091e-06
190 *6271:A1 *6271:A2 1.65432e-05
191 *6271:A1 *226:28 3.90495e-05
192 *6271:A1 *226:30 3.7712e-05
193 *6325:D *5975:S1 9.26175e-06
194 *6429:D *5975:S1 1.43717e-05
195 *6435:D *6260:A 2.11084e-05
196 *6437:D *6260:A 6.55406e-05
197 *6443:D *5966:S1 6.28687e-05
198 *6446:D *226:95 3.29441e-05
199 *6468:D *226:14 4.99619e-05
200 *216:14 *5948:S1 0.000315132
201 *216:44 *226:114 0
202 *225:21 *226:85 0
203 *225:27 *226:85 0
204 *225:27 *226:95 0
205 *225:39 *226:95 0
206 *225:58 *5966:S1 8.25609e-05
207 *225:58 *226:114 0.000123759
208 *225:62 *226:114 0.00027446
209 *225:79 *226:114 0.000142669
210 *225:121 *226:135 0
211 *225:136 *226:133 0
212 *225:160 *226:114 3.05373e-05
213 *225:181 *226:219 0.00010131
214 *225:247 *226:18 0.000269236
215 *225:262 *226:28 4.82863e-05
*RES
1 *5923:X *226:4 1.6 
2 *226:4 *226:14 21.7 
3 *226:14 *226:18 5.895 
4 *226:18 *226:28 14.455 
5 *226:28 *226:30 1.14 
6 *226:30 *6271:A2 2.41 
7 *226:30 *6260:A 39.035 
8 *226:28 *6263:B 1.96 
9 *226:18 *6252:B 1.6 
10 *226:14 *6254:B1 2.215 
11 *226:4 *226:83 7.655 
12 *226:83 *226:85 12.6 
13 *226:85 *226:95 20.32 
14 *226:95 *5966:S1 7.275 
15 *226:95 *226:114 19.195 
16 *226:114 *5967:S1 3.6 
17 *226:114 *226:131 6.53243 
18 *226:131 *226:133 6.6075 
19 *226:133 *226:135 4.185 
20 *226:135 *5939:S1 7.53 
21 *226:135 *5984:S1 22.125 
22 *226:133 *5924:S1 3.6 
23 *226:131 *226:170 2.5575 
24 *226:170 *5940:S1 3.6 
25 *226:170 *226:183 8.82 
26 *226:183 *5925:S1 4.395 
27 *226:183 *226:204 22.1725 
28 *226:204 *5949:S1 4.5525 
29 *226:204 *226:219 9.4475 
30 *226:219 *5975:S1 21.325 
31 *226:219 *226:240 7.8275 
32 *226:240 *5958:S1 15.0525 
33 *226:240 *5957:S1 4.7925 
34 *226:85 *5993:S1 3.6 
35 *226:83 *5948:S1 16.05 
*END

*D_NET *227 0.00311917
*CONN
*I *5928:A0 I *D sky130_fd_sc_hd__mux2_1
*I *5924:X O *D sky130_fd_sc_hd__mux4_1
*CAP
1 *5928:A0 0.00100801
2 *5924:X 0.00100801
3 *5928:A0 *5924:A1 2.75145e-05
4 *5928:A0 *5925:A0 7.06865e-05
5 *5928:A0 *5928:A1 0.000163204
6 *5928:A0 *5941:A0 0
7 *5928:A0 *6117:A 0.000291372
8 *5928:A0 *6119:A 4.61658e-05
9 *5928:A0 *6236:A 1.61831e-05
10 *5928:A0 *6386:CLK 0.000159957
11 *5928:A0 *6499:A 0
12 *5928:A0 *6547:A 3.47754e-05
13 *5928:A0 *6579:A 0.000222595
14 *5928:A0 *481:29 0
15 *5928:A0 *481:52 0
16 *5928:A0 *584:12 7.06865e-05
17 *5928:A0 *735:105 0
18 *226:133 *5928:A0 0
19 *226:183 *5928:A0 0
20 *226:204 *5928:A0 0
*RES
1 *5924:X *5928:A0 25.395 
*END

*D_NET *228 0.00040494
*CONN
*I *5928:A1 I *D sky130_fd_sc_hd__mux2_1
*I *5925:X O *D sky130_fd_sc_hd__mux4_1
*CAP
1 *5928:A1 0.000115037
2 *5925:X 0.000115037
3 *5928:A1 *5925:A0 5.83121e-06
4 *5928:A1 *6499:A 5.83121e-06
5 *5928:A0 *5928:A1 0.000163204
*RES
1 *5925:X *5928:A1 5.375 
*END

*D_NET *229 0.00432657
*CONN
*I *5998:S I *D sky130_fd_sc_hd__mux2_1
*I *5927:A I *D sky130_fd_sc_hd__buf_8
*I *5926:Y O *D sky130_fd_sc_hd__inv_2
*CAP
1 *5998:S 0.00118497
2 *5927:A 9.60138e-05
3 *5926:Y 6.08641e-05
4 *229:6 0.00134184
5 *5927:A *5926:A 0
6 *5927:A *709:177 0
7 *5927:A *712:39 5.20968e-05
8 *5998:S *5910:A0 0.000434245
9 *5998:S *5998:A0 8.65961e-05
10 *5998:S *5998:A1 3.70572e-05
11 *5998:S *6174:A 4.82919e-05
12 *5998:S *6209:A0 0.000199362
13 *5998:S *479:51 0.000538544
14 *5998:S *709:185 3.94429e-05
15 *229:6 *6174:A 8.65905e-05
16 *229:6 *709:185 1.61831e-05
17 *5910:S *5998:S 3.79651e-05
18 *5911:A *5998:S 1.34503e-05
19 *216:14 *5998:S 5.30541e-05
*RES
1 *5926:Y *229:6 2.74 
2 *229:6 *5927:A 7.34 
3 *229:6 *5998:S 24.16 
*END

*D_NET *230 0.0516237
*CONN
*I *6258:A I *D sky130_fd_sc_hd__or3_1
*I *6276:A I *D sky130_fd_sc_hd__or4_1
*I *6267:A I *D sky130_fd_sc_hd__and2_1
*I *5968:S I *D sky130_fd_sc_hd__mux2_1
*I *5980:S I *D sky130_fd_sc_hd__mux2_1
*I *5962:S I *D sky130_fd_sc_hd__mux2_1
*I *5933:S I *D sky130_fd_sc_hd__mux2_1
*I *5944:S I *D sky130_fd_sc_hd__mux2_1
*I *5950:S I *D sky130_fd_sc_hd__mux2_1
*I *5928:S I *D sky130_fd_sc_hd__mux2_1
*I *5941:S I *D sky130_fd_sc_hd__mux2_1
*I *5989:S I *D sky130_fd_sc_hd__mux2_1
*I *5959:S I *D sky130_fd_sc_hd__mux2_1
*I *5953:S I *D sky130_fd_sc_hd__mux2_1
*I *5971:S I *D sky130_fd_sc_hd__mux2_1
*I *5977:S I *D sky130_fd_sc_hd__mux2_1
*I *5986:S I *D sky130_fd_sc_hd__mux2_1
*I *5995:S I *D sky130_fd_sc_hd__mux2_1
*I *5927:X O *D sky130_fd_sc_hd__buf_8
*CAP
1 *6258:A 0.0002874
2 *6276:A 0
3 *6267:A 0.000123949
4 *5968:S 0.000125861
5 *5980:S 0.00038173
6 *5962:S 0.000501374
7 *5933:S 0
8 *5944:S 0.000431192
9 *5950:S 0.000910561
10 *5928:S 2.43002e-05
11 *5941:S 0.00031709
12 *5989:S 0
13 *5959:S 3.58483e-05
14 *5953:S 0
15 *5971:S 0
16 *5977:S 4.76534e-05
17 *5986:S 0.000651727
18 *5995:S 0.000151379
19 *5927:X 0.000216898
20 *230:271 0.000225281
21 *230:263 0.0011093
22 *230:211 0.000864331
23 *230:157 0.000463138
24 *230:155 0.00135264
25 *230:140 0.000901256
26 *230:128 0.00187644
27 *230:122 0.00200189
28 *230:111 0.00152698
29 *230:98 0.00142939
30 *230:91 0.00167376
31 *230:81 0.00204639
32 *230:66 0.00203071
33 *230:41 0.00218782
34 *230:37 0.00159056
35 *230:16 0.00286877
36 *230:8 0.00244695
37 *5928:S *6499:A 2.75145e-05
38 *5941:S *6116:S 0.000199353
39 *5941:S *6386:CLK 0
40 *5941:S *6499:A 7.18452e-06
41 *5941:S *481:29 0
42 *5941:S *724:107 0.000135524
43 *5941:S *724:124 0.00056705
44 *5944:S *5935:A0 4.40899e-05
45 *5944:S *6089:S 0.000561727
46 *5944:S *351:119 0.000116165
47 *5950:S *5950:A1 3.07922e-05
48 *5950:S *6384:CLK 0.000115474
49 *5950:S *309:101 0.000159843
50 *5950:S *482:29 7.04021e-05
51 *5950:S *482:42 2.90068e-05
52 *5950:S *724:124 0.000252005
53 *5959:S *5963:A0 3.45588e-05
54 *5962:S *5933:A1 2.49909e-05
55 *5962:S *5963:A1 0
56 *5962:S *5963:S 0.000208491
57 *5962:S *6103:S 0
58 *5962:S *6373:CLK 0.000281796
59 *5962:S *6549:A 3.74161e-05
60 *5962:S *6556:A 0.000231571
61 *5962:S *351:111 0
62 *5968:S *239:180 5.16211e-05
63 *5977:S *5976:A2 1.34594e-05
64 *5977:S *5977:A0 8.65905e-05
65 *5977:S *5977:A1 4.65831e-05
66 *5980:S *5980:A0 3.72916e-05
67 *5980:S *6105:A0 1.47256e-05
68 *5980:S *6105:A1 5.83121e-06
69 *5980:S *6106:A 3.72916e-05
70 *5980:S *351:52 1.79483e-05
71 *5986:S *5986:A1 0.000247613
72 *5986:S *5990:A0 2.49909e-05
73 *5986:S *6146:A0 8.40269e-05
74 *5986:S *6146:A1 4.66108e-05
75 *5986:S *372:64 0.000517899
76 *5995:S *5995:A1 0
77 *5995:S *6130:S 1.93834e-05
78 *5995:S *6543:A 0
79 *6258:A *6253:A 5.23362e-05
80 *6258:A *6255:B 9.78798e-05
81 *6258:A *6258:B 0.000117832
82 *6258:A *6258:C 0
83 *6258:A *6259:B 0.000117832
84 *6258:A *239:117 0.000332809
85 *6258:A *713:8 0
86 *6267:A *6267:B 0.000163487
87 *6267:A *6269:A0 1.83756e-05
88 *6267:A *6670:A 0.000250672
89 *6267:A *437:12 0.000158297
90 *230:8 *411:30 0
91 *230:8 *709:185 0.000166943
92 *230:8 *709:187 7.35868e-05
93 *230:16 *5995:A1 0
94 *230:16 *6130:A1 0.00011379
95 *230:16 *6130:S 0.000299739
96 *230:16 *287:22 0.000233801
97 *230:16 *479:30 0
98 *230:16 *636:90 0.000158465
99 *230:16 *712:53 0
100 *230:37 *239:180 0.000108569
101 *230:37 *712:53 0.000652687
102 *230:41 *5967:A1 3.983e-05
103 *230:41 *6595:A 4.11194e-05
104 *230:41 *625:51 0.000501612
105 *230:41 *625:66 2.07184e-05
106 *230:66 *5977:A0 0.000340858
107 *230:66 *6036:A 2.75538e-05
108 *230:66 *6126:A1 0
109 *230:66 *6199:A1 0
110 *230:66 *6246:A 0
111 *230:66 *6444:CLK 0
112 *230:66 *6615:A 4.19715e-05
113 *230:66 *232:25 0.000353634
114 *230:66 *232:58 0.000819685
115 *230:66 *309:52 0
116 *230:66 *589:8 2.66935e-05
117 *230:66 *625:66 0.000373258
118 *230:66 *746:99 0
119 *230:66 *768:44 0
120 *230:81 *5976:A2 6.10014e-05
121 *230:81 *6033:S 0
122 *230:81 *6086:A 4.91189e-05
123 *230:81 *6105:A1 0
124 *230:81 *6126:A1 0
125 *230:81 *232:58 0.000127366
126 *230:81 *232:69 0.00121987
127 *230:81 *232:278 4.01548e-05
128 *230:81 *233:66 0
129 *230:91 *5970:A0 3.67779e-05
130 *230:91 *5971:A0 4.97141e-05
131 *230:91 *5971:A1 7.4027e-05
132 *230:91 *6160:A0 6.04726e-05
133 *230:91 *6160:A1 1.46744e-05
134 *230:91 *6160:S 8.49205e-05
135 *230:91 *232:81 2.34083e-05
136 *230:91 *233:66 0.000574279
137 *230:91 *270:12 0
138 *230:91 *484:34 0
139 *230:98 *5954:A1 0.000120655
140 *230:98 *6311:A 0.000124895
141 *230:98 *232:103 0.000466229
142 *230:98 *233:169 0.000230435
143 *230:111 *6005:A 2.67022e-05
144 *230:111 *6157:A 9.13117e-05
145 *230:111 *6404:CLK 0
146 *230:111 *233:169 0.000112349
147 *230:111 *298:73 0
148 *230:111 *298:77 0
149 *230:111 *382:53 6.20952e-05
150 *230:111 *382:68 2.28346e-05
151 *230:111 *486:57 0
152 *230:122 *5963:A0 0.000371286
153 *230:122 *485:10 0.000237249
154 *230:128 *5942:A0 0.000291372
155 *230:128 *5942:S0 1.93806e-05
156 *230:128 *5988:S1 0.000467259
157 *230:128 *5989:A0 0
158 *230:128 *6043:A0 4.05358e-05
159 *230:128 *6043:S 0.000407292
160 *230:128 *6072:A 7.23533e-05
161 *230:128 *6539:A 0.000231571
162 *230:128 *232:167 3.14777e-05
163 *230:128 *233:181 0
164 *230:128 *233:191 0
165 *230:128 *329:87 0
166 *230:140 *5988:A3 0.000345429
167 *230:140 *5988:S1 0
168 *230:140 *5989:A0 4.85568e-05
169 *230:140 *5989:A1 1.61831e-05
170 *230:140 *6089:S 0.000278117
171 *230:140 *6164:A1 0
172 *230:140 *6319:A 3.04778e-05
173 *230:140 *237:150 0.00018305
174 *230:140 *482:76 4.99619e-05
175 *230:140 *735:117 0
176 *230:155 *5989:A1 5.30673e-05
177 *230:155 *6110:A 0.000209255
178 *230:155 *482:76 0.000118046
179 *230:155 *482:93 1.31519e-05
180 *230:157 *6499:A 1.73877e-05
181 *230:157 *482:18 4.82018e-05
182 *230:157 *482:29 7.45881e-05
183 *230:157 *724:124 0.000358937
184 *230:211 *5931:A0 8.49205e-05
185 *230:211 *5933:A0 0.000123295
186 *230:211 *5933:A1 2.75145e-05
187 *230:211 *5963:A0 0
188 *230:211 *6060:A 0.000146881
189 *230:211 *6549:A 0.000312176
190 *230:211 *233:181 0
191 *230:211 *329:85 1.61461e-05
192 *230:211 *329:87 1.22762e-05
193 *230:211 *724:164 0.000175848
194 *230:263 *6256:A 0.000325557
195 *230:263 *6467:RESET_B 2.34022e-05
196 *230:263 *239:6 0.000121287
197 *230:271 *6253:B 0.00013505
198 *230:271 *239:6 2.49909e-05
199 *230:271 *239:10 0.000108876
200 *5916:S *230:66 8.44359e-05
201 *6338:D *230:111 0.000139933
202 *6352:D *230:66 0.000114565
203 *6368:D *230:128 0.000185324
204 *6373:D *5962:S 8.09497e-05
205 *6380:D *230:91 0
206 *6392:D *5986:S 4.47209e-05
207 *6404:D *230:111 0.000159964
208 *6418:D *5986:S 5.4155e-06
209 *6468:D *230:263 5.05437e-05
210 *6470:D *6258:A 0
211 *16:5 *230:111 0.000380483
212 *225:245 *6258:A 0
213 *225:262 *6267:A 0.000158297
*RES
1 *5927:X *230:8 8.4225 
2 *230:8 *230:16 7.62633 
3 *230:16 *5995:S 5.3625 
4 *230:16 *230:37 8.0629 
5 *230:37 *230:41 8.225 
6 *230:41 *5986:S 14.22 
7 *230:41 *230:66 30.075 
8 *230:66 *5977:S 5.115 
9 *230:66 *230:81 16.935 
10 *230:81 *230:91 19.44 
11 *230:91 *5971:S 1.6 
12 *230:91 *230:98 14.595 
13 *230:98 *5953:S 1.6 
14 *230:98 *230:111 19.78 
15 *230:111 *5959:S 2.395 
16 *230:111 *230:122 13.23 
17 *230:122 *230:128 25.525 
18 *230:128 *230:140 14.41 
19 *230:140 *5989:S 1.6 
20 *230:140 *230:155 8.45 
21 *230:155 *230:157 4.185 
22 *230:157 *5941:S 11.865 
23 *230:157 *5928:S 4.05 
24 *230:155 *5950:S 16.89 
25 *230:128 *5944:S 12.26 
26 *230:122 *230:211 13.48 
27 *230:211 *5933:S 1.6 
28 *230:211 *5962:S 16.61 
29 *230:81 *5980:S 9.915 
30 *230:37 *5968:S 3.445 
31 *230:8 *230:263 13.985 
32 *230:263 *230:271 2.52 
33 *230:271 *6267:A 10.025 
34 *230:271 *6276:A 1.6 
35 *230:263 *6258:A 12.635 
*END

*D_NET *231 0.00797314
*CONN
*I *5935:A0 I *D sky130_fd_sc_hd__mux2_1
*I *5928:X O *D sky130_fd_sc_hd__mux2_1
*CAP
1 *5935:A0 0.000981038
2 *5928:X 0.00185963
3 *231:18 0.00284067
4 *5935:A0 *5944:A0 0.000102125
5 *5935:A0 *5945:A0 0
6 *5935:A0 *6062:A 0.000117832
7 *5935:A0 *6071:A0 0.000171675
8 *5935:A0 *6646:A 0
9 *5935:A0 *237:169 0.00103945
10 *5935:A0 *351:111 0
11 *5935:A0 *351:119 0
12 *5935:A0 *724:179 0
13 *231:18 *5945:A0 0
14 *231:18 *6100:A 0.000290461
15 *231:18 *6109:S 1.92979e-05
16 *231:18 *6164:A0 8.76499e-05
17 *231:18 *6164:S 5.34747e-05
18 *231:18 *6165:A 2.11084e-05
19 *231:18 *6346:CLK 8.03844e-05
20 *231:18 *6574:A 4.65607e-05
21 *231:18 *351:119 0
22 *231:18 *470:52 0
23 *231:18 *482:18 0
24 *231:18 *482:29 0
25 *231:18 *622:12 0.000122248
26 *5944:S *5935:A0 4.40899e-05
27 *6379:D *231:18 9.54469e-05
28 *226:204 *231:18 0
*RES
1 *5928:X *231:18 33.2875 
2 *231:18 *5935:A0 27.3675 
*END

*D_NET *232 0.0530043
*CONN
*I *5985:S0 I *D sky130_fd_sc_hd__mux4_1
*I *5978:S0 I *D sky130_fd_sc_hd__mux4_1
*I *5996:S0 I *D sky130_fd_sc_hd__mux4_1
*I *5979:S0 I *D sky130_fd_sc_hd__mux4_1
*I *5970:S0 I *D sky130_fd_sc_hd__mux4_1
*I *5969:S0 I *D sky130_fd_sc_hd__mux4_1
*I *5960:S0 I *D sky130_fd_sc_hd__mux4_1
*I *5961:S0 I *D sky130_fd_sc_hd__mux4_1
*I *5931:S0 I *D sky130_fd_sc_hd__mux4_1
*I *5987:S0 I *D sky130_fd_sc_hd__mux4_1
*I *5943:S0 I *D sky130_fd_sc_hd__mux4_1
*I *5932:S0 I *D sky130_fd_sc_hd__mux4_1
*I *5942:S0 I *D sky130_fd_sc_hd__mux4_1
*I *5951:S0 I *D sky130_fd_sc_hd__mux4_1
*I *5952:S0 I *D sky130_fd_sc_hd__mux4_1
*I *5976:S0 I *D sky130_fd_sc_hd__mux4_1
*I *5988:S0 I *D sky130_fd_sc_hd__mux4_1
*I *5994:S0 I *D sky130_fd_sc_hd__mux4_1
*I *5929:X O *D sky130_fd_sc_hd__buf_8
*CAP
1 *5985:S0 0.000188882
2 *5978:S0 0.000440648
3 *5996:S0 0.000920612
4 *5979:S0 3.80853e-05
5 *5970:S0 0
6 *5969:S0 0.000352489
7 *5960:S0 2.30828e-05
8 *5961:S0 0.000679419
9 *5931:S0 0
10 *5987:S0 9.73191e-06
11 *5943:S0 0.000161582
12 *5932:S0 0.00122944
13 *5942:S0 4.16375e-05
14 *5951:S0 2.60526e-05
15 *5952:S0 0.000135756
16 *5976:S0 9.73191e-06
17 *5988:S0 0.00201115
18 *5994:S0 0.000194364
19 *5929:X 0
20 *232:289 0.00161111
21 *232:278 0.000769056
22 *232:184 0.00183055
23 *232:167 0.00127547
24 *232:157 0.00140085
25 *232:151 0.000944409
26 *232:143 0.00157616
27 *232:141 0.00153101
28 *232:118 0.00139711
29 *232:103 0.0016804
30 *232:85 0.00157251
31 *232:81 0.000605614
32 *232:69 0.00161449
33 *232:58 0.00154007
34 *232:25 0.00316155
35 *232:21 0.00190214
36 *232:4 0.00167216
37 *5932:S0 *5932:A0 0
38 *5932:S0 *5932:A1 0.000109845
39 *5932:S0 *5944:A1 8.19282e-05
40 *5932:S0 *6061:A1 0.000264477
41 *5932:S0 *6079:A0 4.05358e-05
42 *5932:S0 *6080:A 4.05358e-05
43 *5932:S0 *6089:S 0
44 *5932:S0 *6306:S 0
45 *5932:S0 *6527:A 0
46 *5932:S0 *6644:A 0.000231571
47 *5932:S0 *339:81 0
48 *5932:S0 *351:111 0.000204603
49 *5932:S0 *351:119 2.7881e-05
50 *5942:S0 *5988:S1 8.53113e-06
51 *5943:S0 *5943:A0 0.000167595
52 *5943:S0 *5944:A1 8.31532e-05
53 *5943:S0 *6089:S 0.000177868
54 *5951:S0 *5951:A0 6.68538e-05
55 *5951:S0 *5951:A2 1.17309e-05
56 *5952:S0 *5952:A0 1.22762e-05
57 *5952:S0 *5952:A2 8.65961e-05
58 *5952:S0 *5952:A3 0
59 *5952:S0 *5952:S1 0
60 *5952:S0 *351:101 8.8266e-05
61 *5952:S0 *746:31 0
62 *5960:S0 *5960:A1 0.000163204
63 *5960:S0 *5960:A3 0.000163204
64 *5961:S0 *5961:A1 0.000140905
65 *5961:S0 *5962:A1 0.000111103
66 *5961:S0 *351:111 0.000201511
67 *5969:S0 *5969:A3 1.43521e-05
68 *5969:S0 *6068:A 0
69 *5969:S0 *6105:A0 0
70 *5969:S0 *6358:CLK 0.000185405
71 *5969:S0 *6492:CLK 0.000485623
72 *5969:S0 *233:81 0
73 *5969:S0 *768:32 0.000152413
74 *5976:S0 *5976:A3 4.82863e-05
75 *5976:S0 *233:45 4.82863e-05
76 *5978:S0 *5978:A3 1.89685e-05
77 *5978:S0 *5979:S1 5.12575e-05
78 *5978:S0 *6014:S 0
79 *5978:S0 *6070:A 0
80 *5978:S0 *233:106 4.12565e-05
81 *5978:S0 *298:33 0
82 *5978:S0 *460:31 0.000162325
83 *5985:S0 *5985:A0 0.000129119
84 *5985:S0 *5985:A2 3.82323e-06
85 *5987:S0 *5987:A2 4.82863e-05
86 *5987:S0 *5987:A3 4.82863e-05
87 *5988:S0 *5985:A1 3.52139e-06
88 *5988:S0 *5985:A3 4.39468e-05
89 *5988:S0 *5988:A3 2.13472e-05
90 *5988:S0 *5989:A0 7.68851e-05
91 *5988:S0 *6036:A 4.99619e-05
92 *5988:S0 *6630:A 6.77417e-05
93 *5988:S0 *309:52 0.000158066
94 *5988:S0 *470:40 0.00301777
95 *5988:S0 *669:14 0.000643204
96 *5988:S0 *768:44 8.11114e-05
97 *5994:S0 *5994:A0 8.53113e-06
98 *5994:S0 *5994:A1 0
99 *5994:S0 *5997:S0 7.3151e-05
100 *5994:S0 *6201:A0 5.21311e-05
101 *5994:S0 *428:75 0.000357862
102 *5994:S0 *790:33 0.000122923
103 *5996:S0 *5979:A1 2.56012e-05
104 *5996:S0 *5996:A1 5.84694e-05
105 *5996:S0 *5996:A2 4.82863e-05
106 *5996:S0 *6074:A 0
107 *5996:S0 *319:12 6.47516e-05
108 *232:21 *5985:A2 1.04217e-05
109 *232:21 *5997:S0 6.05513e-05
110 *232:21 *6353:CLK 1.1392e-05
111 *232:21 *6400:CLK 0.000114026
112 *232:21 *6506:A 1.83847e-05
113 *232:21 *489:21 7.68414e-06
114 *232:25 *5985:A1 0.000472736
115 *232:25 *233:45 0
116 *232:58 *233:45 0.000294017
117 *232:69 *5976:A0 0
118 *232:69 *5976:A1 0
119 *232:69 *5981:A0 0
120 *232:69 *6087:A0 0
121 *232:69 *6162:A0 0
122 *232:69 *6197:A0 0
123 *232:69 *6572:A 0
124 *232:81 *5970:A0 7.35813e-05
125 *232:81 *5970:A3 0
126 *232:81 *6105:A1 0.000157595
127 *232:81 *233:66 6.2061e-05
128 *232:81 *351:79 4.80182e-05
129 *232:81 *768:32 0
130 *232:81 *768:36 1.56428e-05
131 *232:81 *768:38 7.5416e-05
132 *232:85 *351:79 1.73506e-05
133 *232:85 *768:32 8.52172e-05
134 *232:103 *5970:A1 0.00023301
135 *232:103 *270:12 4.82863e-05
136 *232:103 *620:6 4.66108e-05
137 *232:118 *5951:A1 1.0183e-05
138 *232:118 *5952:S1 0
139 *232:118 *6101:A0 0
140 *232:118 *6311:A 0
141 *232:118 *6490:CLK 0
142 *232:118 *233:150 0
143 *232:118 *757:56 0
144 *232:141 *5951:A0 0.00019568
145 *232:141 *5951:A2 6.78922e-05
146 *232:141 *5953:A0 4.80285e-05
147 *232:141 *5960:A0 3.50599e-05
148 *232:141 *5960:A3 0.000234685
149 *232:141 *6294:A0 0.000158072
150 *232:141 *6294:S 9.77597e-05
151 *232:141 *6295:A 0.000159259
152 *232:141 *319:105 0
153 *232:141 *486:93 8.40213e-05
154 *232:143 *5960:A2 0
155 *232:143 *5960:S1 0
156 *232:143 *6010:A0 7.23602e-05
157 *232:143 *233:171 0
158 *232:143 *319:105 6.50116e-05
159 *232:143 *486:34 2.23407e-05
160 *232:143 *528:12 0.000108322
161 *232:151 *5931:A0 5.74121e-06
162 *232:151 *5931:A1 0
163 *232:151 *5931:A2 6.90889e-06
164 *232:151 *5931:A3 6.1357e-05
165 *232:151 *233:171 0
166 *232:151 *233:175 4.40812e-05
167 *232:151 *486:34 0.000159781
168 *232:151 *528:12 8.53113e-06
169 *232:157 *5931:A1 8.53113e-06
170 *232:157 *5931:A3 4.66108e-05
171 *232:157 *5987:A0 0.000321727
172 *232:157 *6053:A1 0.000170939
173 *232:157 *6288:A0 0.00015829
174 *232:157 *6502:A 6.47516e-05
175 *232:157 *6651:A 0.000129056
176 *232:157 *319:109 0.000173203
177 *232:157 *460:78 0
178 *232:157 *460:80 0
179 *232:157 *479:238 0.000103401
180 *232:157 *485:10 0
181 *232:157 *625:142 3.4599e-05
182 *232:157 *724:151 7.08316e-05
183 *232:167 *5942:A0 4.51961e-05
184 *232:167 *5942:A2 4.10827e-05
185 *232:167 *5987:A0 4.43871e-06
186 *232:167 *6043:A0 7.23602e-05
187 *232:167 *6043:S 0.000227543
188 *232:167 *6290:S 0
189 *232:167 *6300:A0 9.30717e-05
190 *232:167 *6355:CLK 0.000100544
191 *232:167 *237:169 0
192 *232:167 *485:90 2.4997e-05
193 *232:167 *625:142 0.000112097
194 *232:184 *5942:A2 5.08304e-06
195 *232:184 *5942:A3 6.65612e-05
196 *232:184 *5944:A1 3.45679e-05
197 *232:184 *5945:A0 0.00017554
198 *232:184 *5988:S1 0.00017664
199 *232:184 *6089:S 0.000585533
200 *232:184 *6570:A 1.16578e-05
201 *232:184 *6646:A 0.000124532
202 *232:184 *237:150 0.000179987
203 *232:278 *5979:S1 1.02346e-05
204 *232:278 *351:52 0.000322647
205 *232:278 *479:188 0.000390436
206 *232:278 *492:8 0
207 *232:289 *5979:S1 0.000155013
208 *232:289 *6493:CLK 0
209 *5916:S *232:58 0.000159262
210 *6327:D *232:58 0.000139238
211 *6351:D *232:69 0
212 *6352:D *5988:S0 4.65698e-05
213 *6366:D *5969:S0 0
214 *6369:D *5996:S0 0.000124007
215 *6381:D *5961:S0 3.00381e-05
216 *6400:D *232:21 2.85827e-05
217 *6490:D *232:118 0.000139238
218 *6493:D *5996:S0 3.51254e-06
219 *6493:D *232:289 4.94326e-05
220 *226:85 *5994:S0 0
221 *230:66 *232:25 0.000353634
222 *230:66 *232:58 0.000819685
223 *230:81 *232:58 0.000127366
224 *230:81 *232:69 0.00121987
225 *230:81 *232:278 4.01548e-05
226 *230:91 *232:81 2.34083e-05
227 *230:98 *232:103 0.000466229
228 *230:128 *5942:S0 1.93806e-05
229 *230:128 *232:167 3.14777e-05
*RES
1 *5929:X *232:4 1.6 
2 *232:4 *5994:S0 10.925 
3 *232:4 *232:21 16.935 
4 *232:21 *232:25 9.5 
5 *232:25 *5988:S0 20.1255 
6 *232:25 *232:58 22.08 
7 *232:58 *5976:S0 4.05 
8 *232:58 *232:69 14.13 
9 *232:69 *232:81 14.04 
10 *232:81 *232:85 3.89 
11 *232:85 *232:103 20.68 
12 *232:103 *5952:S0 6.285 
13 *232:103 *232:118 8.735 
14 *232:118 *5951:S0 2.41 
15 *232:118 *232:141 19.775 
16 *232:141 *232:143 9.795 
17 *232:143 *232:151 7.865 
18 *232:151 *232:157 17.6 
19 *232:157 *232:167 17.0125 
20 *232:167 *5942:S0 4.5375 
21 *232:167 *232:184 14.3225 
22 *232:184 *5932:S0 30.215 
23 *232:184 *5943:S0 5.98 
24 *232:157 *5987:S0 4.05 
25 *232:151 *5931:S0 1.6 
26 *232:143 *5961:S0 16.02 
27 *232:141 *5960:S0 5.085 
28 *232:85 *5969:S0 12.375 
29 *232:81 *5970:S0 1.6 
30 *232:69 *232:278 3.46967 
31 *232:278 *5979:S0 4.05 
32 *232:278 *232:289 4.8225 
33 *232:289 *5996:S0 19.9975 
34 *232:289 *5978:S0 11.7825 
35 *232:21 *5985:S0 4.135 
*END

*D_NET *233 0.0467127
*CONN
*I *5985:S1 I *D sky130_fd_sc_hd__mux4_1
*I *5960:S1 I *D sky130_fd_sc_hd__mux4_1
*I *5932:S1 I *D sky130_fd_sc_hd__mux4_1
*I *5943:S1 I *D sky130_fd_sc_hd__mux4_1
*I *5961:S1 I *D sky130_fd_sc_hd__mux4_1
*I *5931:S1 I *D sky130_fd_sc_hd__mux4_1
*I *5987:S1 I *D sky130_fd_sc_hd__mux4_1
*I *5988:S1 I *D sky130_fd_sc_hd__mux4_1
*I *5942:S1 I *D sky130_fd_sc_hd__mux4_1
*I *5952:S1 I *D sky130_fd_sc_hd__mux4_1
*I *5951:S1 I *D sky130_fd_sc_hd__mux4_1
*I *5978:S1 I *D sky130_fd_sc_hd__mux4_1
*I *5996:S1 I *D sky130_fd_sc_hd__mux4_1
*I *5979:S1 I *D sky130_fd_sc_hd__mux4_1
*I *5969:S1 I *D sky130_fd_sc_hd__mux4_1
*I *5970:S1 I *D sky130_fd_sc_hd__mux4_1
*I *5976:S1 I *D sky130_fd_sc_hd__mux4_1
*I *5994:S1 I *D sky130_fd_sc_hd__mux4_1
*I *5930:X O *D sky130_fd_sc_hd__buf_6
*CAP
1 *5985:S1 0.000618728
2 *5960:S1 0.000418542
3 *5932:S1 4.13562e-05
4 *5943:S1 0.00124624
5 *5961:S1 0.000108467
6 *5931:S1 4.59691e-05
7 *5987:S1 1.76615e-05
8 *5988:S1 0.000437233
9 *5942:S1 9.64682e-05
10 *5952:S1 0.00015539
11 *5951:S1 2.98594e-05
12 *5978:S1 0
13 *5996:S1 0.000640458
14 *5979:S1 0.000332084
15 *5969:S1 0
16 *5970:S1 0
17 *5976:S1 0
18 *5994:S1 0.000116417
19 *5930:X 2.22788e-05
20 *233:264 0.00195816
21 *233:247 0.00131737
22 *233:191 0.000955138
23 *233:181 0.00122684
24 *233:175 0.000998496
25 *233:171 0.00105424
26 *233:169 0.00179838
27 *233:150 0.00145589
28 *233:139 0.00177497
29 *233:106 0.00134057
30 *233:98 0.00145148
31 *233:92 0.00258751
32 *233:81 0.000564564
33 *233:66 0.00154617
34 *233:45 0.00284288
35 *233:31 0.00329371
36 *233:6 0.000983137
37 *5931:S1 *5931:A0 3.31103e-05
38 *5932:S1 *5932:A1 3.45588e-05
39 *5942:S1 *5942:A1 0.000194868
40 *5942:S1 *5942:A2 2.20665e-05
41 *5942:S1 *6043:A0 8.1344e-05
42 *5943:S1 *5932:A2 0
43 *5943:S1 *5932:A3 0
44 *5943:S1 *5944:A1 3.31103e-05
45 *5943:S1 *6152:A1 4.70343e-05
46 *5943:S1 *6306:A0 0
47 *5943:S1 *382:74 0
48 *5943:S1 *382:80 4.18603e-06
49 *5943:S1 *735:162 0.00027878
50 *5952:S1 *5952:A1 6.36578e-05
51 *5952:S1 *5952:A3 0
52 *5952:S1 *5954:A1 3.12378e-05
53 *5952:S1 *6311:A 4.43871e-06
54 *5960:S1 *5960:A1 3.05373e-05
55 *5960:S1 *5960:A2 6.25753e-05
56 *5960:S1 *5962:A0 0
57 *5960:S1 *6066:A 0
58 *5960:S1 *6104:A 9.07234e-05
59 *5960:S1 *329:85 6.65606e-05
60 *5961:S1 *6083:S 0
61 *5961:S1 *515:10 0
62 *5979:S1 *6317:A 0.000293726
63 *5979:S1 *470:100 0
64 *5979:S1 *779:43 0
65 *5979:S1 *779:54 7.17418e-05
66 *5985:S1 *5985:A0 4.41506e-05
67 *5985:S1 *362:51 0.000114492
68 *5985:S1 *372:30 0
69 *5985:S1 *372:64 0.000218883
70 *5985:S1 *372:74 2.30292e-05
71 *5987:S1 *5987:A2 2.42236e-05
72 *5987:S1 *5989:A0 1.03592e-05
73 *5987:S1 *6071:A1 5.53249e-06
74 *5988:S1 *5945:A0 0
75 *5988:S1 *5988:A0 0.000104575
76 *5988:S1 *6164:A1 0.000199158
77 *5988:S1 *6319:A 0.000138791
78 *5988:S1 *6570:A 4.49939e-05
79 *5988:S1 *237:150 0.000241863
80 *5988:S1 *482:93 0.000154658
81 *5994:S1 *6130:S 7.96023e-05
82 *5994:S1 *6195:S 4.66826e-05
83 *5994:S1 *636:84 0.000201714
84 *5996:S1 *6345:CLK 4.9253e-06
85 *5996:S1 *292:12 6.71882e-05
86 *233:6 *5997:S1 4.82863e-05
87 *233:31 *5994:A1 9.93698e-05
88 *233:31 *5997:S1 0.00010978
89 *233:31 *6147:A 4.99619e-05
90 *233:31 *6353:CLK 0.000134209
91 *233:31 *372:74 0.000694329
92 *233:45 *5975:A2 0.000289698
93 *233:45 *5976:A2 3.96999e-05
94 *233:45 *5976:A3 8.43946e-05
95 *233:45 *5981:A0 0
96 *233:45 *5981:S 0
97 *233:45 *5985:A1 0.000166269
98 *233:45 *6126:A1 1.82563e-05
99 *233:45 *6147:A 0
100 *233:45 *6175:S 0.000114492
101 *233:45 *6179:A0 0
102 *233:45 *6352:CLK 0
103 *233:45 *6518:A 0
104 *233:45 *6587:A 4.05358e-05
105 *233:45 *6626:A 0.000227543
106 *233:45 *779:79 0
107 *233:45 *779:81 0
108 *233:66 *5970:A2 4.43871e-06
109 *233:66 *5970:A3 5.12942e-05
110 *233:66 *6033:S 0.000162325
111 *233:66 *6086:A 6.28843e-05
112 *233:66 *6126:A1 0.000229592
113 *233:66 *6160:A1 0.000160635
114 *233:66 *6160:S 8.53113e-06
115 *233:66 *270:12 5.84902e-05
116 *233:66 *768:32 0
117 *233:66 *768:36 0.000235568
118 *233:66 *768:38 0
119 *233:66 *768:44 0
120 *233:81 *5969:A0 3.31204e-05
121 *233:81 *5970:A2 4.46758e-05
122 *233:81 *5971:A0 0
123 *233:81 *6068:A 0.000154223
124 *233:81 *6553:A 0.000102411
125 *233:81 *6589:A 0.00022921
126 *233:81 *270:12 5.44581e-05
127 *233:81 *768:32 0
128 *233:92 *6068:A 7.70758e-05
129 *233:98 *5969:A0 6.70179e-06
130 *233:98 *5969:A2 0.000448095
131 *233:98 *5978:A0 0.000146144
132 *233:98 *540:6 4.82863e-05
133 *233:106 *6070:A 0.000139238
134 *233:106 *779:33 0.000243894
135 *233:106 *779:43 0
136 *233:139 *5951:A0 4.91189e-05
137 *233:139 *5969:A0 1.20414e-05
138 *233:139 *6008:A0 8.22234e-06
139 *233:139 *6063:S 0.000121884
140 *233:139 *6364:CLK 0.000174595
141 *233:150 *5951:A0 2.9664e-05
142 *233:150 *5952:A1 6.28643e-05
143 *233:150 *5953:A0 0
144 *233:150 *6063:S 7.3664e-05
145 *233:150 *6311:A 0.000168753
146 *233:150 *6613:A 8.89971e-05
147 *233:171 *6041:A0 7.23602e-05
148 *233:171 *6104:A 0
149 *233:171 *329:85 0
150 *233:171 *724:164 0
151 *233:175 *5963:A0 4.43871e-06
152 *233:175 *486:34 0
153 *233:175 *724:164 0
154 *233:181 *5931:A2 0.000137769
155 *233:181 *5963:A0 0.000136966
156 *233:181 *6053:A0 2.67022e-05
157 *233:181 *6053:A1 0
158 *233:181 *6071:A1 6.52963e-05
159 *233:181 *319:109 0
160 *233:181 *485:10 0
161 *233:181 *485:14 0
162 *233:181 *486:10 0
163 *233:181 *486:34 0
164 *233:181 *534:16 7.17811e-05
165 *233:191 *5942:A0 8.8266e-05
166 *233:191 *5942:A1 0.000135648
167 *233:191 *5989:A0 0.000638482
168 *233:191 *6006:A0 8.48392e-05
169 *233:191 *6291:A 0
170 *233:247 *5964:A0 0.000467074
171 *233:247 *6373:CLK 6.32859e-05
172 *233:247 *339:65 0.000432532
173 *233:247 *515:10 4.99619e-05
174 *233:247 *724:164 0.000276441
175 *233:264 *5932:A3 0
176 *233:264 *5933:A1 0.000219553
177 *233:264 *5964:A0 0.000228149
178 *233:264 *6306:A0 0
179 *233:264 *382:74 0
180 *5917:A *233:45 3.21271e-05
181 *5942:S0 *5988:S1 8.53113e-06
182 *5952:S0 *5952:S1 0
183 *5969:S0 *233:81 0
184 *5976:S0 *233:45 4.82863e-05
185 *5978:S0 *5979:S1 5.12575e-05
186 *5978:S0 *233:106 4.12565e-05
187 *6327:D *233:45 5.42473e-05
188 *6331:D *5943:S1 3.89528e-05
189 *6340:D *233:139 5.35969e-06
190 *6342:D *233:98 8.46913e-05
191 *6362:D *233:181 0.000141599
192 *6364:D *233:139 2.20732e-05
193 *6368:D *233:181 0.000433133
194 *6368:D *233:191 0
195 *6373:D *233:247 1.43717e-05
196 *6381:D *233:171 7.81876e-05
197 *6392:D *5985:S1 7.90526e-05
198 *6424:D *233:45 0
199 *16:5 *233:139 0
200 *230:81 *233:66 0
201 *230:91 *233:66 0.000574279
202 *230:98 *233:169 0.000230435
203 *230:111 *233:169 0.000112349
204 *230:128 *5988:S1 0.000467259
205 *230:128 *233:181 0
206 *230:128 *233:191 0
207 *230:140 *5988:S1 0
208 *230:211 *233:181 0
209 *232:25 *233:45 0
210 *232:58 *233:45 0.000294017
211 *232:81 *233:66 6.2061e-05
212 *232:118 *5952:S1 0
213 *232:118 *233:150 0
214 *232:143 *5960:S1 0
215 *232:143 *233:171 0
216 *232:151 *233:171 0
217 *232:151 *233:175 4.40812e-05
218 *232:184 *5988:S1 0.00017664
219 *232:278 *5979:S1 1.02346e-05
220 *232:289 *5979:S1 0.000155013
*RES
1 *5930:X *233:6 2.05 
2 *233:6 *5994:S1 8.795 
3 *233:6 *233:31 14.76 
4 *233:31 *233:45 39.525 
5 *233:45 *5976:S1 3.6 
6 *233:45 *233:66 26.62 
7 *233:66 *5970:S1 3.6 
8 *233:66 *233:81 11.055 
9 *233:81 *5969:S1 3.6 
10 *233:81 *233:92 2.87 
11 *233:92 *233:98 14.28 
12 *233:98 *233:106 9.815 
13 *233:106 *5979:S1 10.875 
14 *233:106 *5996:S1 13.035 
15 *233:98 *5978:S1 1.6 
16 *233:92 *233:139 19.94 
17 *233:139 *5951:S1 4.05 
18 *233:139 *233:150 6.48 
19 *233:150 *5952:S1 6.39 
20 *233:150 *233:169 19.63 
21 *233:169 *233:171 6.225 
22 *233:171 *233:175 2.685 
23 *233:175 *233:181 16.8675 
24 *233:181 *233:191 12.7025 
25 *233:191 *5942:S1 4.945 
26 *233:191 *5988:S1 17.825 
27 *233:181 *5987:S1 4.3425 
28 *233:175 *5931:S1 4.395 
29 *233:171 *233:247 14.765 
30 *233:247 *5961:S1 7.235 
31 *233:247 *233:264 14.735 
32 *233:264 *5943:S1 25.455 
33 *233:264 *5932:S1 4.395 
34 *233:169 *5960:S1 12.66 
35 *233:31 *5985:S1 14.09 
*END

*D_NET *234 0.000867319
*CONN
*I *5933:A0 I *D sky130_fd_sc_hd__mux2_1
*I *5931:X O *D sky130_fd_sc_hd__mux4_1
*CAP
1 *5933:A0 0.000321829
2 *5931:X 0.000321829
3 *5933:A0 *5931:A0 0.000100366
4 *5933:A0 *724:164 0
5 *230:211 *5933:A0 0.000123295
*RES
1 *5931:X *5933:A0 11.625 
*END

*D_NET *235 0.00260639
*CONN
*I *5933:A1 I *D sky130_fd_sc_hd__mux2_1
*I *5932:X O *D sky130_fd_sc_hd__mux4_1
*CAP
1 *5933:A1 0.000992046
2 *5932:X 0.000992046
3 *5933:A1 *5932:A1 2.31229e-05
4 *5933:A1 *6077:A0 3.86607e-05
5 *5933:A1 *6306:A0 9.54469e-05
6 *5933:A1 *6549:A 3.23663e-05
7 *5933:A1 *6639:A 2.4997e-05
8 *5933:A1 *382:74 0.00013565
9 *5962:S *5933:A1 2.49909e-05
10 *230:211 *5933:A1 2.75145e-05
11 *233:264 *5933:A1 0.000219553
*RES
1 *5932:X *5933:A1 24.33 
*END

*D_NET *236 0.000602669
*CONN
*I *5935:A1 I *D sky130_fd_sc_hd__mux2_1
*I *5933:X O *D sky130_fd_sc_hd__mux2_1
*CAP
1 *5935:A1 9.66149e-05
2 *5933:X 9.66149e-05
3 *5935:A1 *5937:A0 0.00011964
4 *5935:A1 *5963:S 0
5 *5935:A1 *6370:CLK 4.47125e-05
6 *5935:A1 *237:169 0.0001249
7 *5935:A1 *329:85 0.000120186
*RES
1 *5933:X *5935:A1 10.41 
*END

*D_NET *237 0.0359891
*CONN
*I *5999:S I *D sky130_fd_sc_hd__mux2_1
*I *5990:S I *D sky130_fd_sc_hd__mux2_1
*I *5954:S I *D sky130_fd_sc_hd__mux2_1
*I *5935:S I *D sky130_fd_sc_hd__mux2_1
*I *5963:S I *D sky130_fd_sc_hd__mux2_1
*I *5945:S I *D sky130_fd_sc_hd__mux2_1
*I *5972:S I *D sky130_fd_sc_hd__mux2_1
*I *5981:S I *D sky130_fd_sc_hd__mux2_1
*I *6259:A I *D sky130_fd_sc_hd__xnor2_1
*I *6268:A I *D sky130_fd_sc_hd__xnor2_1
*I *6275:A I *D sky130_fd_sc_hd__inv_2
*I *6271:B1 I *D sky130_fd_sc_hd__a31o_1
*I *5934:X O *D sky130_fd_sc_hd__clkbuf_8
*CAP
1 *5999:S 0
2 *5990:S 0
3 *5954:S 0
4 *5935:S 0
5 *5963:S 0.000225909
6 *5945:S 2.04979e-05
7 *5972:S 0.000185211
8 *5981:S 0.00169576
9 *6259:A 0
10 *6268:A 0
11 *6275:A 0
12 *6271:B1 0.000208268
13 *5934:X 0
14 *237:169 0.0011783
15 *237:150 0.00226479
16 *237:124 0.00315538
17 *237:112 0.0019783
18 *237:97 0.00124142
19 *237:80 0.00369454
20 *237:66 0.00160775
21 *237:24 0.000555371
22 *237:14 0.000484611
23 *237:12 0.000620017
24 *237:4 0.00103287
25 *5945:S *6646:A 3.26889e-05
26 *5963:S *329:85 0
27 *5963:S *351:111 0
28 *5972:S *5972:A1 0
29 *5972:S *5986:A0 0
30 *5972:S *362:51 0
31 *5981:S *5981:A0 4.82863e-05
32 *5981:S *6037:A0 2.67022e-05
33 *5981:S *6147:A 0
34 *5981:S *6195:S 0
35 *5981:S *6215:A0 0
36 *5981:S *6215:A1 0.000395652
37 *5981:S *6320:A0 0
38 *5981:S *6352:CLK 0.000161419
39 *5981:S *6533:A 6.15084e-05
40 *5981:S *6626:A 0
41 *5981:S *382:16 0.000331783
42 *5981:S *391:122 0.000132875
43 *5981:S *470:18 0
44 *5981:S *470:40 1.79536e-05
45 *5981:S *779:79 0.000286584
46 *5981:S *779:81 0.000375153
47 *6271:B1 *797:19 0.000149159
48 *237:12 *5934:A 0.000351262
49 *237:12 *239:134 7.59904e-05
50 *237:12 *239:168 0.000536737
51 *237:14 *6269:A0 9.52646e-05
52 *237:14 *239:134 6.58423e-05
53 *237:14 *711:109 7.67345e-05
54 *237:24 *5991:A0 0.000124895
55 *237:24 *6258:C 0
56 *237:24 *6268:B 6.28843e-05
57 *237:24 *6269:A0 0.000163493
58 *237:24 *239:16 0
59 *237:24 *239:30 0
60 *237:24 *437:12 1.01661e-05
61 *237:24 *709:10 0
62 *237:24 *709:17 0
63 *237:24 *711:109 5.34747e-05
64 *237:24 *797:19 0
65 *237:66 *5934:A 0.000201503
66 *237:66 *6130:A1 0
67 *237:66 *6401:CLK 4.66108e-05
68 *237:66 *239:168 0.00152749
69 *237:66 *567:8 0.000297193
70 *237:80 *5904:A 0.000243853
71 *237:80 *5995:A1 0
72 *237:80 *6130:A1 3.01995e-06
73 *237:80 *6130:S 0.000277223
74 *237:80 *6131:A 0.000262859
75 *237:80 *6505:A 6.09503e-05
76 *237:80 *6542:A 4.43682e-05
77 *237:80 *239:168 3.59311e-05
78 *237:80 *768:69 0.000138799
79 *237:97 *6031:A0 0.000106726
80 *237:97 *6031:A1 5.30673e-05
81 *237:97 *6031:S 0.000180988
82 *237:97 *6595:A 1.34503e-05
83 *237:97 *768:69 0.000161204
84 *237:112 *5990:A1 0.000122331
85 *237:112 *362:51 0
86 *237:112 *372:36 0.000100139
87 *237:124 *5955:A0 0
88 *237:124 *5990:A1 0.000169902
89 *237:124 *6025:S 0.000247567
90 *237:124 *6134:A0 7.59904e-05
91 *237:124 *6134:S 0.000302976
92 *237:124 *6545:A 0.000210411
93 *237:124 *309:101 0.000370063
94 *237:124 *372:36 0.000952198
95 *237:124 *625:116 2.75229e-05
96 *237:150 *5945:A0 0
97 *237:150 *5945:A1 4.82919e-05
98 *237:150 *5946:A0 1.61831e-05
99 *237:150 *5988:A1 0.000251868
100 *237:150 *6089:A0 0.0001249
101 *237:150 *6089:S 2.26018e-05
102 *237:150 *6109:A0 7.75505e-05
103 *237:150 *6164:A1 0
104 *237:150 *6319:A 8.53113e-06
105 *237:150 *6570:A 7.82345e-05
106 *237:150 *6617:A 0.000273878
107 *237:150 *6646:A 6.98477e-05
108 *237:150 *470:40 1.94723e-05
109 *237:150 *625:116 0.000171632
110 *237:169 *5937:A0 1.61831e-05
111 *237:169 *5942:A2 0
112 *237:169 *5942:A3 0
113 *237:169 *5945:A1 0.00012657
114 *237:169 *5946:A0 6.47326e-05
115 *237:169 *6061:S 6.73751e-05
116 *237:169 *6370:CLK 0.000163204
117 *237:169 *6646:A 0
118 *237:169 *329:85 7.07664e-05
119 *237:169 *329:87 0.000291171
120 *237:169 *351:111 0
121 *237:169 *485:90 0
122 *5917:A *5981:S 0
123 *5935:A0 *237:169 0.00103945
124 *5935:A1 *5963:S 0
125 *5935:A1 *237:169 0.0001249
126 *5962:S *5963:S 0.000208491
127 *5988:S1 *237:150 0.000241863
128 *6271:A1 *6271:B1 4.82863e-05
129 *6355:D *237:169 5.21627e-05
130 *6384:D *237:124 0
131 *6400:D *5981:S 4.05358e-05
132 *6401:D *237:66 9.20132e-05
133 *6424:D *5981:S 0
134 *6467:D *237:12 2.06853e-05
135 *225:160 *5981:S 0
136 *225:237 *237:12 5.42949e-05
137 *225:237 *237:66 0.000151335
138 *225:245 *237:12 0.000462829
139 *226:28 *6271:B1 0
140 *226:28 *237:24 0.000351152
141 *226:30 *6271:B1 4.82863e-05
142 *226:183 *237:124 0.000400381
143 *226:204 *237:124 0.000306608
144 *230:140 *237:150 0.00018305
145 *232:167 *237:169 0
146 *232:184 *237:150 0.000179987
147 *233:45 *5981:S 0
*RES
1 *5934:X *237:4 1.6 
2 *237:4 *237:12 11.88 
3 *237:12 *237:14 3.21 
4 *237:14 *237:24 12.25 
5 *237:24 *6271:B1 10.235 
6 *237:24 *6275:A 1.6 
7 *237:14 *6268:A 1.6 
8 *237:12 *6259:A 1.6 
9 *237:4 *237:66 17.625 
10 *237:66 *237:80 19.39 
11 *237:80 *5981:S 40.07 
12 *237:80 *237:97 13.835 
13 *237:97 *5972:S 6.51 
14 *237:97 *237:112 4.52 
15 *237:112 *237:124 36.31 
16 *237:124 *237:150 30.08 
17 *237:150 *5945:S 2.215 
18 *237:150 *237:169 29.365 
19 *237:169 *5963:S 9.785 
20 *237:169 *5935:S 1.6 
21 *237:124 *5954:S 1.6 
22 *237:112 *5990:S 1.6 
23 *237:66 *5999:S 1.6 
*END

*D_NET *238 0.00274549
*CONN
*I *5937:A0 I *D sky130_fd_sc_hd__mux2_1
*I *5935:X O *D sky130_fd_sc_hd__mux2_1
*CAP
1 *5937:A0 0.00121115
2 *5935:X 0.00121115
3 *5937:A0 *5932:A3 2.36716e-05
4 *5937:A0 *5937:S 3.26889e-05
5 *5937:A0 *6370:CLK 8.87196e-05
6 *5937:A0 *6636:A 3.00381e-05
7 *5935:A1 *5937:A0 0.00011964
8 *6370:D *5937:A0 1.22464e-05
9 *237:169 *5937:A0 1.61831e-05
*RES
1 *5935:X *5937:A0 18.875 
*END

*D_NET *239 0.0418486
*CONN
*I *6253:A I *D sky130_fd_sc_hd__or2_1
*I *6251:B I *D sky130_fd_sc_hd__xnor2_1
*I *5964:S I *D sky130_fd_sc_hd__mux2_1
*I *5937:S I *D sky130_fd_sc_hd__mux2_1
*I *5946:S I *D sky130_fd_sc_hd__mux2_1
*I *5955:S I *D sky130_fd_sc_hd__mux2_1
*I *6000:S I *D sky130_fd_sc_hd__mux2_1
*I *5973:S I *D sky130_fd_sc_hd__mux2_1
*I *6258:B I *D sky130_fd_sc_hd__or3_1
*I *6276:C I *D sky130_fd_sc_hd__or4_1
*I *6269:S I *D sky130_fd_sc_hd__mux2_1
*I *6261:S I *D sky130_fd_sc_hd__mux2_1
*I *6265:S I *D sky130_fd_sc_hd__mux2_1
*I *5982:S I *D sky130_fd_sc_hd__mux2_1
*I *6273:S I *D sky130_fd_sc_hd__mux2_1
*I *5991:S I *D sky130_fd_sc_hd__mux2_1
*I *5936:Y O *D sky130_fd_sc_hd__nand2_8
*CAP
1 *6253:A 1.88716e-05
2 *6251:B 0
3 *5964:S 0.000400996
4 *5937:S 3.53937e-05
5 *5946:S 0
6 *5955:S 0.000148195
7 *6000:S 0.000241103
8 *5973:S 0
9 *6258:B 8.39921e-05
10 *6276:C 0
11 *6269:S 0
12 *6261:S 0.000925008
13 *6265:S 7.61885e-05
14 *5982:S 0
15 *6273:S 0
16 *5991:S 0.00022366
17 *5936:Y 0.000107316
18 *239:228 0.00161005
19 *239:219 0.00253527
20 *239:206 0.00187454
21 *239:193 0.0011542
22 *239:184 0.00125834
23 *239:180 0.00267678
24 *239:168 0.00348675
25 *239:134 0.0019271
26 *239:117 0.000587475
27 *239:115 0.000115197
28 *239:67 0.00124646
29 *239:54 0.00116291
30 *239:41 0.00125004
31 *239:30 0.00119982
32 *239:16 0.000867716
33 *239:10 0.000407913
34 *239:6 0.000291288
35 *5937:S *5937:A1 4.82919e-05
36 *5964:S *5964:A0 1.16578e-05
37 *5964:S *5964:A1 3.00381e-05
38 *5964:S *5965:A 0
39 *5964:S *6333:CLK 0
40 *5964:S *382:74 0
41 *5964:S *712:96 0
42 *5991:S *6475:CLK 1.35948e-05
43 *5991:S *6475:RESET_B 4.80285e-05
44 *5991:S *709:38 4.76281e-05
45 *6000:S *6000:A1 0
46 *6000:S *6001:A 0
47 *6000:S *703:27 5.12942e-05
48 *6253:A *6255:B 9.3062e-06
49 *6253:A *711:135 6.61973e-05
50 *6258:B *6258:C 0
51 *6258:B *711:109 9.50342e-06
52 *6261:S *5894:A 0
53 *6261:S *5894:B 0
54 *6261:S *6261:A0 0.000429843
55 *6261:S *6261:A1 7.73272e-05
56 *6261:S *6265:A0 0.000297779
57 *6261:S *6265:A1 0
58 *6261:S *6447:D 4.66108e-05
59 *6261:S *6458:CLK 5.83121e-06
60 *6261:S *490:20 4.41506e-05
61 *6261:S *490:35 4.40006e-05
62 *6261:S *712:33 2.76356e-05
63 *6265:S *6265:A0 8.64421e-05
64 *6265:S *6265:A1 8.64421e-05
65 *6265:S *6266:A 4.00541e-06
66 *239:10 *6253:B 8.34281e-06
67 *239:10 *6276:D 1.91597e-05
68 *239:16 *6276:D 4.66108e-05
69 *239:16 *6277:B 8.87273e-05
70 *239:16 *797:19 0.000156842
71 *239:30 *6269:A0 8.40213e-05
72 *239:30 *6472:RESET_B 0.000109441
73 *239:30 *6475:RESET_B 2.86623e-05
74 *239:30 *6670:A 0.000775247
75 *239:30 *711:73 0
76 *239:30 *797:10 7.23602e-05
77 *239:30 *797:19 9.50342e-06
78 *239:41 *6273:A0 4.70343e-05
79 *239:41 *6472:RESET_B 0.000404438
80 *239:41 *6475:RESET_B 2.42236e-05
81 *239:41 *709:38 0
82 *239:54 *5892:A 7.4027e-05
83 *239:54 *6273:A0 1.01661e-05
84 *239:54 *6273:A1 0.000187759
85 *239:54 *6455:D 0
86 *239:54 *6456:D 0
87 *239:54 *6472:RESET_B 0.000724997
88 *239:54 *709:38 2.01541e-05
89 *239:54 *709:48 9.49033e-05
90 *239:54 *709:59 1.64451e-05
91 *239:54 *709:71 0
92 *239:54 *709:80 0
93 *239:54 *709:90 0
94 *239:54 *798:21 7.23533e-05
95 *239:67 *6265:A1 3.20366e-05
96 *239:67 *6266:A 6.97202e-05
97 *239:67 *6472:RESET_B 7.63125e-05
98 *239:67 *709:90 0
99 *239:117 *711:109 0.000217345
100 *239:117 *711:135 0.000114492
101 *239:134 *711:109 3.26889e-05
102 *239:168 *6032:A 8.65905e-05
103 *239:168 *6038:A 0.000161529
104 *239:168 *6130:A0 0.000461047
105 *239:168 *6130:A1 2.30292e-05
106 *239:168 *6130:S 2.54522e-05
107 *239:168 *6131:A 0.000119762
108 *239:168 *6350:CLK 0.000160418
109 *239:168 *6401:CLK 5.83121e-06
110 *239:168 *6470:CLK 9.39127e-05
111 *239:168 *6542:A 0.000275553
112 *239:168 *480:14 2.65288e-05
113 *239:168 *480:16 5.23362e-05
114 *239:168 *712:53 5.28781e-05
115 *239:168 *713:8 0
116 *239:180 *5940:A2 1.59999e-05
117 *239:180 *5940:A3 0.00048731
118 *239:180 *5972:A0 0.000688303
119 *239:180 *5972:A1 0.000200615
120 *239:180 *6025:A0 3.67183e-05
121 *239:180 *6190:A 8.65905e-05
122 *239:180 *6579:A 8.73389e-06
123 *239:184 *5941:A1 0.00023468
124 *239:184 *5945:A0 0.00145015
125 *239:184 *5973:A1 2.30292e-05
126 *239:184 *5974:A 4.82919e-05
127 *239:184 *6025:A0 8.41242e-05
128 *239:184 *6579:A 0.00010492
129 *239:193 *5973:A1 0.000124895
130 *239:206 *5955:A1 0
131 *239:206 *6001:A 0
132 *239:206 *712:72 0
133 *239:206 *712:83 7.25036e-05
134 *239:219 *5946:A0 0
135 *239:219 *6308:A0 0
136 *239:219 *712:83 0
137 *239:228 *5946:A0 0
138 *239:228 *6152:A0 3.86607e-05
139 *239:228 *699:10 0
140 *239:228 *712:83 0
141 *239:228 *712:96 0
142 *5897:A *6261:S 0.000319096
143 *5897:C *6261:S 1.91597e-05
144 *5898:A *239:54 1.34361e-05
145 *5937:A0 *5937:S 3.26889e-05
146 *5968:S *239:180 5.16211e-05
147 *6258:A *6253:A 5.23362e-05
148 *6258:A *6258:B 0.000117832
149 *6258:A *239:117 0.000332809
150 *6260:A *6261:S 0
151 *6350:D *239:168 0.000244968
152 *6401:D *239:168 9.03376e-05
153 *6419:D *239:180 0.000203383
154 *6475:D *5991:S 7.85595e-05
155 *225:237 *239:168 0.00116364
156 *225:245 *239:134 0.000256469
157 *230:37 *239:180 0.000108569
158 *230:263 *239:6 0.000121287
159 *230:271 *239:6 2.49909e-05
160 *230:271 *239:10 0.000108876
161 *237:12 *239:134 7.59904e-05
162 *237:12 *239:168 0.000536737
163 *237:14 *239:134 6.58423e-05
164 *237:24 *239:16 0
165 *237:24 *239:30 0
166 *237:66 *239:168 0.00152749
167 *237:80 *239:168 3.59311e-05
*RES
1 *5936:Y *239:6 3.43 
2 *239:6 *239:10 2.88 
3 *239:10 *239:16 6.41 
4 *239:16 *239:30 15.775 
5 *239:30 *5991:S 7.845 
6 *239:30 *239:41 8.265 
7 *239:41 *6273:S 3.6 
8 *239:41 *239:54 21.405 
9 *239:54 *5982:S 3.6 
10 *239:54 *239:67 5.81 
11 *239:67 *6265:S 3.715 
12 *239:67 *6261:S 27.27 
13 *239:16 *6269:S 3.6 
14 *239:10 *6276:C 1.6 
15 *239:6 *239:115 2 
16 *239:115 *239:117 3.93 
17 *239:117 *6258:B 4.98 
18 *239:117 *239:134 9.38 
19 *239:134 *239:168 49.5 
20 *239:168 *239:180 32.61 
21 *239:180 *239:184 18.06 
22 *239:184 *5973:S 1.6 
23 *239:184 *239:193 10.385 
24 *239:193 *6000:S 7.785 
25 *239:193 *239:206 8.48 
26 *239:206 *5955:S 3.775 
27 *239:206 *239:219 23.42 
28 *239:219 *5946:S 3.6 
29 *239:219 *239:228 18.975 
30 *239:228 *5937:S 4.41 
31 *239:228 *5964:S 10.215 
32 *239:134 *6251:B 1.6 
33 *239:115 *6253:A 4.47 
*END

*D_NET *240 0.000347783
*CONN
*I *5938:A I *D sky130_fd_sc_hd__clkbuf_1
*I *5937:X O *D sky130_fd_sc_hd__mux2_1
*CAP
1 *5938:A 3.06251e-05
2 *5937:X 3.06251e-05
3 *5938:A *6333:CLK 2.30797e-05
4 *5938:A *382:74 0.000143266
5 *5938:A *712:96 0.000120186
*RES
1 *5937:X *5938:A 8.835 
*END

*D_NET *241 0.00353979
*CONN
*I *5941:A0 I *D sky130_fd_sc_hd__mux2_1
*I *5939:X O *D sky130_fd_sc_hd__mux4_1
*CAP
1 *5941:A0 0.000693306
2 *5939:X 0.000693306
3 *5941:A0 *5906:A0 7.06865e-05
4 *5941:A0 *5939:A0 8.09157e-05
5 *5941:A0 *6116:S 0.000207512
6 *5941:A0 *6119:A 6.47594e-05
7 *5941:A0 *6237:A0 8.57024e-05
8 *5941:A0 *6237:S 0.000298442
9 *5941:A0 *6238:A 4.99619e-05
10 *5941:A0 *481:29 0.000174995
11 *5941:A0 *724:41 0.000113797
12 *5941:A0 *724:107 0
13 *5941:A0 *735:92 9.50342e-06
14 *5941:A0 *735:105 0.0009969
15 *5928:A0 *5941:A0 0
*RES
1 *5939:X *5941:A0 25.995 
*END

*D_NET *242 0.000475887
*CONN
*I *5941:A1 I *D sky130_fd_sc_hd__mux2_1
*I *5940:X O *D sky130_fd_sc_hd__mux4_1
*CAP
1 *5941:A1 5.31342e-05
2 *5940:X 5.31342e-05
3 *5941:A1 *6579:A 0.000134938
4 *239:184 *5941:A1 0.00023468
*RES
1 *5940:X *5941:A1 5.375 
*END

*D_NET *243 0.00690164
*CONN
*I *5945:A0 I *D sky130_fd_sc_hd__mux2_1
*I *5941:X O *D sky130_fd_sc_hd__mux2_1
*CAP
1 *5945:A0 0.00216367
2 *5941:X 0.00216367
3 *5945:A0 *5973:A0 0.000175147
4 *5945:A0 *5988:A0 0.000383227
5 *5945:A0 *6318:A0 7.23602e-05
6 *5945:A0 *6570:A 7.21296e-06
7 *5945:A0 *6646:A 9.50342e-06
8 *5945:A0 *482:93 0
9 *5945:A0 *614:10 0.000112123
10 *5945:A0 *622:12 0.000169736
11 *5945:A0 *735:129 1.92979e-05
12 *5935:A0 *5945:A0 0
13 *5988:S1 *5945:A0 0
14 *6379:D *5945:A0 0
15 *231:18 *5945:A0 0
16 *232:184 *5945:A0 0.00017554
17 *237:150 *5945:A0 0
18 *239:184 *5945:A0 0.00145015
*RES
1 *5941:X *5945:A0 42.585 
*END

*D_NET *244 0.00068636
*CONN
*I *5944:A0 I *D sky130_fd_sc_hd__mux2_1
*I *5942:X O *D sky130_fd_sc_hd__mux4_1
*CAP
1 *5944:A0 0.000134331
2 *5942:X 0.000134331
3 *5944:A0 *5944:A1 4.99619e-05
4 *5944:A0 *5946:A0 1.33293e-05
5 *5944:A0 *351:119 0.000252282
6 *5935:A0 *5944:A0 0.000102125
*RES
1 *5942:X *5944:A0 10.905 
*END

*D_NET *245 0.00247658
*CONN
*I *5944:A1 I *D sky130_fd_sc_hd__mux2_1
*I *5943:X O *D sky130_fd_sc_hd__mux4_1
*CAP
1 *5944:A1 0.000956887
2 *5943:X 0.000956887
3 *5944:A1 *5943:A0 6.12863e-05
4 *5944:A1 *5943:A1 0
5 *5944:A1 *5943:A2 1.59999e-05
6 *5944:A1 *5946:A0 5.85534e-05
7 *5944:A1 *6306:S 0
8 *5944:A1 *351:119 0.000144244
9 *5932:S0 *5944:A1 8.19282e-05
10 *5943:S0 *5944:A1 8.31532e-05
11 *5943:S1 *5944:A1 3.31103e-05
12 *5944:A0 *5944:A1 4.99619e-05
13 *232:184 *5944:A1 3.45679e-05
*RES
1 *5943:X *5944:A1 20.58 
*END

*D_NET *246 0.000385588
*CONN
*I *5945:A1 I *D sky130_fd_sc_hd__mux2_1
*I *5944:X O *D sky130_fd_sc_hd__mux2_1
*CAP
1 *5945:A1 0.000105363
2 *5944:X 0.000105363
3 *237:150 *5945:A1 4.82919e-05
4 *237:169 *5945:A1 0.00012657
*RES
1 *5944:X *5945:A1 4.685 
*END

*D_NET *247 0.00373757
*CONN
*I *5946:A0 I *D sky130_fd_sc_hd__mux2_1
*I *5945:X O *D sky130_fd_sc_hd__mux2_1
*CAP
1 *5946:A0 0.00125684
2 *5945:X 0.00125684
3 *5946:A0 *6079:A0 0.000134544
4 *5946:A0 *6080:A 0.000333125
5 *5946:A0 *6646:A 0.000191232
6 *5946:A0 *712:83 0.000412181
7 *5944:A0 *5946:A0 1.33293e-05
8 *5944:A1 *5946:A0 5.85534e-05
9 *237:150 *5946:A0 1.61831e-05
10 *237:169 *5946:A0 6.47326e-05
11 *239:219 *5946:A0 0
12 *239:228 *5946:A0 0
*RES
1 *5945:X *5946:A0 29.01 
*END

*D_NET *248 0.000138618
*CONN
*I *5947:A I *D sky130_fd_sc_hd__clkbuf_1
*I *5946:X O *D sky130_fd_sc_hd__mux2_1
*CAP
1 *5947:A 6.93091e-05
2 *5946:X 6.93091e-05
*RES
1 *5946:X *5947:A 4.265 
*END

*D_NET *249 0.00840131
*CONN
*I *5950:A0 I *D sky130_fd_sc_hd__mux2_1
*I *5948:X O *D sky130_fd_sc_hd__mux4_1
*CAP
1 *5950:A0 0.00297202
2 *5948:X 0.00297202
3 *5950:A0 *6027:A0 1.88602e-05
4 *5950:A0 *470:40 0.00241737
5 *5950:A0 *578:10 2.10433e-05
6 *5950:A0 *669:14 0
*RES
1 *5948:X *5950:A0 15.2289 
*END

*D_NET *250 0.000632956
*CONN
*I *5950:A1 I *D sky130_fd_sc_hd__mux2_1
*I *5949:X O *D sky130_fd_sc_hd__mux4_1
*CAP
1 *5950:A1 0.000154228
2 *5949:X 0.000154228
3 *5950:A1 *6028:A 2.37321e-05
4 *5950:A1 *625:116 0.000176897
5 *5950:S *5950:A1 3.07922e-05
6 *6388:D *5950:A1 9.30787e-05
*RES
1 *5949:X *5950:A1 10.725 
*END

*D_NET *251 0.00157788
*CONN
*I *5954:A0 I *D sky130_fd_sc_hd__mux2_1
*I *5950:X O *D sky130_fd_sc_hd__mux2_1
*CAP
1 *5954:A0 0.000342686
2 *5950:X 0.000342686
3 *5954:A0 *5949:A1 0.000131344
4 *5954:A0 *6027:A0 3.64451e-05
5 *5954:A0 *6028:A 2.76356e-05
6 *5954:A0 *6525:A 8.7152e-06
7 *5954:A0 *625:116 0.000395678
8 *6388:D *5954:A0 0.000158993
9 *226:204 *5954:A0 0.000133698
*RES
1 *5950:X *5954:A0 15.495 
*END

*D_NET *252 0.0012997
*CONN
*I *5953:A0 I *D sky130_fd_sc_hd__mux2_1
*I *5951:X O *D sky130_fd_sc_hd__mux4_1
*CAP
1 *5953:A0 0.000268604
2 *5951:X 0.000268604
3 *5953:A0 *5951:A0 8.53113e-06
4 *5953:A0 *5952:A1 7.46615e-05
5 *5953:A0 *5954:A1 7.23533e-05
6 *5953:A0 *6613:A 0.000222813
7 *5953:A0 *470:128 0.000136884
8 *16:5 *5953:A0 0.000199217
9 *232:141 *5953:A0 4.80285e-05
10 *233:150 *5953:A0 0
*RES
1 *5951:X *5953:A0 13.965 
*END

*D_NET *253 0.000459561
*CONN
*I *5953:A1 I *D sky130_fd_sc_hd__mux2_1
*I *5952:X O *D sky130_fd_sc_hd__mux4_1
*CAP
1 *5953:A1 0.000152103
2 *5952:X 0.000152103
3 *5953:A1 *5954:A1 4.05358e-05
4 *5953:A1 *351:101 4.24597e-05
5 *16:5 *5953:A1 7.23602e-05
*RES
1 *5952:X *5953:A1 9.555 
*END

*D_NET *254 0.00668718
*CONN
*I *5954:A1 I *D sky130_fd_sc_hd__mux2_1
*I *5953:X O *D sky130_fd_sc_hd__mux2_1
*CAP
1 *5954:A1 0.00175045
2 *5953:X 0.00175045
3 *5954:A1 *5952:A1 0.00015829
4 *5954:A1 *5952:A3 0
5 *5954:A1 *5959:A0 0.0010703
6 *5954:A1 *6120:A0 0.000135531
7 *5954:A1 *6120:S 0.00069589
8 *5954:A1 *6122:S 9.9535e-05
9 *5954:A1 *6123:A 0
10 *5954:A1 *6339:CLK 0
11 *5954:A1 *6538:A 0
12 *5954:A1 *6560:A 0
13 *5954:A1 *485:30 0
14 *5954:A1 *498:10 4.11902e-05
15 *5954:A1 *499:12 0.000160658
16 *5954:A1 *625:116 0.00012657
17 *5954:A1 *746:45 0
18 *5952:S1 *5954:A1 3.12378e-05
19 *5953:A0 *5954:A1 7.23533e-05
20 *5953:A1 *5954:A1 4.05358e-05
21 *16:5 *5954:A1 0.000433543
22 *230:98 *5954:A1 0.000120655
*RES
1 *5953:X *5954:A1 48.09 
*END

*D_NET *255 0.0067039
*CONN
*I *5955:A0 I *D sky130_fd_sc_hd__mux2_1
*I *5954:X O *D sky130_fd_sc_hd__mux2_1
*CAP
1 *5955:A0 0.00284624
2 *5954:X 0.00284624
3 *5955:A0 *5925:A0 6.8613e-07
4 *5955:A0 *5925:A3 0.000186842
5 *5955:A0 *5956:A 6.57298e-05
6 *5955:A0 *6023:A1 8.8266e-05
7 *5955:A0 *6386:CLK 6.51782e-05
8 *5955:A0 *6545:A 0
9 *5955:A0 *309:101 0.000280614
10 *5955:A0 *496:6 5.4372e-05
11 *5955:A0 *552:10 0
12 *5925:S0 *5955:A0 0.000159957
13 *6386:D *5955:A0 0.000109787
14 *237:124 *5955:A0 0
*RES
1 *5954:X *5955:A0 46.275 
*END

*D_NET *256 0.000158836
*CONN
*I *5956:A I *D sky130_fd_sc_hd__clkbuf_1
*I *5955:X O *D sky130_fd_sc_hd__mux2_1
*CAP
1 *5956:A 4.65529e-05
2 *5955:X 4.65529e-05
3 *5955:A0 *5956:A 6.57298e-05
*RES
1 *5955:X *5956:A 4.265 
*END

*D_NET *257 0.00261361
*CONN
*I *5959:A0 I *D sky130_fd_sc_hd__mux2_1
*I *5957:X O *D sky130_fd_sc_hd__mux4_1
*CAP
1 *5959:A0 0.000388747
2 *5957:X 0.000388747
3 *5959:A0 *5957:A0 4.82863e-05
4 *5959:A0 *485:30 2.53191e-06
5 *5959:A0 *579:14 0.000122337
6 *5954:A1 *5959:A0 0.0010703
7 *16:5 *5959:A0 0.000592664
*RES
1 *5957:X *5959:A0 21.03 
*END

*D_NET *258 0.00032146
*CONN
*I *5959:A1 I *D sky130_fd_sc_hd__mux2_1
*I *5958:X O *D sky130_fd_sc_hd__mux4_1
*CAP
1 *5959:A1 0.000121995
2 *5958:X 0.000121995
3 *5959:A1 *5963:A0 7.74694e-05
*RES
1 *5958:X *5959:A1 5.375 
*END

*D_NET *259 0.00465537
*CONN
*I *5963:A0 I *D sky130_fd_sc_hd__mux2_1
*I *5959:X O *D sky130_fd_sc_hd__mux2_1
*CAP
1 *5963:A0 0.00181045
2 *5959:X 0.00181045
3 *5963:A0 *5931:A0 7.26692e-05
4 *5963:A0 *5963:A1 0.000164874
5 *5963:A0 *6060:A 0
6 *5963:A0 *485:10 9.51192e-05
7 *5963:A0 *724:164 0
8 *5959:A1 *5963:A0 7.74694e-05
9 *5959:S *5963:A0 3.45588e-05
10 *6362:D *5963:A0 7.70938e-05
11 *230:122 *5963:A0 0.000371286
12 *230:211 *5963:A0 0
13 *233:175 *5963:A0 4.43871e-06
14 *233:181 *5963:A0 0.000136966
*RES
1 *5959:X *5963:A0 33.6 
*END

*D_NET *260 0.00100148
*CONN
*I *5962:A0 I *D sky130_fd_sc_hd__mux2_1
*I *5960:X O *D sky130_fd_sc_hd__mux4_1
*CAP
1 *5962:A0 0.000289343
2 *5960:X 0.000289343
3 *5962:A0 *6065:A1 5.02217e-05
4 *5962:A0 *6066:A 7.23602e-05
5 *5962:A0 *6103:S 0.000212505
6 *5962:A0 *6556:A 8.77073e-05
7 *5962:A0 *329:85 0
8 *5962:A0 *486:106 0
9 *5960:S1 *5962:A0 0
*RES
1 *5960:X *5962:A0 13.62 
*END

*D_NET *261 0.00255036
*CONN
*I *5962:A1 I *D sky130_fd_sc_hd__mux2_1
*I *5961:X O *D sky130_fd_sc_hd__mux4_1
*CAP
1 *5962:A1 0.000941267
2 *5961:X 0.000941267
3 *5962:A1 *5961:A0 0.000117825
4 *5962:A1 *5961:A1 1.38854e-05
5 *5962:A1 *5961:A2 9.3229e-06
6 *5962:A1 *5961:A3 3.45679e-05
7 *5962:A1 *6083:A1 0
8 *5962:A1 *6083:S 0
9 *5962:A1 *6084:A 0.00018471
10 *5962:A1 *6159:A 3.19126e-05
11 *5962:A1 *6373:CLK 0
12 *5962:A1 *6405:CLK 0
13 *5962:A1 *6531:A 0
14 *5962:A1 *486:131 0.000161529
15 *5961:S0 *5962:A1 0.000111103
16 *6491:D *5962:A1 2.97004e-06
*RES
1 *5961:X *5962:A1 21.42 
*END

*D_NET *262 0.0018114
*CONN
*I *5963:A1 I *D sky130_fd_sc_hd__mux2_1
*I *5962:X O *D sky130_fd_sc_hd__mux2_1
*CAP
1 *5963:A1 0.000296863
2 *5962:X 0.000296863
3 *5963:A1 *5964:A0 0.000201508
4 *5963:A1 *6103:S 0.00010141
5 *5963:A1 *329:85 0.000646699
6 *5963:A1 *351:111 0.000103185
7 *5962:S *5963:A1 0
8 *5963:A0 *5963:A1 0.000164874
*RES
1 *5962:X *5963:A1 16.53 
*END

*D_NET *263 0.00300744
*CONN
*I *5964:A0 I *D sky130_fd_sc_hd__mux2_1
*I *5963:X O *D sky130_fd_sc_hd__mux2_1
*CAP
1 *5964:A0 0.000927063
2 *5963:X 0.000927063
3 *5964:A0 *6083:S 0
4 *5964:A0 *6084:A 0.000164545
5 *5964:A0 *339:65 8.03844e-05
6 *5964:A0 *339:71 0
7 *5963:A1 *5964:A0 0.000201508
8 *5964:S *5964:A0 1.16578e-05
9 *233:247 *5964:A0 0.000467074
10 *233:264 *5964:A0 0.000228149
*RES
1 *5963:X *5964:A0 24.6 
*END

*D_NET *264 0.000308543
*CONN
*I *5965:A I *D sky130_fd_sc_hd__clkbuf_1
*I *5964:X O *D sky130_fd_sc_hd__mux2_1
*CAP
1 *5965:A 0.000120246
2 *5964:X 0.000120246
3 *5965:A *382:74 4.05358e-05
4 *5964:S *5965:A 0
5 *6333:D *5965:A 2.75145e-05
*RES
1 *5964:X *5965:A 9.495 
*END

*D_NET *265 0.00393117
*CONN
*I *5968:A0 I *D sky130_fd_sc_hd__mux2_1
*I *5966:X O *D sky130_fd_sc_hd__mux4_1
*CAP
1 *5968:A0 0.00100328
2 *5966:X 0.00100328
3 *5968:A0 *5966:A0 6.52265e-05
4 *5968:A0 *5968:A1 0.000113828
5 *5968:A0 *5984:A0 3.50033e-05
6 *5968:A0 *5984:A2 0.000249928
7 *5968:A0 *6124:A1 0
8 *5968:A0 *6125:A 0
9 *5968:A0 *6243:A0 0.00046618
10 *5968:A0 *6243:A1 2.30292e-05
11 *5968:A0 *6243:S 0.000159747
12 *5968:A0 *6392:CLK 1.34361e-05
13 *5968:A0 *6519:A 6.6564e-05
14 *5968:A0 *362:61 0
15 *5968:A0 *625:51 0.000731663
16 *5984:S0 *5968:A0 0
17 *6390:D *5968:A0 0
18 *6416:D *5968:A0 0
19 *225:79 *5968:A0 0
*RES
1 *5966:X *5968:A0 28.155 
*END

*D_NET *266 0.000414791
*CONN
*I *5968:A1 I *D sky130_fd_sc_hd__mux2_1
*I *5967:X O *D sky130_fd_sc_hd__mux4_1
*CAP
1 *5968:A1 9.35678e-05
2 *5967:X 9.35678e-05
3 *5968:A1 *6392:CLK 0.000113828
4 *5968:A0 *5968:A1 0.000113828
*RES
1 *5967:X *5968:A1 9.03 
*END

*D_NET *267 0.00159974
*CONN
*I *5972:A0 I *D sky130_fd_sc_hd__mux2_1
*I *5968:X O *D sky130_fd_sc_hd__mux2_1
*CAP
1 *5972:A0 0.000455717
2 *5968:X 0.000455717
3 *239:180 *5972:A0 0.000688303
*RES
1 *5968:X *5972:A0 9.515 
*END

*D_NET *268 0.00117919
*CONN
*I *5971:A0 I *D sky130_fd_sc_hd__mux2_1
*I *5969:X O *D sky130_fd_sc_hd__mux4_1
*CAP
1 *5971:A0 0.000564736
2 *5969:X 0.000564736
3 *5971:A0 *6553:A 0
4 *5971:A0 *484:34 0
5 *5971:A0 *484:118 0
6 *230:91 *5971:A0 4.97141e-05
7 *233:81 *5971:A0 0
*RES
1 *5969:X *5971:A0 15.765 
*END

*D_NET *269 0.000158007
*CONN
*I *5971:A1 I *D sky130_fd_sc_hd__mux2_1
*I *5970:X O *D sky130_fd_sc_hd__mux4_1
*CAP
1 *5971:A1 4.19902e-05
2 *5970:X 4.19902e-05
3 *230:91 *5971:A1 7.4027e-05
*RES
1 *5970:X *5971:A1 8.07 
*END

*D_NET *270 0.00918113
*CONN
*I *5972:A1 I *D sky130_fd_sc_hd__mux2_1
*I *5971:X O *D sky130_fd_sc_hd__mux2_1
*CAP
1 *5972:A1 0.00108549
2 *5971:X 0.00162016
3 *270:12 0.00270565
4 *5972:A1 *5986:A0 0.00023241
5 *5972:A1 *5990:A0 7.06865e-05
6 *5972:A1 *6128:A0 8.08153e-06
7 *5972:A1 *6188:A 0
8 *5972:A1 *6418:CLK 0
9 *5972:A1 *6512:A 5.73375e-05
10 *5972:A1 *6603:A 0.000142314
11 *5972:A1 *372:30 0
12 *5972:A1 *372:36 0
13 *5972:A1 *479:116 0.000148694
14 *5972:A1 *495:10 0
15 *5972:A1 *495:32 0
16 *5972:A1 *495:41 0
17 *5972:A1 *495:56 0
18 *270:12 *5970:A0 3.69334e-05
19 *270:12 *6033:A0 0
20 *270:12 *6126:A0 9.83115e-05
21 *270:12 *6126:S 0
22 *270:12 *6160:S 0.00018032
23 *270:12 *6192:A 0
24 *270:12 *6211:S 0
25 *270:12 *6212:A 0.000246865
26 *270:12 *6413:CLK 0.000544561
27 *270:12 *6421:CLK 0.000316806
28 *270:12 *6603:A 8.59813e-05
29 *270:12 *362:95 0
30 *270:12 *372:24 0.000346333
31 *270:12 *382:24 0.000144452
32 *270:12 *479:16 7.96104e-06
33 *270:12 *479:178 0.000144217
34 *270:12 *483:69 0.00015212
35 *270:12 *501:14 0
36 *270:12 *612:10 5.63405e-05
37 *5972:S *5972:A1 0
38 *6394:D *5972:A1 2.87867e-05
39 *6413:D *270:12 5.02217e-05
40 *6418:D *5972:A1 0
41 *6420:D *5972:A1 2.16267e-05
42 *6420:D *270:12 0.000286613
43 *6421:D *270:12 0
44 *230:91 *270:12 0
45 *232:103 *270:12 4.82863e-05
46 *233:66 *270:12 5.84902e-05
47 *233:81 *270:12 5.44581e-05
48 *239:180 *5972:A1 0.000200615
*RES
1 *5971:X *270:12 40.5075 
2 *270:12 *5972:A1 23.4375 
*END

*D_NET *271 0.00776352
*CONN
*I *5973:A0 I *D sky130_fd_sc_hd__mux2_1
*I *5972:X O *D sky130_fd_sc_hd__mux2_1
*CAP
1 *5973:A0 0.00279845
2 *5972:X 0.00279845
3 *5973:A0 *5973:A1 0
4 *5973:A0 *362:51 2.10433e-05
5 *5973:A0 *479:132 0
6 *5973:A0 *712:53 0.000733262
7 *5945:A0 *5973:A0 0.000175147
8 *226:131 *5973:A0 0.00123717
*RES
1 *5972:X *5973:A0 15.4839 
*END

*D_NET *272 0.000376021
*CONN
*I *5974:A I *D sky130_fd_sc_hd__clkbuf_1
*I *5973:X O *D sky130_fd_sc_hd__mux2_1
*CAP
1 *5974:A 0.000163864
2 *5973:X 0.000163864
3 *5974:A *5973:A1 0
4 *239:184 *5974:A 4.82919e-05
*RES
1 *5973:X *5974:A 9.285 
*END

*D_NET *273 0.00147167
*CONN
*I *5977:A0 I *D sky130_fd_sc_hd__mux2_1
*I *5975:X O *D sky130_fd_sc_hd__mux4_1
*CAP
1 *5977:A0 0.000365044
2 *5975:X 0.000365044
3 *5977:A0 *5977:A1 2.8185e-05
4 *5977:A0 *6615:A 0.000285948
5 *5977:A0 *768:44 0
6 *5977:S *5977:A0 8.65905e-05
7 *230:66 *5977:A0 0.000340858
*RES
1 *5975:X *5977:A0 15.93 
*END

*D_NET *274 0.000924366
*CONN
*I *5977:A1 I *D sky130_fd_sc_hd__mux2_1
*I *5976:X O *D sky130_fd_sc_hd__mux4_1
*CAP
1 *5977:A1 0.000282484
2 *5976:X 0.000282484
3 *5977:A1 *5976:A2 4.99619e-05
4 *5977:A1 *6126:A0 0
5 *5977:A1 *6126:A1 0.000160641
6 *5977:A1 *768:44 7.4027e-05
7 *5977:A0 *5977:A1 2.8185e-05
8 *5977:S *5977:A1 4.65831e-05
*RES
1 *5976:X *5977:A1 12.345 
*END

*D_NET *275 0.0012237
*CONN
*I *5981:A0 I *D sky130_fd_sc_hd__mux2_1
*I *5977:X O *D sky130_fd_sc_hd__mux2_1
*CAP
1 *5981:A0 0.000439393
2 *5977:X 0.000439393
3 *5981:A0 *5976:A1 9.29751e-06
4 *5981:A0 *5976:A2 0.000199833
5 *5981:A0 *5976:A3 8.53113e-06
6 *5981:A0 *779:79 7.89689e-05
7 *5981:S *5981:A0 4.82863e-05
8 *232:69 *5981:A0 0
9 *233:45 *5981:A0 0
*RES
1 *5977:X *5981:A0 13.875 
*END

*D_NET *276 0.00193394
*CONN
*I *5980:A0 I *D sky130_fd_sc_hd__mux2_1
*I *5978:X O *D sky130_fd_sc_hd__mux4_1
*CAP
1 *5980:A0 0.000540834
2 *5978:X 0.000540834
3 *5980:A0 *6106:A 0
4 *5980:A0 *6382:CLK 0.0005422
5 *5980:A0 *6575:A 0.000116165
6 *5980:A0 *493:73 0.000108329
7 *5980:A0 *779:33 0
8 *5980:A0 *779:43 4.82863e-05
9 *5980:S *5980:A0 3.72916e-05
10 *6382:D *5980:A0 0
*RES
1 *5978:X *5980:A0 18.06 
*END

*D_NET *277 0.000400642
*CONN
*I *5980:A1 I *D sky130_fd_sc_hd__mux2_1
*I *5979:X O *D sky130_fd_sc_hd__mux4_1
*CAP
1 *5980:A1 0.000127412
2 *5979:X 0.000127412
3 *5980:A1 *5981:A1 7.06865e-05
4 *5980:A1 *6524:A 5.30673e-05
5 *5980:A1 *470:100 2.20641e-05
*RES
1 *5979:X *5980:A1 9.375 
*END

*D_NET *278 0.00321268
*CONN
*I *5981:A1 I *D sky130_fd_sc_hd__mux2_1
*I *5980:X O *D sky130_fd_sc_hd__mux2_1
*CAP
1 *5981:A1 0.000647629
2 *5980:X 0.000647629
3 *5981:A1 *5979:A0 8.82263e-05
4 *5981:A1 *5979:A2 4.66742e-05
5 *5981:A1 *382:16 0.000650529
6 *5981:A1 *470:100 0.00102855
7 *5981:A1 *779:43 1.74678e-05
8 *5981:A1 *779:73 1.52945e-05
9 *5980:A1 *5981:A1 7.06865e-05
*RES
1 *5980:X *5981:A1 23.835 
*END

*D_NET *279 0.0101281
*CONN
*I *5982:A0 I *D sky130_fd_sc_hd__mux2_1
*I *5981:X O *D sky130_fd_sc_hd__mux2_1
*CAP
1 *5982:A0 0.00229258
2 *5981:X 0.00139
3 *279:22 0.00368258
4 *5982:A0 *5982:A1 4.99619e-05
5 *279:22 *6133:B1 7.40107e-05
6 *279:22 *6234:B1 1.61831e-05
7 *279:22 *309:16 7.1635e-05
8 *279:22 *349:10 8.23457e-05
9 *279:22 *372:16 0.000903612
10 *279:22 *470:100 6.1452e-05
11 *5889:A1 *5982:A0 4.99619e-05
12 *5889:A2 *5982:A0 0.000201508
13 *5889:C1 *5982:A0 2.30292e-05
14 *6168:A1 *5982:A0 3.46699e-05
15 *6168:A2 *5982:A0 2.81942e-05
16 *6168:B1 *5982:A0 8.40213e-05
17 *6203:B *279:22 2.16917e-05
18 *6231:A1 *5982:A0 9.44765e-05
19 *6287:A2 *5982:A0 2.91399e-05
20 *6287:A2 *279:22 3.45438e-05
21 *6287:C1 *5982:A0 0.000275857
22 *6399:D *279:22 2.92496e-05
23 *6668:A *5982:A0 8.8266e-05
24 *190:192 *279:22 3.86607e-05
25 *202:6 *5982:A0 9.01848e-05
26 *203:184 *279:22 7.06865e-05
27 *213:29 *279:22 0.000309612
*RES
1 *5981:X *279:22 29.2275 
2 *279:22 *5982:A0 36.0325 
*END

*D_NET *280 0.00063487
*CONN
*I *5983:A I *D sky130_fd_sc_hd__clkbuf_1
*I *5982:X O *D sky130_fd_sc_hd__mux2_1
*CAP
1 *5983:A 0.000281255
2 *5982:X 0.000281255
3 *5983:A *6676:A 0
4 *5983:A *709:90 7.23602e-05
*RES
1 *5982:X *5983:A 11.565 
*END

*D_NET *281 0.00256917
*CONN
*I *5986:A0 I *D sky130_fd_sc_hd__mux2_1
*I *5984:X O *D sky130_fd_sc_hd__mux4_1
*CAP
1 *5986:A0 0.00106774
2 *5984:X 0.00106774
3 *5986:A0 *6137:A 0
4 *5986:A0 *6170:A 0
5 *5986:A0 *6190:A 0
6 *5986:A0 *6206:A 0
7 *5986:A0 *6598:A 0
8 *5986:A0 *411:125 0
9 *5986:A0 *428:121 0
10 *5986:A0 *494:10 0
11 *5986:A0 *494:18 0
12 *5972:A1 *5986:A0 0.00023241
13 *5972:S *5986:A0 0
14 *5984:S1 *5986:A0 3.72916e-05
15 *6395:D *5986:A0 0
16 *6426:D *5986:A0 0.000163992
*RES
1 *5984:X *5986:A0 25.185 
*END

*D_NET *282 0.000834912
*CONN
*I *5986:A1 I *D sky130_fd_sc_hd__mux2_1
*I *5985:X O *D sky130_fd_sc_hd__mux4_1
*CAP
1 *5986:A1 0.000195479
2 *5985:X 0.000195479
3 *5986:A1 *372:30 7.4027e-05
4 *5986:S *5986:A1 0.000247613
5 *6392:D *5986:A1 0.000122313
*RES
1 *5985:X *5986:A1 11.55 
*END

*D_NET *283 0.000994285
*CONN
*I *5990:A0 I *D sky130_fd_sc_hd__mux2_1
*I *5986:X O *D sky130_fd_sc_hd__mux2_1
*CAP
1 *5990:A0 0.000311143
2 *5986:X 0.000311143
3 *5990:A0 *5990:A1 0.000157343
4 *5990:A0 *479:116 0.000118978
5 *5972:A1 *5990:A0 7.06865e-05
6 *5986:S *5990:A0 2.49909e-05
*RES
1 *5986:X *5990:A0 11.73 
*END

*D_NET *284 0.00399595
*CONN
*I *5989:A0 I *D sky130_fd_sc_hd__mux2_1
*I *5987:X O *D sky130_fd_sc_hd__mux4_1
*CAP
1 *5989:A0 0.00135899
2 *5987:X 0.00135899
3 *5989:A0 *5987:A2 8.53113e-06
4 *5989:A0 *5988:A3 0
5 *5989:A0 *6071:A1 0.000111901
6 *5989:A0 *6089:A1 5.21046e-05
7 *5989:A0 *6109:S 6.85292e-05
8 *5989:A0 *6290:A0 0
9 *5989:A0 *6290:S 0
10 *5989:A0 *6481:CLK 1.60058e-05
11 *5989:A0 *534:16 8.52003e-06
12 *5989:A0 *625:122 0
13 *5989:A0 *625:142 9.95272e-05
14 *5989:A0 *735:117 3.75952e-05
15 *5989:A0 *735:192 4.16739e-05
16 *5987:S1 *5989:A0 1.03592e-05
17 *5988:S0 *5989:A0 7.68851e-05
18 *6481:D *5989:A0 5.92849e-05
19 *230:128 *5989:A0 0
20 *230:140 *5989:A0 4.85568e-05
21 *233:191 *5989:A0 0.000638482
*RES
1 *5987:X *5989:A0 30.885 
*END

*D_NET *285 0.0016564
*CONN
*I *5989:A1 I *D sky130_fd_sc_hd__mux2_1
*I *5988:X O *D sky130_fd_sc_hd__mux4_1
*CAP
1 *5989:A1 0.000472083
2 *5988:X 0.000472083
3 *5989:A1 *5988:A0 0.000177722
4 *5989:A1 *482:76 9.27255e-06
5 *5989:A1 *482:93 0.000360601
6 *6494:D *5989:A1 9.53894e-05
7 *230:140 *5989:A1 1.61831e-05
8 *230:155 *5989:A1 5.30673e-05
*RES
1 *5988:X *5989:A1 14.4 
*END

*D_NET *286 0.00681991
*CONN
*I *5990:A1 I *D sky130_fd_sc_hd__mux2_1
*I *5989:X O *D sky130_fd_sc_hd__mux2_1
*CAP
1 *5990:A1 0.00170204
2 *5989:X 0.00170204
3 *5990:A1 *6023:A0 3.42596e-05
4 *5990:A1 *6134:A0 0.000463617
5 *5990:A1 *6134:S 1.19928e-05
6 *5990:A1 *6386:CLK 0.000124895
7 *5990:A1 *6545:A 8.82557e-05
8 *5990:A1 *6547:A 0.000141253
9 *5990:A1 *372:36 0.000316987
10 *5990:A1 *479:116 0.00046618
11 *5990:A1 *479:132 0.000140898
12 *5990:A1 *481:6 0.000186388
13 *5990:A1 *494:10 0.000226024
14 *5990:A1 *724:64 0.000112631
15 *5990:A1 *724:124 0
16 *5990:A1 *735:117 0.000652869
17 *5990:A0 *5990:A1 0.000157343
18 *237:112 *5990:A1 0.000122331
19 *237:124 *5990:A1 0.000169902
*RES
1 *5989:X *5990:A1 44.115 
*END

*D_NET *287 0.0123922
*CONN
*I *5991:A0 I *D sky130_fd_sc_hd__mux2_1
*I *5990:X O *D sky130_fd_sc_hd__mux2_1
*CAP
1 *5991:A0 0.0026859
2 *5990:X 0.00163401
3 *287:22 0.00431992
4 *5991:A0 *6255:A 1.33285e-05
5 *5991:A0 *6255:B 0.000122337
6 *5991:A0 *6257:B 0.000157968
7 *5991:A0 *6276:B 0.00015806
8 *5991:A0 *6277:B 0.000314923
9 *5991:A0 *6497:A 8.57024e-05
10 *5991:A0 *711:69 0
11 *5991:A0 *711:73 0
12 *5991:A0 *790:33 4.66108e-05
13 *5991:A0 *791:35 8.23457e-05
14 *287:22 *6037:A0 0.000726613
15 *287:22 *6037:A1 0.00020655
16 *287:22 *6037:S 8.49205e-05
17 *287:22 *6195:S 2.59835e-05
18 *287:22 *6505:A 2.85943e-05
19 *287:22 *309:31 0.00114461
20 *287:22 *479:30 0
21 *287:22 *636:84 3.06701e-05
22 *287:22 *790:14 3.96088e-05
23 *5948:S0 *5991:A0 8.69098e-05
24 *216:29 *287:22 3.79595e-05
25 *230:16 *287:22 0.000233801
26 *237:24 *5991:A0 0.000124895
*RES
1 *5990:X *287:22 26.7795 
2 *287:22 *5991:A0 45.47 
*END

*D_NET *288 0.000667213
*CONN
*I *5992:A I *D sky130_fd_sc_hd__clkbuf_1
*I *5991:X O *D sky130_fd_sc_hd__mux2_1
*CAP
1 *5992:A 0.000287071
2 *5991:X 0.000287071
3 *5992:A *5991:A1 0
4 *5992:A *6670:A 0
5 *6336:D *5992:A 9.30717e-05
*RES
1 *5991:X *5992:A 11.865 
*END

*D_NET *289 0.00121526
*CONN
*I *5995:A0 I *D sky130_fd_sc_hd__mux2_1
*I *5993:X O *D sky130_fd_sc_hd__mux4_1
*CAP
1 *5995:A0 0.000493948
2 *5993:X 0.000493948
3 *5995:A0 *5993:A0 5.062e-06
4 *5995:A0 *6446:CLK 2.16833e-05
5 *5995:A0 *428:75 0
6 *5995:A0 *488:24 0.000200615
7 *6398:D *5995:A0 0
*RES
1 *5993:X *5995:A0 14.67 
*END

*D_NET *290 0.00155577
*CONN
*I *5995:A1 I *D sky130_fd_sc_hd__mux2_1
*I *5994:X O *D sky130_fd_sc_hd__mux4_1
*CAP
1 *5995:A1 0.000478254
2 *5994:X 0.000478254
3 *5995:A1 *5904:A 0
4 *5995:A1 *6131:A 0
5 *5995:A1 *6148:S 0.000325354
6 *5995:A1 *6505:A 8.26604e-05
7 *5995:A1 *6542:A 0
8 *5995:A1 *295:20 0.000191243
9 *5995:A1 *636:90 0
10 *5995:S *5995:A1 0
11 *230:16 *5995:A1 0
12 *237:80 *5995:A1 0
*RES
1 *5994:X *5995:A1 16.245 
*END

*D_NET *291 0.00046393
*CONN
*I *5999:A0 I *D sky130_fd_sc_hd__mux2_1
*I *5995:X O *D sky130_fd_sc_hd__mux2_1
*CAP
1 *5999:A0 8.16917e-05
2 *5995:X 8.16917e-05
3 *5999:A0 *5994:A2 2.32719e-05
4 *5999:A0 *6148:S 4.82919e-05
5 *5999:A0 *6543:A 9.37731e-05
6 *5999:A0 *428:75 0.00013521
*RES
1 *5995:X *5999:A0 9.285 
*END

*D_NET *292 0.00855567
*CONN
*I *5998:A0 I *D sky130_fd_sc_hd__mux2_1
*I *5996:X O *D sky130_fd_sc_hd__mux4_1
*CAP
1 *5998:A0 0.000311102
2 *5996:X 0.00163535
3 *292:12 0.00194645
4 *5998:A0 *5997:A2 0
5 *5998:A0 *5997:S0 7.1635e-05
6 *5998:A0 *6130:S 0.000754263
7 *5998:A0 *6166:S 1.8928e-05
8 *5998:A0 *636:73 0.000356567
9 *5998:A0 *636:84 0
10 *292:12 *6021:B 6.28843e-05
11 *292:12 *6040:B1 0
12 *292:12 *6074:A 2.66765e-05
13 *292:12 *6095:A 2.54692e-05
14 *292:12 *6111:S 0.000579998
15 *292:12 *6114:B 1.58827e-05
16 *292:12 *6130:S 1.93401e-05
17 *292:12 *6150:A 0
18 *292:12 *6166:S 1.29991e-05
19 *292:12 *362:12 0.00151545
20 *292:12 *511:10 4.24292e-06
21 *292:12 *636:57 0.000969197
22 *5996:S1 *292:12 6.71882e-05
23 *5998:S *5998:A0 8.65961e-05
24 *6040:C1 *292:12 0
25 *6369:D *292:12 3.86607e-05
26 *6383:D *292:12 0
27 *203:64 *292:12 3.67779e-05
28 *203:197 *292:12 0
29 *212:14 *292:12 0
*RES
1 *5996:X *292:12 43.2375 
2 *292:12 *5998:A0 13.2225 
*END

*D_NET *293 0.00101604
*CONN
*I *5998:A1 I *D sky130_fd_sc_hd__mux2_1
*I *5997:X O *D sky130_fd_sc_hd__mux4_1
*CAP
1 *5998:A1 0.000458442
2 *5997:X 0.000458442
3 *5998:A1 *5904:A 6.20952e-05
4 *5998:A1 *309:16 0
5 *5998:S *5998:A1 3.70572e-05
*RES
1 *5997:X *5998:A1 13.89 
*END

*D_NET *294 0.00180881
*CONN
*I *5999:A1 I *D sky130_fd_sc_hd__mux2_1
*I *5998:X O *D sky130_fd_sc_hd__mux2_1
*CAP
1 *5999:A1 0.000282446
2 *5998:X 0.000282446
3 *5999:A1 *5994:A2 0.000154891
4 *5999:A1 *5994:A3 0.00022646
5 *5999:A1 *6130:S 0.000106092
6 *5999:A1 *428:75 0.000756474
*RES
1 *5998:X *5999:A1 16.23 
*END

*D_NET *295 0.0138999
*CONN
*I *6000:A0 I *D sky130_fd_sc_hd__mux2_1
*I *5999:X O *D sky130_fd_sc_hd__mux2_1
*CAP
1 *6000:A0 0.00102309
2 *5999:X 0.000749706
3 *295:28 0.00225647
4 *295:20 0.00198308
5 *6000:A0 *6118:S 2.05056e-05
6 *6000:A0 *362:61 0.000363298
7 *6000:A0 *658:10 0.00320958
8 *6000:A0 *735:105 0.00015639
9 *295:20 *5967:A0 5.05437e-05
10 *295:20 *5967:A1 3.23663e-05
11 *295:20 *6142:A0 0.000237243
12 *295:20 *6148:A0 7.4027e-05
13 *295:20 *6148:S 0.000290854
14 *295:20 *6195:A0 0.000320758
15 *295:20 *6543:A 0.000198945
16 *295:20 *372:74 7.25532e-05
17 *295:20 *428:75 1.82329e-05
18 *295:20 *636:111 2.24975e-05
19 *295:20 *768:85 2.0514e-05
20 *295:28 *5967:A0 0.000274553
21 *295:28 *6124:A0 0.000463611
22 *295:28 *6125:A 0.000203178
23 *295:28 *6136:A0 0.000576848
24 *295:28 *6137:A 0.000162311
25 *295:28 *6195:A0 0.00023635
26 *295:28 *362:61 0.000598797
27 *295:28 *572:8 4.82863e-05
28 *5967:S0 *295:20 4.40812e-05
29 *5995:A1 *295:20 0.000191243
*RES
1 *5999:X *295:20 27.225 
2 *295:20 *295:28 27.6338 
3 *295:28 *6000:A0 31.1462 
*END

*D_NET *296 0.000726987
*CONN
*I *6001:A I *D sky130_fd_sc_hd__clkbuf_1
*I *6000:X O *D sky130_fd_sc_hd__mux2_1
*CAP
1 *6001:A 0.000241989
2 *6000:X 0.000241989
3 *6001:A *658:10 8.8266e-05
4 *6001:A *703:27 7.06865e-05
5 *6001:A *712:72 0
6 *6000:S *6001:A 0
7 *6337:D *6001:A 8.40568e-05
8 *239:206 *6001:A 0
*RES
1 *6000:X *6001:A 11.67 
*END

*D_NET *297 0.00133367
*CONN
*I *6003:B1 I *D sky130_fd_sc_hd__o211a_4
*I *6002:X O *D sky130_fd_sc_hd__and4b_1
*CAP
1 *6003:B1 0.000171739
2 *6002:X 0.000171739
3 *6003:B1 *6002:B 0.00012657
4 *6003:B1 *6185:B 4.82863e-05
5 *6003:B1 *401:79 1.71013e-05
6 *6003:B1 *810:81 6.55328e-05
7 *6003:B1 *810:83 1.52184e-05
8 *6003:B1 *810:107 0.000297061
9 *6003:B1 *811:76 0.000272978
10 *182:44 *6003:B1 4.19797e-05
11 *182:102 *6003:B1 0.000105462
*RES
1 *6002:X *6003:B1 13.425 
*END

*D_NET *298 0.0220697
*CONN
*I *6014:S I *D sky130_fd_sc_hd__mux2_1
*I *6010:S I *D sky130_fd_sc_hd__mux2_1
*I *6004:S I *D sky130_fd_sc_hd__mux2_1
*I *6006:S I *D sky130_fd_sc_hd__mux2_1
*I *6016:S I *D sky130_fd_sc_hd__mux2_1
*I *6008:S I *D sky130_fd_sc_hd__mux2_1
*I *6012:S I *D sky130_fd_sc_hd__mux2_1
*I *6018:S I *D sky130_fd_sc_hd__mux2_1
*I *6003:X O *D sky130_fd_sc_hd__o211a_4
*CAP
1 *6014:S 0.000287949
2 *6010:S 0.000304248
3 *6004:S 2.42846e-05
4 *6006:S 0.000610079
5 *6016:S 0
6 *6008:S 4.90117e-05
7 *6012:S 3.55506e-05
8 *6018:S 0
9 *6003:X 0.00108339
10 *298:77 0.00161483
11 *298:73 0.00163899
12 *298:67 0.00126793
13 *298:52 0.00171996
14 *298:37 0.00243174
15 *298:33 0.00228091
16 *298:18 0.00199739
17 *6004:S *6004:A0 2.75229e-05
18 *6006:S *6016:A0 0.000124895
19 *6006:S *6291:A 0.000198051
20 *6006:S *6301:A 2.75145e-05
21 *6006:S *579:14 0
22 *6006:S *724:124 0.000220413
23 *6008:S *6008:A0 0.000203178
24 *6008:S *329:62 0.000115146
25 *6010:S *757:33 2.57174e-05
26 *6010:S *757:56 0.000581986
27 *6014:S *6571:A 4.83411e-05
28 *6014:S *460:31 0
29 *6014:S *493:10 0
30 *6014:S *493:56 0
31 *298:18 *5996:A0 0
32 *298:18 *6018:A1 5.53249e-06
33 *298:18 *6076:B1 9.98747e-05
34 *298:18 *6606:A 0.000115847
35 *298:18 *319:12 0
36 *298:18 *810:79 0
37 *298:18 *810:81 0
38 *298:18 *811:8 3.68682e-05
39 *298:18 *811:12 8.56227e-05
40 *298:33 *5996:A0 4.20297e-05
41 *298:33 *5996:A3 0.000530686
42 *298:33 *6018:A0 0.000201511
43 *298:33 *6369:CLK 2.75145e-05
44 *298:33 *493:10 0
45 *298:33 *527:6 2.34083e-05
46 *298:37 *6012:A0 5.062e-06
47 *298:37 *6012:A1 3.07153e-05
48 *298:37 *6013:A 6.60261e-06
49 *298:37 *6073:A0 1.83847e-05
50 *298:37 *6367:CLK 9.47668e-05
51 *298:37 *460:31 7.5919e-05
52 *298:37 *525:10 1.67266e-05
53 *298:52 *5951:A1 4.82863e-05
54 *298:52 *6008:A0 9.14049e-05
55 *298:52 *6012:A1 8.97793e-05
56 *298:52 *484:44 0.000256512
57 *298:52 *484:48 3.03775e-05
58 *298:52 *484:96 0.000191355
59 *298:67 *6008:A0 2.05056e-05
60 *298:67 *6310:A0 1.47256e-05
61 *298:67 *6310:A1 0.000200998
62 *298:67 *6312:S 0.000424525
63 *298:67 *6613:A 3.83194e-05
64 *298:67 *329:62 0.000423637
65 *298:67 *329:81 0.000677544
66 *298:67 *486:57 7.7615e-05
67 *298:67 *486:72 1.7396e-05
68 *298:73 *6156:A0 2.46089e-05
69 *298:73 *6157:A 0
70 *298:73 *6404:CLK 0
71 *298:73 *486:57 7.39816e-05
72 *298:77 *6004:A1 4.92612e-05
73 *298:77 *6005:A 0
74 *298:77 *6017:A 0
75 *298:77 *6289:A 0
76 *298:77 *6389:CLK 0
77 *298:77 *485:30 0
78 *298:77 *724:124 0
79 *5978:S0 *6014:S 0
80 *5978:S0 *298:33 0
81 *6003:A2 *298:18 4.00541e-06
82 *6003:C1 *298:18 5.5833e-05
83 *6340:D *298:52 8.44338e-06
84 *6341:D *298:67 3.89528e-05
85 *6366:D *298:52 6.50844e-06
86 *6367:D *298:37 0.00014532
87 *6369:D *298:33 1.43717e-05
88 *6486:D *298:77 0
89 *182:12 *298:18 0
90 *182:40 *298:18 0.000329681
91 *182:42 *298:18 0.000221373
92 *182:44 *298:18 0.000158297
93 *230:111 *298:73 0
94 *230:111 *298:77 0
*RES
1 *6003:X *298:18 27.665 
2 *298:18 *6018:S 1.6 
3 *298:18 *298:33 16.265 
4 *298:33 *298:37 15.215 
5 *298:37 *6012:S 2.215 
6 *298:37 *298:52 21.1 
7 *298:52 *6008:S 3.79 
8 *298:52 *298:67 15.02 
9 *298:67 *298:73 10.35 
10 *298:73 *298:77 18.425 
11 *298:77 *6016:S 1.6 
12 *298:77 *6006:S 17.57 
13 *298:73 *6004:S 4.05 
14 *298:67 *6010:S 9.585 
15 *298:33 *6014:S 8.295 
*END

*D_NET *299 0.000572811
*CONN
*I *6005:A I *D sky130_fd_sc_hd__clkbuf_1
*I *6004:X O *D sky130_fd_sc_hd__mux2_1
*CAP
1 *6005:A 0.00019378
2 *6004:X 0.00019378
3 *6005:A *6480:CLK 0.000157589
4 *6338:D *6005:A 9.60582e-07
5 *230:111 *6005:A 2.67022e-05
6 *298:77 *6005:A 0
*RES
1 *6004:X *6005:A 10.17 
*END

*D_NET *300 0.000770378
*CONN
*I *6007:A I *D sky130_fd_sc_hd__clkbuf_1
*I *6006:X O *D sky130_fd_sc_hd__mux2_1
*CAP
1 *6007:A 0.000339841
2 *6006:X 0.000339841
3 *6007:A *6481:CLK 3.72916e-05
4 *6007:A *625:122 2.67022e-05
5 *6007:A *724:124 2.67022e-05
*RES
1 *6006:X *6007:A 11.805 
*END

*D_NET *301 0.000631506
*CONN
*I *6009:A I *D sky130_fd_sc_hd__clkbuf_1
*I *6008:X O *D sky130_fd_sc_hd__mux2_1
*CAP
1 *6009:A 0.000197199
2 *6008:X 0.000197199
3 *6009:A *329:62 4.99619e-05
4 *6009:A *484:34 7.26551e-05
5 *6009:A *484:118 0
6 *6009:A *746:14 0
7 *6340:D *6009:A 0.000114492
*RES
1 *6008:X *6009:A 11.07 
*END

*D_NET *302 0.000424205
*CONN
*I *6011:A I *D sky130_fd_sc_hd__clkbuf_1
*I *6010:X O *D sky130_fd_sc_hd__mux2_1
*CAP
1 *6011:A 0.000110513
2 *6010:X 0.000110513
3 *6011:A *757:33 0
4 *6011:A *757:56 0.000203178
*RES
1 *6010:X *6011:A 5.645 
*END

*D_NET *303 0.000582683
*CONN
*I *6013:A I *D sky130_fd_sc_hd__clkbuf_1
*I *6012:X O *D sky130_fd_sc_hd__mux2_1
*CAP
1 *6013:A 0.00024988
2 *6012:X 0.00024988
3 *6013:A *5969:A1 0
4 *6013:A *6612:A 0
5 *6013:A *6616:A 0
6 *6013:A *329:50 0
7 *6013:A *493:71 0
8 *6013:A *525:10 0
9 *6342:D *6013:A 7.63204e-05
10 *298:37 *6013:A 6.60261e-06
*RES
1 *6012:X *6013:A 11.325 
*END

*D_NET *304 0.00014
*CONN
*I *6015:A I *D sky130_fd_sc_hd__clkbuf_1
*I *6014:X O *D sky130_fd_sc_hd__mux2_1
*CAP
1 *6015:A 5.86796e-05
2 *6014:X 5.86796e-05
3 *6015:A *319:51 1.68092e-05
4 *6015:A *329:29 5.83121e-06
*RES
1 *6014:X *6015:A 4.265 
*END

*D_NET *305 0.000536015
*CONN
*I *6017:A I *D sky130_fd_sc_hd__clkbuf_1
*I *6016:X O *D sky130_fd_sc_hd__mux2_1
*CAP
1 *6017:A 0.000241955
2 *6016:X 0.000241955
3 *6017:A *6389:CLK 0
4 *6017:A *485:28 0
5 *6017:A *485:30 0
6 *6344:D *6017:A 5.21046e-05
7 *298:77 *6017:A 0
*RES
1 *6016:X *6017:A 11.07 
*END

*D_NET *306 0.000794697
*CONN
*I *6019:A I *D sky130_fd_sc_hd__clkbuf_1
*I *6018:X O *D sky130_fd_sc_hd__mux2_1
*CAP
1 *6019:A 0.000272612
2 *6018:X 0.000272612
3 *6019:A *6303:A 8.56912e-05
4 *6019:A *6345:CLK 5.58436e-05
5 *6019:A *460:14 3.68682e-05
6 *6019:A *551:6 2.11084e-05
7 *6345:D *6019:A 4.99619e-05
*RES
1 *6018:X *6019:A 12.27 
*END

*D_NET *307 0.00122548
*CONN
*I *6021:B I *D sky130_fd_sc_hd__nor2_1
*I *6114:A I *D sky130_fd_sc_hd__nor2_1
*I *6132:B I *D sky130_fd_sc_hd__nor2_1
*I *6020:X O *D sky130_fd_sc_hd__or2_1
*CAP
1 *6021:B 0.000120036
2 *6114:A 0
3 *6132:B 1.66402e-05
4 *6020:X 5.35535e-05
5 *307:17 0.000193795
6 *307:6 0.000143952
7 *6021:B *6132:A 9.72742e-06
8 *6132:B *6132:A 1.49498e-05
9 *307:6 *6132:A 2.75229e-05
10 *307:6 *360:25 0.000171443
11 *307:17 *6115:B1 8.8266e-05
12 *307:17 *6132:A 5.32116e-05
13 *307:17 *360:25 7.23635e-05
14 *5901:A *6021:B 0
15 *5901:A *307:6 3.74161e-05
16 *5901:B *307:6 9.80032e-06
17 *182:56 *6132:B 0
18 *182:56 *307:6 0.000123225
19 *212:14 *6021:B 2.66935e-05
20 *292:12 *6021:B 6.28843e-05
*RES
1 *6020:X *307:6 3.775 
2 *307:6 *6132:B 1.96 
3 *307:6 *307:17 2.19 
4 *307:17 *6114:A 1.6 
5 *307:17 *6021:B 8.045 
*END

*D_NET *308 0.000822505
*CONN
*I *6022:B1 I *D sky130_fd_sc_hd__o211a_4
*I *6021:Y O *D sky130_fd_sc_hd__nor2_1
*CAP
1 *6022:B1 0.000123122
2 *6021:Y 0.000123122
3 *6022:B1 *309:10 4.21973e-05
4 *6022:B1 *401:79 0.000113809
5 *6021:A *6022:B1 2.75145e-05
6 *6022:C1 *6022:B1 0.000163204
7 *215:174 *6022:B1 0.000229536
*RES
1 *6021:Y *6022:B1 7.1 
*END

*D_NET *309 0.0249713
*CONN
*I *6033:S I *D sky130_fd_sc_hd__mux2_1
*I *6023:S I *D sky130_fd_sc_hd__mux2_1
*I *6025:S I *D sky130_fd_sc_hd__mux2_1
*I *6029:S I *D sky130_fd_sc_hd__mux2_1
*I *6027:S I *D sky130_fd_sc_hd__mux2_1
*I *6035:S I *D sky130_fd_sc_hd__mux2_1
*I *6031:S I *D sky130_fd_sc_hd__mux2_1
*I *6037:S I *D sky130_fd_sc_hd__mux2_1
*I *6022:X O *D sky130_fd_sc_hd__o211a_4
*CAP
1 *6033:S 0.000597226
2 *6023:S 0
3 *6025:S 0.000177236
4 *6029:S 0.00135985
5 *6027:S 0
6 *6035:S 0
7 *6031:S 0.000120494
8 *6037:S 3.98775e-05
9 *6022:X 0.000298561
10 *309:101 0.000862123
11 *309:69 0.00145156
12 *309:65 0.00129396
13 *309:52 0.00117914
14 *309:31 0.00119565
15 *309:16 0.00206952
16 *309:10 0.00251205
17 *6025:S *6023:A0 2.67022e-05
18 *6025:S *479:132 1.79483e-05
19 *6029:S *5949:A1 7.63125e-05
20 *6029:S *5949:A2 0.000111543
21 *6029:S *6029:A0 2.30292e-05
22 *6029:S *6029:A1 0.0001249
23 *6029:S *6030:A 1.08758e-05
24 *6029:S *6140:S 0
25 *6029:S *6175:A0 0
26 *6029:S *6193:A0 0.000137571
27 *6029:S *6565:A 1.01661e-05
28 *6029:S *6611:A 0
29 *6029:S *6632:A 0
30 *6029:S *401:87 0
31 *6029:S *483:63 0
32 *6029:S *495:88 0
33 *6029:S *757:75 8.23457e-05
34 *6029:S *757:79 0
35 *6031:S *6031:A0 4.47125e-05
36 *6031:S *6392:CLK 0.000162325
37 *6031:S *6595:A 0.00023468
38 *6031:S *625:51 8.97564e-05
39 *6033:S *5976:A0 0.0002526
40 *6033:S *401:79 0.00031145
41 *6037:S *6195:S 5.05521e-05
42 *309:10 *401:79 0.000123017
43 *309:16 *5904:A 0
44 *309:16 *6180:A 0.000161403
45 *309:16 *6215:A1 0.000183043
46 *309:16 *6216:A 0
47 *309:16 *6321:A 0
48 *309:16 *6327:CLK 0.000195932
49 *309:16 *6353:CLK 0.000224588
50 *309:16 *6415:CLK 0
51 *309:16 *372:74 6.86732e-05
52 *309:16 *470:18 0
53 *309:16 *470:100 0
54 *309:16 *489:34 0.00071211
55 *309:16 *489:95 0.000474943
56 *309:16 *492:68 0.000219593
57 *309:31 *6195:S 0.000127921
58 *309:52 *5985:A3 0.000267783
59 *309:52 *6146:A0 0.000137803
60 *309:52 *6199:A1 7.03893e-05
61 *309:52 *6392:CLK 0.000179987
62 *309:52 *6630:A 0.000232111
63 *309:52 *625:51 6.81237e-05
64 *309:52 *625:66 2.15594e-05
65 *309:52 *768:44 0
66 *309:65 *6035:A0 0.000151784
67 *309:65 *6630:A 7.66083e-05
68 *309:65 *625:116 0.000708805
69 *309:69 *5949:A1 4.97036e-05
70 *309:69 *6525:A 4.08641e-05
71 *309:101 *5925:A3 7.86654e-05
72 *309:101 *625:116 0.000149042
73 *5925:S0 *6025:S 0
74 *5949:S0 *6029:S 0
75 *5949:S1 *6029:S 6.27904e-06
76 *5950:S *309:101 0.000159843
77 *5955:A0 *309:101 0.000280614
78 *5958:S0 *6029:S 0.000599797
79 *5988:S0 *309:52 0.000158066
80 *5998:A1 *309:16 0
81 *6022:A1 *309:10 0.000135468
82 *6022:A2 *309:10 8.40269e-05
83 *6022:B1 *309:10 4.21973e-05
84 *6022:C1 *309:10 0.000201508
85 *6305:A1 *309:16 0
86 *6325:D *6029:S 0.000311102
87 *6348:D *6029:S 0.000173009
88 *6348:D *309:65 0.000317353
89 *6348:D *309:69 9.05678e-05
90 *6349:D *6029:S 0.000131002
91 *6353:D *309:16 6.9117e-05
92 *6399:D *309:16 0
93 *6415:D *309:16 0
94 *215:10 *309:16 0
95 *225:160 *309:16 0
96 *225:181 *6029:S 0.000210843
97 *226:183 *6025:S 8.92272e-05
98 *226:204 *6029:S 0
99 *226:219 *6029:S 0
100 *230:66 *309:52 0
101 *230:81 *6033:S 0
102 *233:66 *6033:S 0.000162325
103 *237:97 *6031:S 0.000180988
104 *237:124 *6025:S 0.000247567
105 *237:124 *309:101 0.000370063
106 *279:22 *309:16 7.1635e-05
107 *287:22 *6037:S 8.49205e-05
108 *287:22 *309:31 0.00114461
*RES
1 *6022:X *309:10 7.945 
2 *309:10 *309:16 38.785 
3 *309:16 *6037:S 2.755 
4 *309:16 *309:31 12.815 
5 *309:31 *6031:S 8.355 
6 *309:31 *309:52 15.635 
7 *309:52 *6035:S 1.6 
8 *309:52 *309:65 12.915 
9 *309:65 *309:69 4.145 
10 *309:69 *6027:S 3.6 
11 *309:69 *6029:S 33.21 
12 *309:65 *309:101 17.915 
13 *309:101 *6025:S 7.785 
14 *309:101 *6023:S 3.6 
15 *309:10 *6033:S 17.6 
*END

*D_NET *310 0.000902782
*CONN
*I *6024:A I *D sky130_fd_sc_hd__clkbuf_1
*I *6023:X O *D sky130_fd_sc_hd__mux2_1
*CAP
1 *6024:A 0.000216396
2 *6023:X 0.000216396
3 *6024:A *5925:A3 0.000136838
4 *6024:A *6187:A0 4.82863e-05
5 *6024:A *6545:A 0.000141599
6 *6024:A *6548:A 0.000143266
*RES
1 *6023:X *6024:A 11.355 
*END

*D_NET *311 0.000907279
*CONN
*I *6026:A I *D sky130_fd_sc_hd__clkbuf_1
*I *6025:X O *D sky130_fd_sc_hd__mux2_1
*CAP
1 *6026:A 0.000291494
2 *6025:X 0.000291494
3 *6026:A *5940:A0 4.61744e-05
4 *6026:A *6025:A1 0.000278117
5 *6026:A *6645:A 0
6 *5925:S0 *6026:A 0
*RES
1 *6025:X *6026:A 12.12 
*END

*D_NET *312 0.00193589
*CONN
*I *6028:A I *D sky130_fd_sc_hd__clkbuf_1
*I *6027:X O *D sky130_fd_sc_hd__mux2_1
*CAP
1 *6028:A 0.000550585
2 *6027:X 0.000550585
3 *6028:A *6027:A0 0.000118081
4 *6028:A *6120:A1 0
5 *6028:A *6388:CLK 0.000347922
6 *5950:A1 *6028:A 2.37321e-05
7 *5954:A0 *6028:A 2.76356e-05
8 *226:204 *6028:A 0.00025225
9 *226:219 *6028:A 6.50954e-05
*RES
1 *6027:X *6028:A 16.95 
*END

*D_NET *313 0.000150931
*CONN
*I *6030:A I *D sky130_fd_sc_hd__clkbuf_1
*I *6029:X O *D sky130_fd_sc_hd__mux2_1
*CAP
1 *6030:A 5.91858e-05
2 *6029:X 5.91858e-05
3 *6030:A *757:75 2.16833e-05
4 *6029:S *6030:A 1.08758e-05
*RES
1 *6029:X *6030:A 4.265 
*END

*D_NET *314 0.000782227
*CONN
*I *6032:A I *D sky130_fd_sc_hd__clkbuf_1
*I *6031:X O *D sky130_fd_sc_hd__mux2_1
*CAP
1 *6032:A 0.000281279
2 *6031:X 0.000281279
3 *6032:A *6195:S 0
4 *6032:A *6350:CLK 4.99619e-05
5 *6032:A *768:69 8.31173e-05
6 *239:168 *6032:A 8.65905e-05
*RES
1 *6031:X *6032:A 11.205 
*END

*D_NET *315 0.00015793
*CONN
*I *6034:A I *D sky130_fd_sc_hd__clkbuf_1
*I *6033:X O *D sky130_fd_sc_hd__mux2_1
*CAP
1 *6034:A 4.34298e-05
2 *6033:X 4.34298e-05
3 *6034:A *401:83 2.11084e-05
4 *6034:A *779:141 4.99619e-05
*RES
1 *6033:X *6034:A 4.265 
*END

*D_NET *316 0.000356568
*CONN
*I *6036:A I *D sky130_fd_sc_hd__clkbuf_1
*I *6035:X O *D sky130_fd_sc_hd__mux2_1
*CAP
1 *6036:A 9.30677e-05
2 *6035:X 9.30677e-05
3 *6036:A *6199:A1 5.4256e-05
4 *5988:S0 *6036:A 4.99619e-05
5 *6352:D *6036:A 3.86607e-05
6 *230:66 *6036:A 2.75538e-05
*RES
1 *6035:X *6036:A 9.285 
*END

*D_NET *317 0.00128891
*CONN
*I *6038:A I *D sky130_fd_sc_hd__clkbuf_1
*I *6037:X O *D sky130_fd_sc_hd__mux2_1
*CAP
1 *6038:A 0.00034224
2 *6037:X 0.00034224
3 *6038:A *5904:A 0.000104747
4 *6038:A *6195:S 0.000198939
5 *6038:A *6350:CLK 1.08758e-05
6 *6353:D *6038:A 0.000128344
7 *239:168 *6038:A 0.000161529
*RES
1 *6037:X *6038:A 13.935 
*END

*D_NET *318 0.000785993
*CONN
*I *6040:B1 I *D sky130_fd_sc_hd__o211a_4
*I *6039:X O *D sky130_fd_sc_hd__and4_1
*CAP
1 *6040:B1 0.000320948
2 *6039:X 0.000320948
3 *6040:B1 *319:12 0.000119595
4 *6040:C1 *6040:B1 1.89685e-05
5 *190:207 *6040:B1 5.53249e-06
6 *292:12 *6040:B1 0
*RES
1 *6039:X *6040:B1 12.36 
*END

*D_NET *319 0.0237717
*CONN
*I *6051:S I *D sky130_fd_sc_hd__mux2_1
*I *6047:S I *D sky130_fd_sc_hd__mux2_1
*I *6041:S I *D sky130_fd_sc_hd__mux2_1
*I *6043:S I *D sky130_fd_sc_hd__mux2_1
*I *6053:S I *D sky130_fd_sc_hd__mux2_1
*I *6045:S I *D sky130_fd_sc_hd__mux2_1
*I *6049:S I *D sky130_fd_sc_hd__mux2_1
*I *6055:S I *D sky130_fd_sc_hd__mux2_1
*I *6040:X O *D sky130_fd_sc_hd__o211a_4
*CAP
1 *6051:S 0.000208344
2 *6047:S 0.000183136
3 *6041:S 0
4 *6043:S 0.000616519
5 *6053:S 3.55506e-05
6 *6045:S 0
7 *6049:S 0
8 *6055:S 5.08594e-05
9 *6040:X 0.00125155
10 *319:109 0.00101069
11 *319:105 0.00128455
12 *319:95 0.00191858
13 *319:84 0.00198394
14 *319:59 0.00188731
15 *319:51 0.00222671
16 *319:12 0.0026079
17 *6043:S *5942:A2 8.57024e-05
18 *6043:S *5987:A0 8.47501e-05
19 *6043:S *6044:A 4.66826e-05
20 *6043:S *6053:A0 8.40269e-05
21 *6043:S *6072:A 7.4027e-05
22 *6043:S *6368:CLK 5.05521e-05
23 *6043:S *6539:A 7.70828e-05
24 *6043:S *329:87 0
25 *6043:S *485:90 0.000179731
26 *6043:S *485:118 8.17841e-05
27 *6043:S *526:6 1.1392e-05
28 *6047:S *6047:A0 5.77162e-05
29 *6047:S *6047:A1 0.000273835
30 *6047:S *6048:A 0.000163204
31 *6047:S *6294:A0 8.43946e-05
32 *6051:S *6051:A0 7.13223e-06
33 *6051:S *6298:A1 2.08328e-05
34 *6051:S *779:181 0.000115335
35 *6055:S *6055:A1 1.90686e-05
36 *6055:S *460:31 0.000145542
37 *6055:S *636:38 6.181e-05
38 *6055:S *636:47 3.00381e-05
39 *319:12 *5996:A0 0
40 *319:12 *5996:A1 0
41 *319:12 *5996:A3 0
42 *319:12 *6039:C 0
43 *319:12 *6074:A 0
44 *319:12 *6383:CLK 0
45 *319:12 *6606:A 0
46 *319:51 *5978:A1 0.00011209
47 *319:51 *5978:A3 7.47215e-05
48 *319:51 *5996:A1 0
49 *319:51 *6014:A1 0.00015896
50 *319:51 *6583:A 4.82863e-05
51 *319:51 *329:29 0.000777698
52 *319:51 *779:33 2.92496e-05
53 *319:51 *779:181 0.000149071
54 *319:59 *6049:A0 1.46744e-05
55 *319:59 *6049:A1 0.000160635
56 *319:59 *6050:A 0.000234674
57 *319:59 *6297:A 0.000119631
58 *319:59 *493:69 0.000155436
59 *319:84 *5951:A1 2.49909e-05
60 *319:84 *5951:A3 0.000203402
61 *319:84 *6045:A0 1.54665e-05
62 *319:84 *6045:A1 0.000155605
63 *319:84 *6046:A 0.000236905
64 *319:84 *6049:A0 0.000199833
65 *319:84 *6050:A 0.000179035
66 *319:84 *6593:A 9.53428e-06
67 *319:84 *6653:A 2.98644e-05
68 *319:84 *546:8 4.12959e-05
69 *319:95 *6045:A0 5.11067e-05
70 *319:105 *5960:A0 3.31282e-05
71 *319:105 *5960:A3 1.44259e-05
72 *319:105 *6010:A0 2.67022e-05
73 *319:105 *6042:A 1.82476e-05
74 *319:105 *6047:A1 0
75 *319:105 *6048:A 7.18817e-05
76 *319:105 *6288:A0 6.55667e-05
77 *319:105 *6294:A0 0.000133657
78 *319:105 *6602:A 3.04396e-05
79 *319:105 *460:78 0
80 *319:105 *486:34 0.000354213
81 *319:105 *486:93 0.000136877
82 *319:105 *757:154 0
83 *319:109 *6288:A0 0.000154435
84 *319:109 *6502:A 0.000117825
85 *319:109 *479:238 0.000196303
86 *319:109 *485:10 0.000316806
87 *319:109 *486:10 0.000231564
88 *319:109 *486:34 0.000324278
89 *5996:S0 *319:12 6.47516e-05
90 *6015:A *319:51 1.68092e-05
91 *6040:B1 *319:12 0.000119595
92 *6354:D *319:105 0
93 *6356:D *319:84 0
94 *6359:D *6051:S 0
95 *6359:D *319:51 0
96 *6361:D *319:51 0
97 *6368:D *6043:S 1.43717e-05
98 *6383:D *319:12 0
99 *6482:D *319:84 1.43717e-05
100 *6484:D *319:59 0.000164874
101 *16:5 *319:84 0
102 *182:12 *319:12 6.55406e-05
103 *182:40 *319:12 0
104 *190:207 *319:12 9.50342e-06
105 *211:23 *319:12 0
106 *211:25 *319:12 0
107 *211:31 *319:12 0
108 *230:128 *6043:S 0.000407292
109 *232:141 *319:105 0
110 *232:143 *319:105 6.50116e-05
111 *232:157 *319:109 0.000173203
112 *232:167 *6043:S 0.000227543
113 *233:181 *319:109 0
114 *298:18 *319:12 0
*RES
1 *6040:X *319:12 25.005 
2 *319:12 *6055:S 5.91 
3 *319:12 *319:51 28.835 
4 *319:51 *319:59 14.9 
5 *319:59 *6049:S 1.6 
6 *319:59 *319:84 26.455 
7 *319:84 *6045:S 1.6 
8 *319:84 *319:95 14.915 
9 *319:95 *319:105 17.88 
10 *319:105 *319:109 13.835 
11 *319:109 *6053:S 2.215 
12 *319:109 *6043:S 20.96 
13 *319:105 *6041:S 3.6 
14 *319:95 *6047:S 9.36 
15 *319:51 *6051:S 6.735 
*END

*D_NET *320 0.00106852
*CONN
*I *6042:A I *D sky130_fd_sc_hd__clkbuf_1
*I *6041:X O *D sky130_fd_sc_hd__mux2_1
*CAP
1 *6042:A 0.000168833
2 *6041:X 0.000168833
3 *6042:A *5931:A1 0.000364101
4 *6042:A *6288:A0 0.000158982
5 *6042:A *339:65 0.000122337
6 *6042:A *724:151 6.71882e-05
7 *319:105 *6042:A 1.82476e-05
*RES
1 *6041:X *6042:A 12.225 
*END

*D_NET *321 0.00105311
*CONN
*I *6044:A I *D sky130_fd_sc_hd__clkbuf_1
*I *6043:X O *D sky130_fd_sc_hd__mux2_1
*CAP
1 *6044:A 0.000324143
2 *6043:X 0.000324143
3 *6044:A *5942:A2 6.76188e-05
4 *6044:A *6355:CLK 0.000162038
5 *6044:A *6363:CLK 4.82919e-05
6 *6044:A *485:90 9.50342e-06
7 *6043:S *6044:A 4.66826e-05
8 *6355:D *6044:A 7.06865e-05
*RES
1 *6043:X *6044:A 12.15 
*END

*D_NET *322 0.000695773
*CONN
*I *6046:A I *D sky130_fd_sc_hd__clkbuf_1
*I *6045:X O *D sky130_fd_sc_hd__mux2_1
*CAP
1 *6046:A 0.000205757
2 *6045:X 0.000205757
3 *6046:A *5951:A3 1.16578e-05
4 *6046:A *6653:A 8.33066e-06
5 *16:5 *6046:A 2.73658e-05
6 *319:84 *6046:A 0.000236905
*RES
1 *6045:X *6046:A 11.46 
*END

*D_NET *323 0.000808606
*CONN
*I *6048:A I *D sky130_fd_sc_hd__clkbuf_1
*I *6047:X O *D sky130_fd_sc_hd__mux2_1
*CAP
1 *6048:A 0.000182671
2 *6047:X 0.000182671
3 *6048:A *6294:A0 4.82919e-05
4 *6048:A *486:83 4.66108e-05
5 *6048:A *486:93 2.92496e-05
6 *6047:S *6048:A 0.000163204
7 *6357:D *6048:A 8.40269e-05
8 *319:105 *6048:A 7.18817e-05
*RES
1 *6047:X *6048:A 11.37 
*END

*D_NET *324 0.00160081
*CONN
*I *6050:A I *D sky130_fd_sc_hd__clkbuf_1
*I *6049:X O *D sky130_fd_sc_hd__mux2_1
*CAP
1 *6050:A 0.000541198
2 *6049:X 0.000541198
3 *6050:A *6049:A0 5.46646e-05
4 *6050:A *6356:CLK 0
5 *6358:D *6050:A 5.00391e-05
6 *319:59 *6050:A 0.000234674
7 *319:84 *6050:A 0.000179035
*RES
1 *6049:X *6050:A 15.555 
*END

*D_NET *325 0.000358
*CONN
*I *6052:A I *D sky130_fd_sc_hd__clkbuf_1
*I *6051:X O *D sky130_fd_sc_hd__mux2_1
*CAP
1 *6052:A 0.000135881
2 *6051:X 0.000135881
3 *6052:A *6298:A1 4.90291e-05
4 *6359:D *6052:A 3.72081e-05
*RES
1 *6051:X *6052:A 9.375 
*END

*D_NET *326 0.00149323
*CONN
*I *6054:A I *D sky130_fd_sc_hd__clkbuf_1
*I *6053:X O *D sky130_fd_sc_hd__mux2_1
*CAP
1 *6054:A 0.000533201
2 *6053:X 0.000533201
3 *6054:A *6651:A 7.23602e-05
4 *6054:A *460:80 7.4027e-05
5 *6054:A *485:16 9.87313e-05
6 *6054:A *485:86 7.90936e-05
7 *6054:A *534:16 0.000102613
*RES
1 *6053:X *6054:A 14.565 
*END

*D_NET *327 0.000157716
*CONN
*I *6056:A I *D sky130_fd_sc_hd__clkbuf_1
*I *6055:X O *D sky130_fd_sc_hd__mux2_1
*CAP
1 *6056:A 4.74944e-05
2 *6055:X 4.74944e-05
3 *6056:A *460:31 6.2727e-05
*RES
1 *6055:X *6056:A 4.265 
*END

*D_NET *328 0.00100654
*CONN
*I *6058:B1 I *D sky130_fd_sc_hd__o211a_4
*I *6057:X O *D sky130_fd_sc_hd__and4b_1
*CAP
1 *6058:B1 0.000461259
2 *6057:X 0.000461259
3 *6058:B1 *329:10 8.40213e-05
*RES
1 *6057:X *6058:B1 9.53 
*END

*D_NET *329 0.0237707
*CONN
*I *6067:S I *D sky130_fd_sc_hd__mux2_1
*I *6065:S I *D sky130_fd_sc_hd__mux2_1
*I *6059:S I *D sky130_fd_sc_hd__mux2_1
*I *6071:S I *D sky130_fd_sc_hd__mux2_1
*I *6061:S I *D sky130_fd_sc_hd__mux2_1
*I *6063:S I *D sky130_fd_sc_hd__mux2_1
*I *6069:S I *D sky130_fd_sc_hd__mux2_1
*I *6073:S I *D sky130_fd_sc_hd__mux2_1
*I *6058:X O *D sky130_fd_sc_hd__o211a_4
*CAP
1 *6067:S 0
2 *6065:S 9.7158e-05
3 *6059:S 0
4 *6071:S 0
5 *6061:S 0.000340788
6 *6063:S 0.000253828
7 *6069:S 2.08101e-05
8 *6073:S 0
9 *6058:X 0.000481442
10 *329:87 0.000657948
11 *329:85 0.000931478
12 *329:81 0.00211794
13 *329:62 0.00255553
14 *329:50 0.00197267
15 *329:29 0.00166068
16 *329:10 0.00104388
17 *6061:S *6061:A0 5.30673e-05
18 *6061:S *485:90 9.24049e-05
19 *6063:S *5951:A1 0
20 *6063:S *5951:A2 5.23362e-05
21 *6063:S *5951:A3 7.63476e-05
22 *6063:S *6063:A0 8.8266e-05
23 *6063:S *6063:A1 6.65725e-05
24 *6063:S *6064:A 0.000136884
25 *6063:S *460:76 0.000201508
26 *6065:S *6065:A0 8.8266e-05
27 *6065:S *6066:A 5.30673e-05
28 *6065:S *6312:S 0.000102939
29 *329:10 *6555:A 6.00003e-05
30 *329:10 *351:31 0.000877298
31 *329:10 *493:10 0.000236989
32 *329:10 *493:27 0
33 *329:10 *636:57 0.00153903
34 *329:29 *6014:A0 0.000271776
35 *329:29 *6014:A1 3.52434e-05
36 *329:29 *6055:A0 0
37 *329:29 *6069:A0 5.30673e-05
38 *329:29 *6555:A 9.50342e-06
39 *329:29 *493:10 9.50036e-05
40 *329:29 *493:27 0
41 *329:29 *493:56 0.000102435
42 *329:29 *779:22 9.80943e-06
43 *329:50 *5969:A1 0.000136877
44 *329:50 *6012:A0 9.6227e-05
45 *329:50 *6067:A0 1.12578e-05
46 *329:50 *6067:A1 0.000385327
47 *329:50 *6068:A 8.8266e-05
48 *329:50 *6069:A0 0.00022957
49 *329:50 *6553:A 2.53906e-05
50 *329:50 *768:18 0
51 *329:50 *768:20 0
52 *329:50 *768:26 0
53 *329:50 *779:20 0.000178912
54 *329:62 *6008:A0 3.28386e-05
55 *329:62 *6008:A1 4.82863e-05
56 *329:62 *6067:A0 0.000392136
57 *329:62 *6553:A 5.25548e-05
58 *329:81 *5960:A2 0.000335192
59 *329:81 *6312:S 0.000331656
60 *329:81 *539:8 4.82919e-05
61 *329:85 *6041:A0 0
62 *329:85 *6065:A1 5.21046e-05
63 *329:85 *6103:S 9.57632e-05
64 *329:85 *6104:A 0.00020425
65 *329:85 *724:164 0.000682945
66 *329:87 *6539:A 0
67 *329:87 *485:90 8.34426e-05
68 *329:87 *485:118 0.000114753
69 *5935:A1 *329:85 0.000120186
70 *5960:S1 *329:85 6.65606e-05
71 *5962:A0 *329:85 0
72 *5963:A1 *329:85 0.000646699
73 *5963:S *329:85 0
74 *6008:S *329:62 0.000115146
75 *6009:A *329:62 4.99619e-05
76 *6013:A *329:50 0
77 *6015:A *329:29 5.83121e-06
78 *6043:S *329:87 0
79 *6058:B1 *329:10 8.40213e-05
80 *6343:D *329:29 8.81214e-05
81 *16:5 *6063:S 0
82 *230:128 *329:87 0
83 *230:211 *329:85 1.61461e-05
84 *230:211 *329:87 1.22762e-05
85 *233:139 *6063:S 0.000121884
86 *233:150 *6063:S 7.3664e-05
87 *233:171 *329:85 0
88 *237:169 *6061:S 6.73751e-05
89 *237:169 *329:85 7.07664e-05
90 *237:169 *329:87 0.000291171
91 *298:67 *329:62 0.000423637
92 *298:67 *329:81 0.000677544
93 *319:51 *329:29 0.000777698
*RES
1 *6058:X *329:10 22.605 
2 *329:10 *6073:S 3.6 
3 *329:10 *329:29 16.01 
4 *329:29 *6069:S 1.96 
5 *329:29 *329:50 23.41 
6 *329:50 *329:62 15.105 
7 *329:62 *6063:S 12.89 
8 *329:62 *329:81 19.8 
9 *329:81 *329:85 20.72 
10 *329:85 *329:87 8.265 
11 *329:87 *6061:S 9.735 
12 *329:87 *6071:S 3.6 
13 *329:85 *6059:S 3.6 
14 *329:81 *6065:S 4.12 
15 *329:50 *6067:S 1.6 
*END

*D_NET *330 0.00039531
*CONN
*I *6060:A I *D sky130_fd_sc_hd__clkbuf_1
*I *6059:X O *D sky130_fd_sc_hd__mux2_1
*CAP
1 *6060:A 0.000124214
2 *6059:X 0.000124214
3 *5963:A0 *6060:A 0
4 *230:211 *6060:A 0.000146881
*RES
1 *6059:X *6060:A 9.375 
*END

*D_NET *331 0.000245437
*CONN
*I *6062:A I *D sky130_fd_sc_hd__clkbuf_1
*I *6061:X O *D sky130_fd_sc_hd__mux2_1
*CAP
1 *6062:A 4.07155e-05
2 *6061:X 4.07155e-05
3 *6062:A *351:119 4.61744e-05
4 *5935:A0 *6062:A 0.000117832
*RES
1 *6061:X *6062:A 8.58 
*END

*D_NET *332 0.000477369
*CONN
*I *6064:A I *D sky130_fd_sc_hd__clkbuf_1
*I *6063:X O *D sky130_fd_sc_hd__mux2_1
*CAP
1 *6064:A 5.43495e-05
2 *6063:X 5.43495e-05
3 *6064:A *5951:A3 0.000136884
4 *6064:A *6364:CLK 4.66108e-05
5 *6063:S *6064:A 0.000136884
6 *6364:D *6064:A 4.82919e-05
*RES
1 *6063:X *6064:A 9.285 
*END

*D_NET *333 0.000659494
*CONN
*I *6066:A I *D sky130_fd_sc_hd__clkbuf_1
*I *6065:X O *D sky130_fd_sc_hd__mux2_1
*CAP
1 *6066:A 0.000244997
2 *6065:X 0.000244997
3 *6066:A *5960:A1 0
4 *6066:A *6521:A 0
5 *6066:A *486:106 0
6 *5960:S1 *6066:A 0
7 *5962:A0 *6066:A 7.23602e-05
8 *6065:S *6066:A 5.30673e-05
9 *6365:D *6066:A 4.40725e-05
*RES
1 *6065:X *6066:A 11.415 
*END

*D_NET *334 0.00117491
*CONN
*I *6068:A I *D sky130_fd_sc_hd__clkbuf_1
*I *6067:X O *D sky130_fd_sc_hd__mux2_1
*CAP
1 *6068:A 0.000264239
2 *6067:X 0.000264239
3 *6068:A *5969:A3 3.95347e-05
4 *5969:S0 *6068:A 0
5 *6366:D *6068:A 0.000287337
6 *233:81 *6068:A 0.000154223
7 *233:92 *6068:A 7.70758e-05
8 *329:50 *6068:A 8.8266e-05
*RES
1 *6067:X *6068:A 13.71 
*END

*D_NET *335 0.000903577
*CONN
*I *6070:A I *D sky130_fd_sc_hd__clkbuf_1
*I *6069:X O *D sky130_fd_sc_hd__mux2_1
*CAP
1 *6070:A 0.00024058
2 *6069:X 0.00024058
3 *6070:A *5978:A1 7.23602e-05
4 *6070:A *5978:A3 2.66852e-05
5 *6070:A *6367:CLK 0.000106833
6 *6070:A *779:33 4.49328e-05
7 *5978:S0 *6070:A 0
8 *6367:D *6070:A 3.23663e-05
9 *233:106 *6070:A 0.000139238
*RES
1 *6069:X *6070:A 12.21 
*END

*D_NET *336 0.000463035
*CONN
*I *6072:A I *D sky130_fd_sc_hd__clkbuf_1
*I *6071:X O *D sky130_fd_sc_hd__mux2_1
*CAP
1 *6072:A 0.000158328
2 *6071:X 0.000158328
3 *6043:S *6072:A 7.4027e-05
4 *230:128 *6072:A 7.23533e-05
*RES
1 *6071:X *6072:A 10.08 
*END

*D_NET *337 0.0010198
*CONN
*I *6074:A I *D sky130_fd_sc_hd__clkbuf_1
*I *6073:X O *D sky130_fd_sc_hd__mux2_1
*CAP
1 *6074:A 0.000211901
2 *6073:X 0.000211901
3 *6074:A *5996:A1 4.49415e-05
4 *6074:A *6345:CLK 0.000114492
5 *6074:A *493:27 0.000139245
6 *6074:A *636:57 0
7 *5996:S0 *6074:A 0
8 *6369:D *6074:A 0.000270647
9 *292:12 *6074:A 2.66765e-05
10 *319:12 *6074:A 0
*RES
1 *6073:X *6074:A 12.915 
*END

*D_NET *338 0.0023663
*CONN
*I *6076:B1 I *D sky130_fd_sc_hd__o211a_4
*I *6075:X O *D sky130_fd_sc_hd__and4b_1
*CAP
1 *6076:B1 0.000825362
2 *6075:X 0.000825362
3 *6076:B1 *339:8 2.31229e-05
4 *6076:B1 *339:31 7.67381e-05
5 *6076:B1 *810:81 2.87867e-05
6 *6003:A1 *6076:B1 0.000111285
7 *6003:A2 *6076:B1 1.90762e-05
8 *6003:C1 *6076:B1 2.8585e-06
9 *6040:A1 *6076:B1 0.000353831
10 *298:18 *6076:B1 9.98747e-05
*RES
1 *6075:X *6076:B1 18.36 
*END

*D_NET *339 0.0274511
*CONN
*I *6087:S I *D sky130_fd_sc_hd__mux2_1
*I *6083:S I *D sky130_fd_sc_hd__mux2_1
*I *6077:S I *D sky130_fd_sc_hd__mux2_1
*I *6079:S I *D sky130_fd_sc_hd__mux2_1
*I *6089:S I *D sky130_fd_sc_hd__mux2_1
*I *6081:S I *D sky130_fd_sc_hd__mux2_1
*I *6085:S I *D sky130_fd_sc_hd__mux2_1
*I *6091:S I *D sky130_fd_sc_hd__mux2_1
*I *6076:X O *D sky130_fd_sc_hd__o211a_4
*CAP
1 *6087:S 0.000332049
2 *6083:S 0.000255216
3 *6077:S 5.0547e-05
4 *6079:S 0
5 *6089:S 0.000749457
6 *6081:S 0
7 *6085:S 2.08101e-05
8 *6091:S 0.000564217
9 *6076:X 7.73183e-05
10 *339:81 0.00162343
11 *339:71 0.00132395
12 *339:65 0.00298099
13 *339:50 0.00325818
14 *339:37 0.00137364
15 *339:31 0.00157362
16 *339:8 0.00146212
17 *6077:S *6077:A0 1.61831e-05
18 *6077:S *6077:A1 5.05521e-05
19 *6083:S *5961:A0 0
20 *6083:S *6084:A 0
21 *6083:S *6531:A 8.0005e-05
22 *6083:S *515:10 7.63125e-05
23 *6087:S *6087:A0 4.66826e-05
24 *6087:S *6087:A1 2.8185e-05
25 *6087:S *470:100 2.75538e-05
26 *6087:S *492:8 0
27 *6087:S *492:64 0
28 *6087:S *779:62 0.000298442
29 *6089:S *5988:A3 2.75145e-05
30 *6089:S *6079:A0 2.87867e-05
31 *6089:S *6089:A0 7.5277e-05
32 *6089:S *6306:S 0.000310424
33 *6089:S *6570:A 8.43862e-05
34 *6089:S *518:12 9.97659e-05
35 *6091:S *6091:A0 8.23457e-05
36 *6091:S *6096:B1 0.000180689
37 *6091:S *6166:S 0.00028916
38 *6091:S *6635:A 8.23457e-05
39 *6091:S *351:31 0.000640111
40 *6091:S *362:12 4.03082e-05
41 *6091:S *511:10 5.83121e-06
42 *6091:S *519:10 0.000139245
43 *6091:S *636:57 0.00168026
44 *339:31 *470:100 0.000107862
45 *339:31 *492:64 0
46 *339:31 *492:68 0
47 *339:37 *6085:A0 2.30292e-05
48 *339:37 *6085:A1 4.82863e-05
49 *339:37 *6086:A 3.00381e-05
50 *339:37 *6162:A0 0.000182896
51 *339:37 *6163:A 9.53428e-06
52 *339:37 *6572:A 4.82863e-05
53 *339:37 *382:24 0.000553901
54 *339:37 *779:62 0.000122325
55 *339:37 *779:73 0.000112349
56 *339:50 *6085:A0 0.0004236
57 *339:50 *6085:A1 1.08758e-05
58 *339:50 *6501:A 0
59 *339:50 *6538:A 0
60 *339:50 *6632:A 4.82863e-05
61 *339:50 *382:24 0.00024946
62 *339:50 *483:53 5.51245e-05
63 *339:50 *746:45 8.78813e-05
64 *339:65 *6156:A0 1.0124e-05
65 *339:65 *6156:A1 0.000177857
66 *339:65 *6157:A 0.000461047
67 *339:65 *6538:A 0
68 *339:65 *724:151 2.8185e-05
69 *339:65 *724:164 0.000123989
70 *339:65 *746:37 0
71 *339:71 *5932:A3 0
72 *339:71 *6059:A0 4.5783e-05
73 *339:71 *6077:A1 4.80285e-05
74 *339:71 *6078:A 0.00031916
75 *339:71 *6084:A 0
76 *339:71 *351:111 0
77 *339:81 *5932:A0 0.000106885
78 *339:81 *5932:A2 0
79 *339:81 *5932:A3 0
80 *339:81 *6152:A1 0
81 *339:81 *6306:A1 7.09999e-05
82 *339:81 *6306:S 0.00115609
83 *339:81 *351:111 0
84 *339:81 *735:162 2.76356e-05
85 *5932:S0 *6089:S 0
86 *5932:S0 *339:81 0
87 *5943:S0 *6089:S 0.000177868
88 *5944:S *6089:S 0.000561727
89 *5961:S1 *6083:S 0
90 *5962:A1 *6083:S 0
91 *5964:A0 *6083:S 0
92 *5964:A0 *339:65 8.03844e-05
93 *5964:A0 *339:71 0
94 *6040:A2 *339:8 0
95 *6042:A *339:65 0.000122337
96 *6076:A1 *339:31 1.19928e-05
97 *6076:A2 *339:31 9.66021e-05
98 *6076:B1 *339:8 2.31229e-05
99 *6076:B1 *339:31 7.67381e-05
100 *6370:D *339:71 0.000162325
101 *6402:D *339:81 0
102 *6407:D *6087:S 0
103 *6423:D *339:31 9.37731e-05
104 *203:101 *6091:S 0
105 *203:112 *6091:S 0
106 *230:140 *6089:S 0.000278117
107 *232:184 *6089:S 0.000585533
108 *233:247 *339:65 0.000432532
109 *237:150 *6089:S 2.26018e-05
*RES
1 *6076:X *339:8 2.755 
2 *339:8 *6091:S 26.99 
3 *339:8 *339:31 14 
4 *339:31 *339:37 13.16 
5 *339:37 *6085:S 1.96 
6 *339:37 *339:50 20.12 
7 *339:50 *6081:S 3.6 
8 *339:50 *339:65 33.085 
9 *339:65 *339:71 10.55 
10 *339:71 *339:81 23.11 
11 *339:81 *6089:S 23.42 
12 *339:81 *6079:S 1.6 
13 *339:71 *6077:S 2.74 
14 *339:65 *6083:S 8.295 
15 *339:31 *6087:S 9.615 
*END

*D_NET *340 0.000828069
*CONN
*I *6078:A I *D sky130_fd_sc_hd__clkbuf_1
*I *6077:X O *D sky130_fd_sc_hd__mux2_1
*CAP
1 *6078:A 0.000211603
2 *6077:X 0.000211603
3 *6078:A *5932:A3 0
4 *6078:A *6077:A1 8.57024e-05
5 *339:71 *6078:A 0.00031916
*RES
1 *6077:X *6078:A 11.67 
*END

*D_NET *341 0.00127568
*CONN
*I *6080:A I *D sky130_fd_sc_hd__clkbuf_1
*I *6079:X O *D sky130_fd_sc_hd__mux2_1
*CAP
1 *6080:A 0.000223965
2 *6079:X 0.000223965
3 *6080:A *6079:A0 0.000425301
4 *6080:A *351:119 2.87867e-05
5 *5932:S0 *6080:A 4.05358e-05
6 *5946:A0 *6080:A 0.000333125
*RES
1 *6079:X *6080:A 13.965 
*END

*D_NET *342 0.00172891
*CONN
*I *6082:A I *D sky130_fd_sc_hd__clkbuf_1
*I *6081:X O *D sky130_fd_sc_hd__mux2_1
*CAP
1 *6082:A 0.000430592
2 *6081:X 0.000430592
3 *6082:A *6380:CLK 0
4 *6082:A *382:53 0.00046618
5 *6082:A *479:218 0.000104671
6 *6082:A *484:19 0.000139252
7 *6380:D *6082:A 0.000157626
*RES
1 *6081:X *6082:A 14.865 
*END

*D_NET *343 0.00123017
*CONN
*I *6084:A I *D sky130_fd_sc_hd__clkbuf_1
*I *6083:X O *D sky130_fd_sc_hd__mux2_1
*CAP
1 *6084:A 0.000250809
2 *6083:X 0.000250809
3 *6084:A *6373:CLK 7.16268e-05
4 *6084:A *351:111 0.000307674
5 *5962:A1 *6084:A 0.00018471
6 *5964:A0 *6084:A 0.000164545
7 *6083:S *6084:A 0
8 *339:71 *6084:A 0
*RES
1 *6083:X *6084:A 13.365 
*END

*D_NET *344 0.0002982
*CONN
*I *6086:A I *D sky130_fd_sc_hd__clkbuf_1
*I *6085:X O *D sky130_fd_sc_hd__mux2_1
*CAP
1 *6086:A 7.80794e-05
2 *6085:X 7.80794e-05
3 *230:81 *6086:A 4.91189e-05
4 *233:66 *6086:A 6.28843e-05
5 *339:37 *6086:A 3.00381e-05
*RES
1 *6085:X *6086:A 9.03 
*END

*D_NET *345 0.00263717
*CONN
*I *6088:A I *D sky130_fd_sc_hd__clkbuf_1
*I *6087:X O *D sky130_fd_sc_hd__mux2_1
*CAP
1 *6088:A 0.000801072
2 *6087:X 0.000801072
3 *6088:A *479:188 0.000467074
4 *6088:A *492:8 0
5 *6088:A *492:16 0.000235366
6 *6088:A *509:12 0.000136877
7 *6375:D *6088:A 0.000195707
*RES
1 *6087:X *6088:A 20.37 
*END

*D_NET *346 0.00104701
*CONN
*I *6090:A I *D sky130_fd_sc_hd__clkbuf_1
*I *6089:X O *D sky130_fd_sc_hd__mux2_1
*CAP
1 *6090:A 0.000346753
2 *6089:X 0.000346753
3 *6090:A *6376:CLK 4.80285e-05
4 *6090:A *6481:CLK 0.000202064
5 *6090:A *482:42 6.28765e-05
6 *6376:D *6090:A 4.05358e-05
*RES
1 *6089:X *6090:A 12.48 
*END

*D_NET *347 0.000749668
*CONN
*I *6092:A I *D sky130_fd_sc_hd__clkbuf_1
*I *6091:X O *D sky130_fd_sc_hd__mux2_1
*CAP
1 *6092:A 0.000282633
2 *6091:X 0.000282633
3 *6092:A *6112:A 0.000116158
4 *6092:A *6377:CLK 6.28843e-05
5 *6092:A *511:10 5.35969e-06
*RES
1 *6091:X *6092:A 11.1 
*END

*D_NET *348 0.00211151
*CONN
*I *6132:A I *D sky130_fd_sc_hd__nor2_1
*I *6095:A I *D sky130_fd_sc_hd__nor2_1
*I *6203:A I *D sky130_fd_sc_hd__nor2_1
*I *6093:X O *D sky130_fd_sc_hd__or2_1
*CAP
1 *6132:A 0.000108212
2 *6095:A 0.000208199
3 *6203:A 8.88907e-05
4 *6093:X 0
5 *348:10 0.000375795
6 *348:6 0.000186917
7 *6095:A *6111:S 9.97627e-05
8 *6095:A *6150:A 7.73272e-05
9 *6095:A *6150:B 7.40446e-05
10 *6095:A *6151:B1 5.13155e-05
11 *6095:A *6305:B1 9.27255e-06
12 *6132:A *6133:B1 9.50342e-06
13 *6203:A *6150:B 8.09809e-05
14 *6203:A *6234:B1 1.19928e-05
15 *348:10 *6133:B1 7.4027e-05
16 *348:10 *349:10 9.14049e-05
17 *5901:A *6132:A 8.53113e-06
18 *5901:B *6132:A 4.99619e-05
19 *5903:A *6095:A 4.36999e-05
20 *6021:B *6132:A 9.72742e-06
21 *6093:B *6132:A 0
22 *6132:B *6132:A 1.49498e-05
23 *182:56 *6132:A 0
24 *203:184 *6132:A 3.05646e-05
25 *203:184 *348:10 8.60912e-05
26 *212:14 *6132:A 3.50033e-05
27 *212:14 *348:10 0.0001654
28 *213:29 *6203:A 1.37328e-05
29 *292:12 *6095:A 2.54692e-05
30 *307:6 *6132:A 2.75229e-05
31 *307:17 *6132:A 5.32116e-05
*RES
1 *6093:X *348:6 3.6 
2 *348:6 *348:10 4.91 
3 *348:10 *6203:A 3.01 
4 *348:10 *6095:A 9.995 
5 *348:6 *6132:A 6.33 
*END

*D_NET *349 0.00189989
*CONN
*I *6150:B I *D sky130_fd_sc_hd__nor2_1
*I *6304:B I *D sky130_fd_sc_hd__nor2_1
*I *6095:B I *D sky130_fd_sc_hd__nor2_1
*I *6094:X O *D sky130_fd_sc_hd__or2_1
*CAP
1 *6150:B 5.39896e-05
2 *6304:B 0
3 *6095:B 0.000134799
4 *6094:X 0.000223887
5 *349:27 5.39896e-05
6 *349:10 0.000358686
7 *6095:B *6096:B1 0
8 *6095:B *6151:B1 7.00889e-06
9 *6095:B *6234:B1 0.000180682
10 *6150:B *6234:B1 2.49909e-05
11 *6150:B *6305:B1 2.67275e-05
12 *6150:B *351:31 0
13 *5903:A *6095:B 9.66839e-05
14 *5903:A *349:10 5.53249e-06
15 *5905:A1 *6095:B 2.75145e-05
16 *6095:A *6150:B 7.40446e-05
17 *6203:A *6150:B 8.09809e-05
18 *203:175 *6095:B 9.50342e-06
19 *203:184 *6095:B 0.000205435
20 *203:184 *349:10 0.000127366
21 *212:14 *349:10 1.7902e-05
22 *216:116 *6095:B 1.6418e-05
23 *279:22 *349:10 8.23457e-05
24 *348:10 *349:10 9.14049e-05
*RES
1 *6094:X *349:10 7.755 
2 *349:10 *6095:B 7.86 
3 *349:10 *349:27 2 
4 *349:27 *6304:B 1.6 
5 *349:27 *6150:B 3.46 
*END

*D_NET *350 0.0010267
*CONN
*I *6096:B1 I *D sky130_fd_sc_hd__o211a_4
*I *6095:Y O *D sky130_fd_sc_hd__nor2_1
*CAP
1 *6096:B1 0.000244154
2 *6095:Y 0.000244154
3 *6096:B1 *6151:B1 0.000240717
4 *6096:B1 *382:6 4.82919e-05
5 *6096:B1 *382:16 0
6 *6091:S *6096:B1 0.000180689
7 *6095:B *6096:B1 0
8 *203:101 *6096:B1 6.86906e-05
*RES
1 *6095:Y *6096:B1 12.675 
*END

*D_NET *351 0.0285413
*CONN
*I *6101:S I *D sky130_fd_sc_hd__mux2_1
*I *6103:S I *D sky130_fd_sc_hd__mux2_1
*I *6097:S I *D sky130_fd_sc_hd__mux2_1
*I *6099:S I *D sky130_fd_sc_hd__mux2_1
*I *6109:S I *D sky130_fd_sc_hd__mux2_1
*I *6105:S I *D sky130_fd_sc_hd__mux2_1
*I *6107:S I *D sky130_fd_sc_hd__mux2_1
*I *6111:S I *D sky130_fd_sc_hd__mux2_1
*I *6096:X O *D sky130_fd_sc_hd__o211a_4
*CAP
1 *6101:S 0
2 *6103:S 0.000148756
3 *6097:S 0
4 *6099:S 2.34856e-05
5 *6109:S 0.000605938
6 *6105:S 0
7 *6107:S 2.2266e-05
8 *6111:S 0.000681474
9 *6096:X 0
10 *351:119 0.00171027
11 *351:111 0.0021336
12 *351:101 0.00328047
13 *351:79 0.00333589
14 *351:52 0.00245581
15 *351:31 0.00197097
16 *351:4 0.00143131
17 *6099:S *6099:A0 3.66286e-05
18 *6103:S *6556:A 0
19 *6107:S *6107:A0 4.82919e-05
20 *6109:S *6099:A0 4.99619e-05
21 *6109:S *6100:A 5.83121e-06
22 *6109:S *470:40 0.0004515
23 *6109:S *669:14 0
24 *6109:S *735:129 0.00090656
25 *6109:S *735:192 0.000142226
26 *6111:S *6130:S 0.00015326
27 *6111:S *6199:S 0.000162956
28 *6111:S *6234:B1 0
29 *6111:S *6377:CLK 0.000175066
30 *6111:S *428:52 0
31 *351:31 *6305:B1 6.36139e-05
32 *351:31 *6509:A 8.97832e-05
33 *351:31 *492:8 0
34 *351:31 *493:10 0.000172004
35 *351:31 *509:12 0
36 *351:31 *636:57 0.000119312
37 *351:52 *479:188 0
38 *351:79 *5970:A0 5.80035e-05
39 *351:79 *5970:A1 2.05571e-05
40 *351:79 *5970:A2 1.10377e-05
41 *351:79 *6101:A0 1.61831e-05
42 *351:79 *6102:A 5.76236e-05
43 *351:79 *6105:A0 4.43871e-06
44 *351:79 *6105:A1 0.000167613
45 *351:79 *746:31 5.30673e-05
46 *351:101 *5952:A1 8.74845e-06
47 *351:101 *5952:A2 0.000474977
48 *351:101 *6381:CLK 0.000206699
49 *351:101 *486:38 0.000109018
50 *351:101 *486:42 0.000169765
51 *351:101 *528:12 8.40269e-05
52 *351:101 *746:31 7.67415e-06
53 *351:111 *6059:A0 0
54 *351:111 *6071:A0 0
55 *351:111 *6098:A 0.000296088
56 *351:111 *6373:CLK 3.55414e-05
57 *351:111 *724:179 0.00013796
58 *351:119 *5943:A1 0
59 *351:119 *6061:A1 0.000311252
60 *351:119 *6071:A0 9.37731e-05
61 *351:119 *6100:A 0
62 *351:119 *470:52 0.000116853
63 *351:119 *529:16 9.30787e-05
64 *5903:A *6111:S 0
65 *5932:S0 *351:111 0.000204603
66 *5932:S0 *351:119 2.7881e-05
67 *5935:A0 *351:111 0
68 *5935:A0 *351:119 0
69 *5944:A0 *351:119 0.000252282
70 *5944:A1 *351:119 0.000144244
71 *5944:S *351:119 0.000116165
72 *5952:S0 *351:101 8.8266e-05
73 *5953:A1 *351:101 4.24597e-05
74 *5961:S0 *351:111 0.000201511
75 *5962:A0 *6103:S 0.000212505
76 *5962:S *6103:S 0
77 *5962:S *351:111 0
78 *5963:A1 *6103:S 0.00010141
79 *5963:A1 *351:111 0.000103185
80 *5963:S *351:111 0
81 *5980:S *351:52 1.79483e-05
82 *5989:A0 *6109:S 6.85292e-05
83 *6058:C1 *351:31 0.000154481
84 *6062:A *351:119 4.61744e-05
85 *6080:A *351:119 2.87867e-05
86 *6084:A *351:111 0.000307674
87 *6091:S *351:31 0.000640111
88 *6095:A *6111:S 9.97627e-05
89 *6096:C1 *351:31 0
90 *6150:B *351:31 0
91 *6354:D *351:101 4.81438e-05
92 *6373:D *351:111 8.35982e-05
93 *6381:D *351:101 4.82319e-06
94 *190:59 *6111:S 0.00013521
95 *203:54 *6111:S 0
96 *203:64 *6111:S 7.23602e-05
97 *215:146 *351:31 7.3664e-05
98 *215:155 *351:31 0.000110323
99 *215:166 *351:31 8.05665e-05
100 *215:170 *351:31 5.16348e-05
101 *215:213 *351:31 0.000151432
102 *231:18 *6109:S 1.92979e-05
103 *231:18 *351:119 0
104 *232:81 *351:79 4.80182e-05
105 *232:85 *351:79 1.73506e-05
106 *232:278 *351:52 0.000322647
107 *237:169 *351:111 0
108 *292:12 *6111:S 0.000579998
109 *329:10 *351:31 0.000877298
110 *329:85 *6103:S 9.57632e-05
111 *339:71 *351:111 0
112 *339:81 *351:111 0
*RES
1 *6096:X *351:4 1.6 
2 *351:4 *6111:S 22.22 
3 *351:4 *351:31 24.44 
4 *351:31 *6107:S 4.05 
5 *351:31 *351:52 5.7177 
6 *351:52 *6105:S 1.6 
7 *351:52 *351:79 22.345 
8 *351:79 *351:101 29.765 
9 *351:101 *351:111 25.015 
10 *351:111 *351:119 23.75 
11 *351:119 *6109:S 11.6329 
12 *351:119 *6099:S 2.05 
13 *351:111 *6097:S 3.6 
14 *351:101 *6103:S 8.295 
15 *351:79 *6101:S 1.6 
*END

*D_NET *352 0.00114103
*CONN
*I *6098:A I *D sky130_fd_sc_hd__clkbuf_1
*I *6097:X O *D sky130_fd_sc_hd__mux2_1
*CAP
1 *6098:A 0.000222384
2 *6097:X 0.000222384
3 *6098:A *6402:CLK 4.41363e-05
4 *6098:A *724:179 0.000344379
5 *6098:A *724:188 1.16578e-05
6 *351:111 *6098:A 0.000296088
*RES
1 *6097:X *6098:A 12.45 
*END

*D_NET *353 0.00069239
*CONN
*I *6100:A I *D sky130_fd_sc_hd__clkbuf_1
*I *6099:X O *D sky130_fd_sc_hd__mux2_1
*CAP
1 *6100:A 0.000192878
2 *6099:X 0.000192878
3 *6100:A *735:129 1.03423e-05
4 *6109:S *6100:A 5.83121e-06
5 *231:18 *6100:A 0.000290461
6 *351:119 *6100:A 0
*RES
1 *6099:X *6100:A 11.07 
*END

*D_NET *354 0.000164745
*CONN
*I *6102:A I *D sky130_fd_sc_hd__clkbuf_1
*I *6101:X O *D sky130_fd_sc_hd__mux2_1
*CAP
1 *6102:A 5.35607e-05
2 *6101:X 5.35607e-05
3 *351:79 *6102:A 5.76236e-05
*RES
1 *6101:X *6102:A 4.265 
*END

*D_NET *355 0.000770439
*CONN
*I *6104:A I *D sky130_fd_sc_hd__clkbuf_1
*I *6103:X O *D sky130_fd_sc_hd__mux2_1
*CAP
1 *6104:A 0.000211652
2 *6103:X 0.000211652
3 *5960:S1 *6104:A 9.07234e-05
4 *6381:D *6104:A 5.21627e-05
5 *233:171 *6104:A 0
6 *329:85 *6104:A 0.00020425
*RES
1 *6103:X *6104:A 12.915 
*END

*D_NET *356 0.000641201
*CONN
*I *6106:A I *D sky130_fd_sc_hd__clkbuf_1
*I *6105:X O *D sky130_fd_sc_hd__mux2_1
*CAP
1 *6106:A 0.000262466
2 *6105:X 0.000262466
3 *6106:A *5970:A1 0
4 *6106:A *6382:CLK 0
5 *6106:A *508:14 0
6 *5980:A0 *6106:A 0
7 *5980:S *6106:A 3.72916e-05
8 *6382:D *6106:A 7.89767e-05
*RES
1 *6105:X *6106:A 11.67 
*END

*D_NET *357 0.000130807
*CONN
*I *6108:A I *D sky130_fd_sc_hd__clkbuf_1
*I *6107:X O *D sky130_fd_sc_hd__mux2_1
*CAP
1 *6108:A 6.54036e-05
2 *6107:X 6.54036e-05
*RES
1 *6107:X *6108:A 4.265 
*END

*D_NET *358 0.00107731
*CONN
*I *6110:A I *D sky130_fd_sc_hd__clkbuf_1
*I *6109:X O *D sky130_fd_sc_hd__mux2_1
*CAP
1 *6110:A 0.000376509
2 *6109:X 0.000376509
3 *6110:A *5988:A1 4.78194e-05
4 *6110:A *6617:A 6.72196e-05
5 *6110:A *724:124 0
6 *6110:A *735:117 0
7 *6110:A *735:192 0
8 *230:155 *6110:A 0.000209255
*RES
1 *6109:X *6110:A 13.935 
*END

*D_NET *359 0.00100302
*CONN
*I *6112:A I *D sky130_fd_sc_hd__clkbuf_1
*I *6111:X O *D sky130_fd_sc_hd__mux2_1
*CAP
1 *6112:A 0.000219508
2 *6111:X 0.000219508
3 *6112:A *6199:S 7.35729e-05
4 *6112:A *6377:CLK 7.33465e-05
5 *6112:A *411:77 8.49205e-05
6 *6112:A *428:52 0.000167716
7 *6092:A *6112:A 0.000116158
8 *6377:D *6112:A 4.82863e-05
*RES
1 *6111:X *6112:A 12.555 
*END

*D_NET *360 0.00269461
*CONN
*I *6114:B I *D sky130_fd_sc_hd__nor2_1
*I *6150:A I *D sky130_fd_sc_hd__nor2_1
*I *6233:B I *D sky130_fd_sc_hd__nor2_1
*I *6113:X O *D sky130_fd_sc_hd__or2_1
*CAP
1 *6114:B 5.57319e-05
2 *6150:A 0.00018471
3 *6233:B 0.000195139
4 *6113:X 0
5 *360:25 0.000585839
6 *360:4 0.000540536
7 *6150:A *6305:B1 2.75145e-05
8 *6233:B *401:12 0.000133938
9 *5903:A *6150:A 5.53249e-06
10 *6095:A *6150:A 7.73272e-05
11 *6287:A1 *6233:B 7.60965e-05
12 *182:56 *360:25 0.000170841
13 *190:192 *6233:B 0
14 *212:14 *6114:B 2.84117e-05
15 *212:14 *6150:A 0.000228403
16 *213:29 *6233:B 0.0001249
17 *292:12 *6114:B 1.58827e-05
18 *292:12 *6150:A 0
19 *307:6 *360:25 0.000171443
20 *307:17 *360:25 7.23635e-05
*RES
1 *6113:X *360:4 1.6 
2 *360:4 *6233:B 10.16 
3 *360:4 *360:25 7.055 
4 *360:25 *6150:A 7.725 
5 *360:25 *6114:B 4.77 
*END

*D_NET *361 0.00078976
*CONN
*I *6115:B1 I *D sky130_fd_sc_hd__o211a_4
*I *6114:Y O *D sky130_fd_sc_hd__nor2_1
*CAP
1 *6115:B1 0.00027802
2 *6114:Y 0.00027802
3 *6115:B1 *362:12 4.66108e-05
4 *6115:C1 *6115:B1 5.05521e-05
5 *203:129 *6115:B1 4.82919e-05
6 *307:17 *6115:B1 8.8266e-05
*RES
1 *6114:Y *6115:B1 7.46 
*END

*D_NET *362 0.0312285
*CONN
*I *6126:S I *D sky130_fd_sc_hd__mux2_1
*I *6122:S I *D sky130_fd_sc_hd__mux2_1
*I *6120:S I *D sky130_fd_sc_hd__mux2_1
*I *6128:S I *D sky130_fd_sc_hd__mux2_1
*I *6124:S I *D sky130_fd_sc_hd__mux2_1
*I *6118:S I *D sky130_fd_sc_hd__mux2_1
*I *6116:S I *D sky130_fd_sc_hd__mux2_1
*I *6130:S I *D sky130_fd_sc_hd__mux2_1
*I *6115:X O *D sky130_fd_sc_hd__o211a_4
*CAP
1 *6126:S 3.6491e-05
2 *6122:S 0.000101986
3 *6120:S 0.000735361
4 *6128:S 0
5 *6124:S 0
6 *6118:S 6.2441e-05
7 *6116:S 0.000225869
8 *6130:S 0.000860371
9 *6115:X 0.000429244
10 *362:101 0.00212167
11 *362:95 0.00221805
12 *362:61 0.00190681
13 *362:51 0.00222702
14 *362:45 0.00106508
15 *362:37 0.00287974
16 *362:12 0.00281556
17 *6116:S *481:29 6.65804e-05
18 *6116:S *724:107 5.90404e-05
19 *6116:S *735:117 0.000243737
20 *6118:S *735:105 4.82919e-05
21 *6120:S *6120:A0 9.54469e-05
22 *6120:S *6120:A1 8.40213e-05
23 *6120:S *6242:A 0
24 *6120:S *6561:A 0.000107848
25 *6120:S *498:10 0.000139238
26 *6120:S *746:45 0
27 *6122:S *499:12 3.09233e-05
28 *6122:S *746:45 0
29 *6126:S *768:44 0
30 *6130:S *5994:A2 0.00036357
31 *6130:S *5994:A3 0.000123326
32 *6130:S *5997:A0 0.000340778
33 *6130:S *5997:S0 5.49852e-05
34 *6130:S *6130:A1 0.000164874
35 *6130:S *6377:CLK 7.18481e-05
36 *6130:S *6542:A 2.30292e-05
37 *6130:S *6543:A 2.97004e-06
38 *6130:S *428:52 0
39 *6130:S *428:75 0.000131654
40 *6130:S *636:84 0
41 *6130:S *636:90 0
42 *362:12 *5997:A3 9.3062e-06
43 *362:12 *511:10 3.67779e-05
44 *362:12 *519:10 5.98004e-06
45 *362:12 *636:57 0.0013426
46 *362:37 *6166:S 0.000153816
47 *362:37 *6199:A0 0.000251349
48 *362:37 *6199:S 0.00087838
49 *362:37 *6396:CLK 1.47347e-05
50 *362:45 *372:30 0.000384116
51 *362:45 *768:44 0
52 *362:51 *6124:A1 0.000472806
53 *362:51 *6128:A0 2.30292e-05
54 *362:51 *6128:A1 8.65961e-05
55 *362:51 *6129:A 0.000123225
56 *362:51 *372:30 0
57 *362:51 *372:36 0
58 *362:51 *500:12 7.55391e-05
59 *362:51 *768:44 0.000771711
60 *362:61 *5967:A0 8.65961e-05
61 *362:61 *6124:A0 0.000113282
62 *362:61 *6124:A1 8.53113e-06
63 *362:61 *500:12 5.53249e-06
64 *362:61 *735:105 0.000120655
65 *362:95 *5916:A0 7.23602e-05
66 *362:95 *372:24 0
67 *362:95 *372:30 0
68 *362:95 *581:12 0.000289004
69 *362:95 *768:44 0
70 *362:101 *6126:A0 0.000239813
71 *5941:A0 *6116:S 0.000207512
72 *5941:S *6116:S 0.000199353
73 *5954:A1 *6120:S 0.00069589
74 *5954:A1 *6122:S 9.9535e-05
75 *5968:A0 *362:61 0
76 *5972:S *362:51 0
77 *5973:A0 *362:51 2.10433e-05
78 *5985:S1 *362:51 0.000114492
79 *5994:S1 *6130:S 7.96023e-05
80 *5995:S *6130:S 1.93834e-05
81 *5998:A0 *6130:S 0.000754263
82 *5999:A1 *6130:S 0.000106092
83 *6000:A0 *6118:S 2.05056e-05
84 *6000:A0 *362:61 0.000363298
85 *6091:S *362:12 4.03082e-05
86 *6111:S *6130:S 0.00015326
87 *6115:B1 *362:12 4.66108e-05
88 *6396:D *362:45 0.000103876
89 *6396:D *362:95 6.38291e-05
90 *230:16 *6130:S 0.000299739
91 *237:80 *6130:S 0.000277223
92 *237:112 *362:51 0
93 *239:168 *6130:S 2.54522e-05
94 *270:12 *6126:S 0
95 *270:12 *362:95 0
96 *292:12 *6130:S 1.93401e-05
97 *292:12 *362:12 0.00151545
98 *295:28 *362:61 0.000598797
*RES
1 *6115:X *362:12 23.75 
2 *362:12 *6130:S 30.005 
3 *362:12 *362:37 22.115 
4 *362:37 *362:45 11.675 
5 *362:45 *362:51 17.78 
6 *362:51 *362:61 27.68 
7 *362:61 *6116:S 12.335 
8 *362:61 *6118:S 2.755 
9 *362:51 *6124:S 3.6 
10 *362:45 *6128:S 1.6 
11 *362:37 *362:95 15.405 
12 *362:95 *362:101 21.7 
13 *362:101 *6120:S 20.76 
14 *362:101 *6122:S 6 
15 *362:95 *6126:S 4.215 
*END

*D_NET *363 0.000798975
*CONN
*I *6117:A I *D sky130_fd_sc_hd__clkbuf_1
*I *6116:X O *D sky130_fd_sc_hd__mux2_1
*CAP
1 *6117:A 0.000240736
2 *6116:X 0.000240736
3 *6117:A *5940:A0 2.61299e-05
4 *5928:A0 *6117:A 0.000291372
5 *226:183 *6117:A 0
*RES
1 *6116:X *6117:A 11.415 
*END

*D_NET *364 0.000203499
*CONN
*I *6119:A I *D sky130_fd_sc_hd__clkbuf_1
*I *6118:X O *D sky130_fd_sc_hd__mux2_1
*CAP
1 *6119:A 4.62867e-05
2 *6118:X 4.62867e-05
3 *5928:A0 *6119:A 4.61658e-05
4 *5941:A0 *6119:A 6.47594e-05
*RES
1 *6118:X *6119:A 8.58 
*END

*D_NET *365 0.000346024
*CONN
*I *6121:A I *D sky130_fd_sc_hd__clkbuf_1
*I *6120:X O *D sky130_fd_sc_hd__mux2_1
*CAP
1 *6121:A 0.000162118
2 *6120:X 0.000162118
3 *6121:A *6120:A1 2.17886e-05
*RES
1 *6120:X *6121:A 5.3 
*END

*D_NET *366 0.000314281
*CONN
*I *6123:A I *D sky130_fd_sc_hd__clkbuf_1
*I *6122:X O *D sky130_fd_sc_hd__mux2_1
*CAP
1 *6123:A 9.97799e-05
2 *6122:X 9.97799e-05
3 *6123:A *6122:A1 4.99619e-05
4 *6123:A *499:12 0
5 *6123:A *746:45 6.47594e-05
6 *5954:A1 *6123:A 0
*RES
1 *6122:X *6123:A 9.03 
*END

*D_NET *367 0.00111813
*CONN
*I *6125:A I *D sky130_fd_sc_hd__clkbuf_1
*I *6124:X O *D sky130_fd_sc_hd__mux2_1
*CAP
1 *6125:A 0.000267475
2 *6124:X 0.000267475
3 *6125:A *6124:A1 0.000312527
4 *6125:A *6392:CLK 0
5 *5968:A0 *6125:A 0
6 *6390:D *6125:A 6.7475e-05
7 *295:28 *6125:A 0.000203178
*RES
1 *6124:X *6125:A 12.705 
*END

*D_NET *368 0.000629273
*CONN
*I *6127:A I *D sky130_fd_sc_hd__clkbuf_1
*I *6126:X O *D sky130_fd_sc_hd__mux2_1
*CAP
1 *6127:A 8.48038e-05
2 *6126:X 8.48038e-05
3 *6127:A *6126:A1 0.000295386
4 *6127:A *768:44 0.000164279
*RES
1 *6126:X *6127:A 10.62 
*END

*D_NET *369 0.000860681
*CONN
*I *6129:A I *D sky130_fd_sc_hd__clkbuf_1
*I *6128:X O *D sky130_fd_sc_hd__mux2_1
*CAP
1 *6129:A 0.000296492
2 *6128:X 0.000296492
3 *6129:A *6128:A0 7.40016e-05
4 *6129:A *6128:A1 3.83194e-05
5 *6129:A *6135:A 0
6 *6129:A *6512:A 4.6368e-06
7 *6129:A *625:66 2.75145e-05
8 *362:51 *6129:A 0.000123225
*RES
1 *6128:X *6129:A 8.06 
*END

*D_NET *370 0.00207705
*CONN
*I *6131:A I *D sky130_fd_sc_hd__clkbuf_1
*I *6130:X O *D sky130_fd_sc_hd__mux2_1
*CAP
1 *6131:A 0.000450055
2 *6130:X 0.000450055
3 *6131:A *6037:A1 0
4 *6131:A *6393:CLK 0.000529954
5 *6131:A *6542:A 0.000136884
6 *6131:A *503:6 9.2741e-05
7 *6131:A *636:90 3.82352e-06
8 *5995:A1 *6131:A 0
9 *6393:D *6131:A 3.09179e-05
10 *237:80 *6131:A 0.000262859
11 *239:168 *6131:A 0.000119762
*RES
1 *6130:X *6131:A 17.445 
*END

*D_NET *371 0.000932795
*CONN
*I *6133:B1 I *D sky130_fd_sc_hd__o211a_4
*I *6132:Y O *D sky130_fd_sc_hd__nor2_1
*CAP
1 *6133:B1 0.000287691
2 *6132:Y 0.000287691
3 *6133:B1 *372:16 0.000125845
4 *6132:A *6133:B1 9.50342e-06
5 *212:14 *6133:B1 7.4027e-05
6 *279:22 *6133:B1 7.40107e-05
7 *348:10 *6133:B1 7.4027e-05
*RES
1 *6132:Y *6133:B1 12.585 
*END

*D_NET *372 0.0230038
*CONN
*I *6144:S I *D sky130_fd_sc_hd__mux2_1
*I *6140:S I *D sky130_fd_sc_hd__mux2_1
*I *6138:S I *D sky130_fd_sc_hd__mux2_1
*I *6146:S I *D sky130_fd_sc_hd__mux2_1
*I *6142:S I *D sky130_fd_sc_hd__mux2_1
*I *6148:S I *D sky130_fd_sc_hd__mux2_1
*I *6134:S I *D sky130_fd_sc_hd__mux2_1
*I *6136:S I *D sky130_fd_sc_hd__mux2_1
*I *6133:X O *D sky130_fd_sc_hd__o211a_4
*CAP
1 *6144:S 0
2 *6140:S 0.000791039
3 *6138:S 6.72386e-05
4 *6146:S 0
5 *6142:S 3.7107e-05
6 *6148:S 0.000795459
7 *6134:S 7.06107e-05
8 *6136:S 0.000220058
9 *6133:X 0.000557761
10 *372:74 0.00149376
11 *372:64 0.000860693
12 *372:36 0.000615363
13 *372:30 0.00129905
14 *372:24 0.00149988
15 *372:20 0.00223908
16 *372:16 0.00134802
17 *6134:S *6134:A0 2.30292e-05
18 *6134:S *724:64 0.000239813
19 *6136:S *6189:S 0.000139231
20 *6136:S *411:111 5.12017e-06
21 *6136:S *724:64 0.000679291
22 *6136:S *735:46 5.53249e-06
23 *6136:S *735:57 0.000285705
24 *6138:S *6138:A0 2.01504e-05
25 *6138:S *6138:A1 4.77757e-05
26 *6138:S *746:85 4.00541e-06
27 *6140:S *6582:A 8.53113e-06
28 *6140:S *401:87 0.000167407
29 *6148:S *6148:A0 0.000103127
30 *6148:S *6201:A1 4.13171e-05
31 *6148:S *6543:A 0.00023468
32 *6148:S *428:75 0
33 *6148:S *636:111 0.000132883
34 *372:16 *6399:CLK 0.000112349
35 *372:16 *6415:CLK 0.000201508
36 *372:16 *6518:A 7.45881e-05
37 *372:16 *779:79 0.00011852
38 *372:16 *779:81 7.63883e-05
39 *372:20 *6144:A0 0.00023344
40 *372:20 *6145:A 0
41 *372:24 *479:16 1.88904e-05
42 *372:30 *6128:A0 8.08153e-06
43 *372:36 *479:116 0
44 *372:36 *494:10 0.000312182
45 *372:64 *6146:A0 0.000261315
46 *372:74 *5994:A1 4.16353e-05
47 *372:74 *6146:A0 8.8266e-05
48 *372:74 *6619:A 4.99619e-05
49 *372:74 *488:8 7.29318e-05
50 *372:74 *488:14 2.30957e-05
51 *5972:A1 *372:30 0
52 *5972:A1 *372:36 0
53 *5985:S1 *372:30 0
54 *5985:S1 *372:64 0.000218883
55 *5985:S1 *372:74 2.30292e-05
56 *5986:A1 *372:30 7.4027e-05
57 *5986:S *372:64 0.000517899
58 *5990:A1 *6134:S 1.19928e-05
59 *5990:A1 *372:36 0.000316987
60 *5995:A1 *6148:S 0.000325354
61 *5999:A0 *6148:S 4.82919e-05
62 *6029:S *6140:S 0
63 *6133:A2 *372:16 0.000122331
64 *6133:B1 *372:16 0.000125845
65 *6353:D *372:74 0
66 *6392:D *372:30 0.000133253
67 *6392:D *372:64 0.000353334
68 *6399:D *372:16 1.43717e-05
69 *6420:D *372:24 8.44437e-05
70 *6420:D *372:30 7.62026e-05
71 *190:109 *372:16 4.60584e-05
72 *190:120 *372:16 1.46744e-05
73 *225:160 *372:74 0.000655126
74 *233:31 *372:74 0.000694329
75 *237:112 *372:36 0.000100139
76 *237:124 *6134:S 0.000302976
77 *237:124 *372:36 0.000952198
78 *270:12 *372:24 0.000346333
79 *279:22 *372:16 0.000903612
80 *295:20 *6148:S 0.000290854
81 *295:20 *372:74 7.25532e-05
82 *309:16 *372:74 6.86732e-05
83 *362:45 *372:30 0.000384116
84 *362:51 *372:30 0
85 *362:51 *372:36 0
86 *362:95 *372:24 0
87 *362:95 *372:30 0
*RES
1 *6133:X *372:16 20.045 
2 *372:16 *372:20 11.505 
3 *372:20 *372:24 14.345 
4 *372:24 *372:30 15.285 
5 *372:30 *372:36 12.875 
6 *372:36 *6136:S 13.61 
7 *372:36 *6134:S 4.825 
8 *372:30 *372:64 10.07 
9 *372:64 *372:74 20.245 
10 *372:74 *6148:S 19.52 
11 *372:74 *6142:S 2.215 
12 *372:64 *6146:S 1.6 
13 *372:24 *6138:S 4.755 
14 *372:20 *6140:S 17.765 
15 *372:16 *6144:S 1.6 
*END

*D_NET *373 0.00201827
*CONN
*I *6135:A I *D sky130_fd_sc_hd__clkbuf_1
*I *6134:X O *D sky130_fd_sc_hd__mux2_1
*CAP
1 *6135:A 0.000533807
2 *6134:X 0.000533807
3 *6135:A *6187:A0 0
4 *6135:A *6187:A1 0
5 *6135:A *6187:S 0.000112349
6 *6135:A *6188:A 3.54025e-05
7 *6135:A *6189:S 0.000212322
8 *6135:A *6512:A 7.94582e-05
9 *6135:A *401:93 0.000198939
10 *6135:A *495:8 0.000312182
11 *6135:A *724:68 0
12 *6129:A *6135:A 0
*RES
1 *6134:X *6135:A 19.41 
*END

*D_NET *374 0.000981356
*CONN
*I *6137:A I *D sky130_fd_sc_hd__clkbuf_1
*I *6136:X O *D sky130_fd_sc_hd__mux2_1
*CAP
1 *6137:A 0.000306689
2 *6136:X 0.000306689
3 *6137:A *6190:A 8.53113e-06
4 *6137:A *494:16 6.44813e-05
5 *6137:A *494:18 6.5181e-05
6 *5986:A0 *6137:A 0
7 *6395:D *6137:A 6.7475e-05
8 *295:28 *6137:A 0.000162311
*RES
1 *6136:X *6137:A 12.36 
*END

*D_NET *375 0.000159925
*CONN
*I *6139:A I *D sky130_fd_sc_hd__clkbuf_1
*I *6138:X O *D sky130_fd_sc_hd__mux2_1
*CAP
1 *6139:A 4.81154e-05
2 *6138:X 4.81154e-05
3 *6139:A *746:85 1.37328e-05
4 *6139:A *746:99 4.99619e-05
*RES
1 *6138:X *6139:A 4.265 
*END

*D_NET *376 0.000222357
*CONN
*I *6141:A I *D sky130_fd_sc_hd__clkbuf_1
*I *6140:X O *D sky130_fd_sc_hd__mux2_1
*CAP
1 *6141:A 0.000111178
2 *6140:X 0.000111178
*RES
1 *6140:X *6141:A 4.955 
*END

*D_NET *377 0.000265396
*CONN
*I *6143:A I *D sky130_fd_sc_hd__clkbuf_1
*I *6142:X O *D sky130_fd_sc_hd__mux2_1
*CAP
1 *6143:A 0.000109967
2 *6142:X 0.000109967
3 *6143:A *5904:A 4.05358e-05
4 *6143:A *6196:A 0
5 *6422:D *6143:A 4.9253e-06
*RES
1 *6142:X *6143:A 9.135 
*END

*D_NET *378 0.000138592
*CONN
*I *6145:A I *D sky130_fd_sc_hd__clkbuf_1
*I *6144:X O *D sky130_fd_sc_hd__mux2_1
*CAP
1 *6145:A 6.9296e-05
2 *6144:X 6.9296e-05
3 *372:20 *6145:A 0
*RES
1 *6144:X *6145:A 4.265 
*END

*D_NET *379 0.000581212
*CONN
*I *6147:A I *D sky130_fd_sc_hd__clkbuf_1
*I *6146:X O *D sky130_fd_sc_hd__mux2_1
*CAP
1 *6147:A 0.000245357
2 *6146:X 0.000245357
3 *5981:S *6147:A 0
4 *6400:D *6147:A 4.05358e-05
5 *233:31 *6147:A 4.99619e-05
6 *233:45 *6147:A 0
*RES
1 *6146:X *6147:A 11.07 
*END

*D_NET *380 0.00169447
*CONN
*I *6149:A I *D sky130_fd_sc_hd__clkbuf_1
*I *6148:X O *D sky130_fd_sc_hd__mux2_1
*CAP
1 *6149:A 0.000350148
2 *6148:X 0.000350148
3 *6149:A *6569:A 0.000163464
4 *6149:A *401:22 1.01152e-05
5 *6149:A *575:8 0.000347435
6 *5948:S1 *6149:A 0.000316535
7 *226:85 *6149:A 0.000156621
*RES
1 *6148:X *6149:A 15.435 
*END

*D_NET *381 0.00124053
*CONN
*I *6151:B1 I *D sky130_fd_sc_hd__o211a_4
*I *6150:Y O *D sky130_fd_sc_hd__nor2_1
*CAP
1 *6151:B1 0.000226761
2 *6150:Y 0.000226761
3 *6151:B1 *382:6 4.35348e-05
4 *6151:B1 *382:16 3.59784e-05
5 *5903:A *6151:B1 9.47454e-05
6 *5905:A1 *6151:B1 0
7 *6095:A *6151:B1 5.13155e-05
8 *6095:B *6151:B1 7.00889e-06
9 *6096:B1 *6151:B1 0.000240717
10 *190:76 *6151:B1 4.66108e-05
11 *216:116 *6151:B1 0.000267095
*RES
1 *6150:Y *6151:B1 13.62 
*END

*D_NET *382 0.0306751
*CONN
*I *6166:S I *D sky130_fd_sc_hd__mux2_1
*I *6162:S I *D sky130_fd_sc_hd__mux2_1
*I *6158:S I *D sky130_fd_sc_hd__mux2_1
*I *6152:S I *D sky130_fd_sc_hd__mux2_1
*I *6154:S I *D sky130_fd_sc_hd__mux2_1
*I *6164:S I *D sky130_fd_sc_hd__mux2_1
*I *6156:S I *D sky130_fd_sc_hd__mux2_1
*I *6160:S I *D sky130_fd_sc_hd__mux2_1
*I *6151:X O *D sky130_fd_sc_hd__o211a_4
*CAP
1 *6166:S 0.000815876
2 *6162:S 0
3 *6158:S 0.000204826
4 *6152:S 0
5 *6154:S 0
6 *6164:S 0.00134857
7 *6156:S 0
8 *6160:S 0.000183039
9 *6151:X 6.10352e-05
10 *382:80 0.00235439
11 *382:74 0.00179219
12 *382:68 0.00398193
13 *382:53 0.00404151
14 *382:24 0.00211832
15 *382:16 0.00201666
16 *382:6 0.00200907
17 *6158:S *6158:A0 5.05521e-05
18 *6158:S *6158:A1 3.09164e-05
19 *6160:S *5970:A3 0.000106412
20 *6160:S *6160:A0 1.34503e-05
21 *6160:S *6160:A1 4.82919e-05
22 *6164:S *5943:A0 0
23 *6164:S *6164:A0 0.000707657
24 *6164:S *6165:A 2.34602e-05
25 *6164:S *6403:CLK 8.8266e-05
26 *6164:S *609:10 9.54399e-05
27 *6164:S *712:83 8.47629e-05
28 *6166:S *5904:A 0
29 *6166:S *5997:A2 0.000305714
30 *6166:S *6166:A0 7.98766e-05
31 *6166:S *6199:S 0.000155497
32 *6166:S *511:10 4.10429e-05
33 *6166:S *519:10 3.23391e-05
34 *6166:S *636:65 0.000199734
35 *6166:S *636:73 0.000146311
36 *382:16 *6533:A 5.4003e-05
37 *382:16 *470:100 0.000243763
38 *382:16 *779:73 0.000158762
39 *382:16 *779:79 0.000219255
40 *382:24 *5970:A3 2.97004e-06
41 *382:24 *6197:A0 0.0001249
42 *382:24 *6572:A 4.82863e-05
43 *382:53 *6081:A0 0.000172385
44 *382:53 *6374:CLK 1.58398e-05
45 *382:53 *6600:A 6.69608e-06
46 *382:53 *483:8 0.000305718
47 *382:53 *483:12 0.000164024
48 *382:53 *483:53 5.41776e-05
49 *382:53 *746:37 0.0001249
50 *382:53 *746:45 6.27029e-05
51 *382:68 *479:238 0
52 *382:74 *6077:A0 7.23602e-05
53 *382:74 *6333:CLK 8.34505e-05
54 *382:74 *6639:A 0.000229904
55 *382:74 *616:10 7.06865e-05
56 *382:74 *712:96 0.000318744
57 *382:80 *5943:A0 0
58 *382:80 *712:83 0.000608444
59 *382:80 *712:96 0.000122338
60 *382:80 *735:162 0
61 *5933:A1 *382:74 0.00013565
62 *5938:A *382:74 0.000143266
63 *5943:S1 *382:74 0
64 *5943:S1 *382:80 4.18603e-06
65 *5964:S *382:74 0
66 *5965:A *382:74 4.05358e-05
67 *5981:A1 *382:16 0.000650529
68 *5981:S *382:16 0.000331783
69 *5998:A0 *6166:S 1.8928e-05
70 *6082:A *382:53 0.00046618
71 *6091:S *6166:S 0.00028916
72 *6096:B1 *382:6 4.82919e-05
73 *6096:B1 *382:16 0
74 *6151:A2 *382:16 8.95508e-06
75 *6151:B1 *382:6 4.35348e-05
76 *6151:B1 *382:16 3.59784e-05
77 *6331:D *382:80 9.54399e-05
78 *6403:D *6164:S 9.26175e-06
79 *6415:D *6166:S 0
80 *16:5 *382:53 0.000115464
81 *16:5 *382:68 3.46196e-05
82 *190:70 *6166:S 1.07797e-05
83 *190:76 *382:16 7.08613e-05
84 *203:75 *6166:S 5.16418e-05
85 *203:101 *6166:S 8.35683e-05
86 *215:10 *6166:S 0
87 *215:109 *6166:S 0
88 *216:116 *382:16 5.81952e-05
89 *230:91 *6160:S 8.49205e-05
90 *230:111 *382:53 6.20952e-05
91 *230:111 *382:68 2.28346e-05
92 *231:18 *6164:S 5.34747e-05
93 *233:66 *6160:S 8.53113e-06
94 *233:264 *382:74 0
95 *270:12 *6160:S 0.00018032
96 *270:12 *382:24 0.000144452
97 *292:12 *6166:S 1.29991e-05
98 *339:37 *382:24 0.000553901
99 *339:50 *382:24 0.00024946
100 *362:37 *6166:S 0.000153816
*RES
1 *6151:X *382:6 2.74 
2 *382:6 *382:16 27.295 
3 *382:16 *382:24 18.395 
4 *382:24 *6160:S 8.685 
5 *382:24 *382:53 23.665 
6 *382:53 *6156:S 3.6 
7 *382:53 *382:68 6.4199 
8 *382:68 *382:74 17.7075 
9 *382:74 *382:80 21.06 
10 *382:80 *6164:S 23.865 
11 *382:80 *6154:S 3.6 
12 *382:74 *6152:S 3.6 
13 *382:68 *6158:S 7.0275 
14 *382:16 *6162:S 1.6 
15 *382:6 *6166:S 28.005 
*END

*D_NET *383 0.00044611
*CONN
*I *6153:A I *D sky130_fd_sc_hd__clkbuf_1
*I *6152:X O *D sky130_fd_sc_hd__mux2_1
*CAP
1 *6153:A 0.000178305
2 *6152:X 0.000178305
3 *6153:A *6152:A1 4.9253e-06
4 *6402:D *6153:A 8.45758e-05
*RES
1 *6152:X *6153:A 6.44 
*END

*D_NET *384 0.000351302
*CONN
*I *6155:A I *D sky130_fd_sc_hd__clkbuf_1
*I *6154:X O *D sky130_fd_sc_hd__mux2_1
*CAP
1 *6155:A 0.000126088
2 *6154:X 0.000126088
3 *6155:A *5943:A0 9.91257e-05
*RES
1 *6154:X *6155:A 5.645 
*END

*D_NET *385 0.00170155
*CONN
*I *6157:A I *D sky130_fd_sc_hd__clkbuf_1
*I *6156:X O *D sky130_fd_sc_hd__mux2_1
*CAP
1 *6157:A 0.000280785
2 *6156:X 0.000280785
3 *6157:A *6156:A0 0.000115203
4 *6157:A *6156:A1 0.000200615
5 *6157:A *6404:CLK 0.000184703
6 *6404:D *6157:A 8.71001e-05
7 *230:111 *6157:A 9.13117e-05
8 *298:73 *6157:A 0
9 *339:65 *6157:A 0.000461047
*RES
1 *6156:X *6157:A 16.14 
*END

*D_NET *386 0.00075026
*CONN
*I *6159:A I *D sky130_fd_sc_hd__clkbuf_1
*I *6158:X O *D sky130_fd_sc_hd__mux2_1
*CAP
1 *6159:A 0.000289555
2 *6158:X 0.000289555
3 *6159:A *5961:A1 0.000139238
4 *5962:A1 *6159:A 3.19126e-05
*RES
1 *6158:X *6159:A 11.355 
*END

*D_NET *387 0.000598053
*CONN
*I *6161:A I *D sky130_fd_sc_hd__clkbuf_1
*I *6160:X O *D sky130_fd_sc_hd__mux2_1
*CAP
1 *6161:A 0.000175981
2 *6160:X 0.000175981
3 *6161:A *5970:A3 7.23602e-05
4 *6161:A *6406:CLK 0.000157548
5 *6161:A *768:38 0
6 *6406:D *6161:A 1.61831e-05
*RES
1 *6160:X *6161:A 10.17 
*END

*D_NET *388 0.000186973
*CONN
*I *6163:A I *D sky130_fd_sc_hd__clkbuf_1
*I *6162:X O *D sky130_fd_sc_hd__mux2_1
*CAP
1 *6163:A 7.94357e-05
2 *6162:X 7.94357e-05
3 *6163:A *779:62 1.85674e-05
4 *339:37 *6163:A 9.53428e-06
*RES
1 *6162:X *6163:A 4.61 
*END

*D_NET *389 0.000136623
*CONN
*I *6165:A I *D sky130_fd_sc_hd__clkbuf_1
*I *6164:X O *D sky130_fd_sc_hd__mux2_1
*CAP
1 *6165:A 4.60272e-05
2 *6164:X 4.60272e-05
3 *6164:S *6165:A 2.34602e-05
4 *231:18 *6165:A 2.11084e-05
*RES
1 *6164:X *6165:A 4.265 
*END

*D_NET *390 0.00177849
*CONN
*I *6167:A I *D sky130_fd_sc_hd__clkbuf_1
*I *6166:X O *D sky130_fd_sc_hd__mux2_1
*CAP
1 *6167:A 0.000593175
2 *6166:X 0.000593175
3 *6167:A *5997:A1 3.0372e-05
4 *6167:A *5997:A3 3.23981e-05
5 *6167:A *6166:A0 0.000122331
6 *6167:A *6320:A1 0.00015896
7 *6167:A *6495:CLK 3.00381e-05
8 *6167:A *636:73 0.000123225
9 *6167:A *636:80 4.66108e-05
10 *6409:D *6167:A 4.82031e-05
*RES
1 *6166:X *6167:A 16.41 
*END

*D_NET *391 0.0292609
*CONN
*I *6175:S I *D sky130_fd_sc_hd__mux2_1
*I *6179:S I *D sky130_fd_sc_hd__mux2_1
*I *6173:S I *D sky130_fd_sc_hd__mux2_1
*I *6177:S I *D sky130_fd_sc_hd__mux2_1
*I *6181:S I *D sky130_fd_sc_hd__mux2_1
*I *6171:S I *D sky130_fd_sc_hd__mux2_1
*I *6169:S I *D sky130_fd_sc_hd__mux2_1
*I *6183:S I *D sky130_fd_sc_hd__mux2_1
*I *6168:X O *D sky130_fd_sc_hd__o2111a_4
*CAP
1 *6175:S 0.00145675
2 *6179:S 0
3 *6173:S 0
4 *6177:S 0
5 *6181:S 3.55506e-05
6 *6171:S 0
7 *6169:S 0.000183263
8 *6183:S 1.90984e-05
9 *6168:X 0.000283492
10 *391:122 0.00368422
11 *391:73 0.00107887
12 *391:59 0.00211471
13 *391:47 0.00221397
14 *391:30 0.00203416
15 *391:22 0.00165476
16 *391:8 0.00318109
17 *6169:S *6172:A 0
18 *6169:S *735:35 2.24336e-05
19 *6169:S *735:46 0.000126734
20 *6175:S *5975:A0 0.000201503
21 *6175:S *5975:A1 5.16118e-06
22 *6175:S *5975:A2 6.90889e-06
23 *6175:S *6211:A0 0.00011852
24 *6175:S *6215:A1 0
25 *6175:S *6325:CLK 3.03775e-05
26 *6175:S *6444:CLK 0.000715648
27 *6175:S *6611:A 8.53113e-06
28 *6175:S *428:16 0.000426195
29 *6175:S *495:90 0.000183093
30 *6183:S *636:130 4.00541e-06
31 *391:8 *6228:A2 0.000181376
32 *391:8 *6228:B1_N 0
33 *391:8 *420:10 0.000107634
34 *391:8 *420:27 6.44051e-05
35 *391:22 *5893:A 3.64998e-06
36 *391:22 *5948:A3 0.000237249
37 *391:22 *6173:A0 3.67779e-05
38 *391:22 *6228:A2 4.24562e-05
39 *391:22 *6228:B1_N 0
40 *391:22 *6454:D 0.000364514
41 *391:22 *6534:A 8.65905e-05
42 *391:22 *479:61 0.0001752
43 *391:22 *487:40 0.000186333
44 *391:22 *487:53 0
45 *391:22 *602:10 0
46 *391:22 *680:14 0
47 *391:30 *6183:A0 2.30292e-05
48 *391:30 *6183:A1 8.65961e-05
49 *391:30 *6184:A 0.000234674
50 *391:30 *6470:CLK 0
51 *391:30 *6470:RESET_B 0.000353719
52 *391:30 *479:61 0.000383698
53 *391:30 *487:10 0
54 *391:30 *487:25 0
55 *391:30 *602:10 0
56 *391:30 *709:185 0.00050795
57 *391:30 *709:187 0.000267519
58 *391:30 *712:39 0.000216218
59 *391:30 *712:53 0
60 *391:47 *6177:A0 8.8266e-05
61 *391:47 *6178:A 4.99619e-05
62 *391:47 *6183:A0 7.35729e-05
63 *391:47 *6184:A 9.91801e-05
64 *391:47 *6213:A1 2.0514e-05
65 *391:47 *6219:A0 0.000110558
66 *391:47 *6219:A1 0
67 *391:47 *6528:A 9.9535e-05
68 *391:47 *6581:A 0.000189793
69 *391:47 *411:30 0
70 *391:47 *480:16 0
71 *391:59 *5984:A1 0.000252113
72 *391:59 *6177:A0 0.000226431
73 *391:59 *6243:A1 2.62017e-05
74 *391:59 *6244:A 0.000153392
75 *391:59 *606:12 5.6923e-05
76 *391:59 *625:45 7.23533e-05
77 *391:59 *768:95 4.85494e-05
78 *391:59 *768:119 9.80032e-06
79 *391:73 *5984:A1 0.000286056
80 *391:73 *6171:A0 5.30673e-05
81 *391:73 *6171:A1 1.34594e-05
82 *391:73 *6172:A 3.54025e-05
83 *391:73 *6182:A 0
84 *391:73 *6625:A 0
85 *391:73 *625:32 7.23533e-05
86 *391:73 *625:45 0.00011235
87 *391:122 *5904:A 2.75145e-05
88 *391:122 *5975:A0 0
89 *391:122 *6215:A1 2.39856e-05
90 *391:122 *6228:A1 0.000283359
91 *391:122 *6327:CLK 0.000177136
92 *391:122 *6533:A 7.23602e-05
93 *391:122 *428:16 1.85674e-05
94 *391:122 *470:18 7.04021e-05
95 *5917:A *6175:S 7.4027e-05
96 *5975:S1 *6175:S 0.000249532
97 *5981:S *391:122 0.000132875
98 *6227:B1 *391:8 0.00013687
99 *6325:D *6175:S 0
100 *6411:D *6169:S 5.33874e-05
101 *6416:D *391:59 8.46913e-05
102 *6417:D *391:47 9.30717e-05
103 *6427:D *391:73 8.49205e-05
104 *6436:D *391:22 0.000120186
105 *6443:D *391:59 0.000122331
106 *6467:D *391:30 0.000159747
107 *203:10 *391:8 7.71016e-05
108 *203:14 *391:8 3.50033e-05
109 *215:10 *391:122 4.01869e-05
110 *225:39 *391:47 0.000806365
111 *225:39 *391:59 0.000543676
112 *225:58 *391:59 0.000160641
113 *233:45 *6175:S 0.000114492
*RES
1 *6168:X *391:8 10.59 
2 *391:8 *391:22 19.72 
3 *391:22 *391:30 26.36 
4 *391:30 *6183:S 1.96 
5 *391:30 *391:47 26.365 
6 *391:47 *391:59 22.085 
7 *391:59 *391:73 16.985 
8 *391:73 *6169:S 9.785 
9 *391:73 *6171:S 1.6 
10 *391:59 *6181:S 4.215 
11 *391:47 *6177:S 1.6 
12 *391:22 *6173:S 3.6 
13 *391:8 *391:122 33.09 
14 *391:122 *6179:S 1.6 
15 *391:122 *6175:S 32.82 
*END

*D_NET *392 0.00105035
*CONN
*I *6170:A I *D sky130_fd_sc_hd__clkbuf_1
*I *6169:X O *D sky130_fd_sc_hd__mux2_1
*CAP
1 *6170:A 0.000340979
2 *6169:X 0.000340979
3 *6170:A *6206:A 0.000208484
4 *6170:A *411:125 5.38986e-05
5 *5984:S1 *6170:A 0.000106005
6 *5986:A0 *6170:A 0
7 *6426:D *6170:A 0
*RES
1 *6169:X *6170:A 13.05 
*END

*D_NET *393 0.00104102
*CONN
*I *6172:A I *D sky130_fd_sc_hd__clkbuf_1
*I *6171:X O *D sky130_fd_sc_hd__mux2_1
*CAP
1 *6172:A 0.000374953
2 *6171:X 0.000374953
3 *6172:A *6171:A0 0.000130453
4 *6172:A *6171:A1 8.65961e-05
5 *6169:S *6172:A 0
6 *6411:D *6172:A 3.86607e-05
7 *391:73 *6172:A 3.54025e-05
*RES
1 *6171:X *6172:A 12.48 
*END

*D_NET *394 0.000806871
*CONN
*I *6174:A I *D sky130_fd_sc_hd__clkbuf_1
*I *6173:X O *D sky130_fd_sc_hd__mux2_1
*CAP
1 *6174:A 0.000229237
2 *6173:X 0.000229237
3 *6174:A *709:177 0
4 *6174:A *709:185 7.35813e-05
5 *6174:A *709:211 0
6 *6174:A *712:39 0
7 *5998:S *6174:A 4.82919e-05
8 *6412:D *6174:A 0.000139933
9 *229:6 *6174:A 8.65905e-05
*RES
1 *6173:X *6174:A 12.015 
*END

*D_NET *395 0.000709728
*CONN
*I *6176:A I *D sky130_fd_sc_hd__clkbuf_1
*I *6175:X O *D sky130_fd_sc_hd__mux2_1
*CAP
1 *6176:A 0.000273762
2 *6175:X 0.000273762
3 *6176:A *6211:A0 1.61831e-05
4 *6176:A *6211:A1 0.000118294
5 *6413:D *6176:A 2.77283e-05
*RES
1 *6175:X *6176:A 7.715 
*END

*D_NET *396 0.000159925
*CONN
*I *6178:A I *D sky130_fd_sc_hd__clkbuf_1
*I *6177:X O *D sky130_fd_sc_hd__mux2_1
*CAP
1 *6178:A 4.81154e-05
2 *6177:X 4.81154e-05
3 *6178:A *6213:A1 1.37328e-05
4 *391:47 *6178:A 4.99619e-05
*RES
1 *6177:X *6178:A 4.265 
*END

*D_NET *397 0.00169404
*CONN
*I *6180:A I *D sky130_fd_sc_hd__clkbuf_1
*I *6179:X O *D sky130_fd_sc_hd__mux2_1
*CAP
1 *6180:A 0.00042973
2 *6179:X 0.00042973
3 *6180:A *6327:CLK 0.000139238
4 *6180:A *411:77 0.000193869
5 *6180:A *411:92 0.000116716
6 *6180:A *428:16 4.82919e-05
7 *6180:A *470:18 0
8 *5975:S0 *6180:A 0.000134531
9 *225:160 *6180:A 4.05358e-05
10 *309:16 *6180:A 0.000161403
*RES
1 *6179:X *6180:A 16.785 
*END

*D_NET *398 0.000696534
*CONN
*I *6182:A I *D sky130_fd_sc_hd__clkbuf_1
*I *6181:X O *D sky130_fd_sc_hd__mux2_1
*CAP
1 *6182:A 0.000248239
2 *6181:X 0.000248239
3 *6182:A *5984:A1 0
4 *6182:A *5984:A2 7.4027e-05
5 *216:60 *6182:A 0.000126028
6 *391:73 *6182:A 0
*RES
1 *6181:X *6182:A 11.655 
*END

*D_NET *399 0.00146746
*CONN
*I *6184:A I *D sky130_fd_sc_hd__clkbuf_1
*I *6183:X O *D sky130_fd_sc_hd__mux2_1
*CAP
1 *6184:A 0.000395045
2 *6183:X 0.000395045
3 *6184:A *6219:A1 9.91801e-05
4 *6184:A *480:37 0.000244334
5 *391:30 *6184:A 0.000234674
6 *391:47 *6184:A 9.91801e-05
*RES
1 *6183:X *6184:A 15.075 
*END

*D_NET *400 0.0005208
*CONN
*I *6186:B1 I *D sky130_fd_sc_hd__o211a_4
*I *6185:X O *D sky130_fd_sc_hd__and4b_1
*CAP
1 *6186:B1 0.00016164
2 *6185:X 0.00016164
3 *6186:B1 *401:79 0.000154443
4 *6186:C1 *6186:B1 1.85674e-05
5 *182:91 *6186:B1 2.31229e-05
6 *182:102 *6186:B1 1.38655e-06
*RES
1 *6185:X *6186:B1 7.145 
*END

*D_NET *401 0.0300969
*CONN
*I *6197:S I *D sky130_fd_sc_hd__mux2_1
*I *6193:S I *D sky130_fd_sc_hd__mux2_1
*I *6191:S I *D sky130_fd_sc_hd__mux2_1
*I *6187:S I *D sky130_fd_sc_hd__mux2_1
*I *6189:S I *D sky130_fd_sc_hd__mux2_1
*I *6199:S I *D sky130_fd_sc_hd__mux2_1
*I *6201:S I *D sky130_fd_sc_hd__mux2_1
*I *6195:S I *D sky130_fd_sc_hd__mux2_1
*I *6186:X O *D sky130_fd_sc_hd__o211a_4
*CAP
1 *6197:S 0
2 *6193:S 0.000102734
3 *6191:S 6.94502e-05
4 *6187:S 0.000247218
5 *6189:S 0.00028135
6 *6199:S 0.00103816
7 *6201:S 1.71692e-05
8 *6195:S 0.00131433
9 *6186:X 0
10 *401:93 0.00104415
11 *401:87 0.00163438
12 *401:83 0.00262949
13 *401:79 0.00303
14 *401:22 0.00192473
15 *401:12 0.00244986
16 *401:6 0.00237106
17 *6187:S *6187:A0 5.30673e-05
18 *6189:S *411:111 0.000416237
19 *6189:S *724:64 1.07797e-05
20 *6189:S *724:68 0
21 *6191:S *5949:A0 0.000118081
22 *6191:S *6191:A0 4.41506e-05
23 *6191:S *746:85 8.73389e-06
24 *6193:S *5958:A1 1.37328e-05
25 *6193:S *6193:A0 2.61299e-05
26 *6193:S *6194:A 4.00541e-06
27 *6195:S *5994:A0 9.66021e-05
28 *6195:S *5994:A2 1.10377e-05
29 *6195:S *6037:A1 0.000427876
30 *6195:S *6201:A0 2.86265e-06
31 *6195:S *6201:A1 7.65363e-05
32 *6195:S *768:69 0.000356363
33 *6199:S *6111:A0 0.00027643
34 *6199:S *6199:A0 8.65905e-05
35 *6199:S *6200:A 2.11084e-05
36 *6199:S *6628:A 4.66108e-05
37 *6201:S *6201:A1 5.4155e-06
38 *401:12 *411:10 0.000127602
39 *401:12 *411:20 0.000145833
40 *401:12 *811:38 0.000138196
41 *401:22 *6201:A1 4.41506e-05
42 *401:22 *6569:A 0.000110683
43 *401:22 *6585:A 0.00028723
44 *401:22 *411:20 6.36754e-05
45 *401:22 *575:8 0.000263188
46 *401:22 *586:10 9.86611e-05
47 *401:79 *5976:A3 0.000116158
48 *401:79 *779:79 4.70343e-05
49 *401:83 *6033:A0 2.78116e-05
50 *401:83 *6126:A1 4.11393e-05
51 *401:83 *6194:A 5.34747e-05
52 *401:83 *779:141 0.000151932
53 *401:87 *6175:A0 0
54 *401:87 *6192:A 0
55 *401:87 *6211:A0 0.0001176
56 *401:87 *6211:S 0
57 *401:87 *6582:A 0
58 *401:87 *495:88 0.00052872
59 *401:87 *757:79 0.000138188
60 *401:93 *5949:A0 0.000134249
61 *401:93 *6027:A1 7.55652e-05
62 *401:93 *411:111 0.000182023
63 *401:93 *495:32 0.000121712
64 *401:93 *495:41 4.72278e-05
65 *401:93 *495:56 7.6154e-05
66 *401:93 *495:88 0.000157602
67 *5903:B *401:12 0.000162325
68 *5948:S1 *401:22 0.000103553
69 *5981:S *6195:S 0
70 *5994:S1 *6195:S 4.66826e-05
71 *6003:B1 *401:79 1.71013e-05
72 *6022:A2 *401:79 3.03775e-05
73 *6022:B1 *401:79 0.000113809
74 *6022:C1 *401:79 1.61831e-05
75 *6029:S *401:87 0
76 *6032:A *6195:S 0
77 *6033:S *401:79 0.00031145
78 *6034:A *401:83 2.11084e-05
79 *6037:S *6195:S 5.05521e-05
80 *6038:A *6195:S 0.000198939
81 *6111:S *6199:S 0.000162956
82 *6112:A *6199:S 7.35729e-05
83 *6135:A *6187:S 0.000112349
84 *6135:A *6189:S 0.000212322
85 *6135:A *401:93 0.000198939
86 *6136:S *6189:S 0.000139231
87 *6140:S *401:87 0.000167407
88 *6149:A *401:22 1.01152e-05
89 *6166:S *6199:S 0.000155497
90 *6186:B1 *401:79 0.000154443
91 *6233:B *401:12 0.000133938
92 *6287:A2 *401:12 0
93 *6325:D *401:87 0
94 *6397:D *401:87 0
95 *6495:D *6199:S 1.61831e-05
96 *182:44 *401:12 2.23922e-05
97 *182:44 *401:79 9.77943e-05
98 *182:46 *401:12 0.000104287
99 *182:56 *401:12 5.33085e-05
100 *190:179 *401:12 0
101 *190:192 *401:12 0
102 *203:50 *401:12 0
103 *213:8 *401:12 9.30787e-05
104 *215:174 *401:79 0.000495995
105 *215:176 *401:79 0.000194694
106 *216:14 *401:12 0.0005829
107 *216:14 *401:22 0.000594873
108 *216:29 *401:22 0.000174099
109 *216:116 *401:12 3.68784e-05
110 *225:21 *401:22 0.000224099
111 *225:160 *6195:S 8.26692e-05
112 *226:83 *6201:S 4.00541e-06
113 *226:83 *401:22 1.92187e-05
114 *287:22 *6195:S 2.59835e-05
115 *309:10 *401:79 0.000123017
116 *309:31 *6195:S 0.000127921
117 *362:37 *6199:S 0.00087838
*RES
1 *6186:X *401:6 3.6 
2 *401:6 *401:12 20.55 
3 *401:12 *401:22 18.59 
4 *401:22 *6195:S 27.005 
5 *401:22 *6201:S 1.96 
6 *401:12 *6199:S 26.715 
7 *401:6 *401:79 27.24 
8 *401:79 *401:83 17.28 
9 *401:83 *401:87 21.995 
10 *401:87 *401:93 13.37 
11 *401:93 *6189:S 14.375 
12 *401:93 *6187:S 5.53 
13 *401:87 *6191:S 5.46 
14 *401:83 *6193:S 3.46 
15 *401:79 *6197:S 1.6 
*END

*D_NET *402 0.00116233
*CONN
*I *6188:A I *D sky130_fd_sc_hd__clkbuf_1
*I *6187:X O *D sky130_fd_sc_hd__mux2_1
*CAP
1 *6188:A 0.000429018
2 *6187:X 0.000429018
3 *6188:A *6418:CLK 5.53249e-06
4 *6188:A *6512:A 8.49205e-05
5 *6188:A *495:8 0.000121103
6 *6188:A *495:10 5.73362e-05
7 *5972:A1 *6188:A 0
8 *6135:A *6188:A 3.54025e-05
9 *6394:D *6188:A 0
*RES
1 *6187:X *6188:A 13.17 
*END

*D_NET *403 0.0006816
*CONN
*I *6190:A I *D sky130_fd_sc_hd__clkbuf_1
*I *6189:X O *D sky130_fd_sc_hd__mux2_1
*CAP
1 *6190:A 0.000229593
2 *6189:X 0.000229593
3 *6190:A *494:10 3.90266e-05
4 *5986:A0 *6190:A 0
5 *6137:A *6190:A 8.53113e-06
6 *6419:D *6190:A 8.8266e-05
7 *239:180 *6190:A 8.65905e-05
*RES
1 *6189:X *6190:A 10.86 
*END

*D_NET *404 0.000804979
*CONN
*I *6192:A I *D sky130_fd_sc_hd__clkbuf_1
*I *6191:X O *D sky130_fd_sc_hd__mux2_1
*CAP
1 *6192:A 0.000262596
2 *6191:X 0.000262596
3 *6192:A *746:85 0.000279787
4 *270:12 *6192:A 0
5 *401:87 *6192:A 0
*RES
1 *6191:X *6192:A 11.1 
*END

*D_NET *405 0.000229036
*CONN
*I *6194:A I *D sky130_fd_sc_hd__clkbuf_1
*I *6193:X O *D sky130_fd_sc_hd__mux2_1
*CAP
1 *6194:A 8.57777e-05
2 *6193:X 8.57777e-05
3 *6193:S *6194:A 4.00541e-06
4 *401:83 *6194:A 5.34747e-05
*RES
1 *6193:X *6194:A 4.955 
*END

*D_NET *406 0.000773681
*CONN
*I *6196:A I *D sky130_fd_sc_hd__clkbuf_1
*I *6195:X O *D sky130_fd_sc_hd__mux2_1
*CAP
1 *6196:A 0.000235284
2 *6195:X 0.000235284
3 *6196:A *6142:A0 0.000122337
4 *6196:A *6142:A1 7.4027e-05
5 *6196:A *488:14 3.86529e-05
6 *6143:A *6196:A 0
7 *6422:D *6196:A 6.80968e-05
*RES
1 *6195:X *6196:A 11.31 
*END

*D_NET *407 0.000140614
*CONN
*I *6198:A I *D sky130_fd_sc_hd__clkbuf_1
*I *6197:X O *D sky130_fd_sc_hd__mux2_1
*CAP
1 *6198:A 6.34404e-05
2 *6197:X 6.34404e-05
3 *6198:A *779:134 1.37328e-05
*RES
1 *6197:X *6198:A 4.265 
*END

*D_NET *408 0.000161048
*CONN
*I *6200:A I *D sky130_fd_sc_hd__clkbuf_1
*I *6199:X O *D sky130_fd_sc_hd__mux2_1
*CAP
1 *6200:A 6.99698e-05
2 *6199:X 6.99698e-05
3 *6199:S *6200:A 2.11084e-05
*RES
1 *6199:X *6200:A 4.265 
*END

*D_NET *409 0.000928227
*CONN
*I *6202:A I *D sky130_fd_sc_hd__clkbuf_1
*I *6201:X O *D sky130_fd_sc_hd__mux2_1
*CAP
1 *6202:A 0.000275097
2 *6201:X 0.000275097
3 *6202:A *6425:CLK 6.6925e-05
4 *6202:A *791:14 4.9253e-06
5 *6401:D *6202:A 7.52333e-05
6 *6425:D *6202:A 0.000151967
7 *216:29 *6202:A 5.14583e-05
8 *226:83 *6202:A 2.75229e-05
*RES
1 *6201:X *6202:A 12.84 
*END

*D_NET *410 0.00121019
*CONN
*I *6204:B1 I *D sky130_fd_sc_hd__o211a_4
*I *6203:Y O *D sky130_fd_sc_hd__nor2_1
*CAP
1 *6204:B1 0.000157869
2 *6203:Y 0.000157869
3 *6204:B1 *428:52 0.000162325
4 *190:42 *6204:B1 0.000143726
5 *190:166 *6204:B1 0.00020613
6 *190:179 *6204:B1 0.000138551
7 *203:175 *6204:B1 9.68787e-05
8 *203:184 *6204:B1 7.00066e-05
9 *215:24 *6204:B1 4.99619e-05
10 *215:28 *6204:B1 2.68721e-05
*RES
1 *6203:Y *6204:B1 13.11 
*END

*D_NET *411 0.0269641
*CONN
*I *6205:S I *D sky130_fd_sc_hd__mux2_1
*I *6207:S I *D sky130_fd_sc_hd__mux2_1
*I *6217:S I *D sky130_fd_sc_hd__mux2_1
*I *6211:S I *D sky130_fd_sc_hd__mux2_1
*I *6215:S I *D sky130_fd_sc_hd__mux2_1
*I *6209:S I *D sky130_fd_sc_hd__mux2_1
*I *6219:S I *D sky130_fd_sc_hd__mux2_1
*I *6213:S I *D sky130_fd_sc_hd__mux2_1
*I *6204:X O *D sky130_fd_sc_hd__o211a_4
*CAP
1 *6205:S 2.48481e-05
2 *6207:S 0
3 *6217:S 0.000733014
4 *6211:S 0.000368603
5 *6215:S 0
6 *6209:S 3.38389e-05
7 *6219:S 3.55506e-05
8 *6213:S 0.000996849
9 *6204:X 0.000216193
10 *411:125 0.00130432
11 *411:111 0.00219753
12 *411:92 0.00325508
13 *411:77 0.00223056
14 *411:30 0.00242439
15 *411:20 0.00231573
16 *411:10 0.00205155
17 *6205:S *6205:A0 4.21973e-05
18 *6205:S *658:24 4.66826e-05
19 *6209:S *6210:A 0
20 *6209:S *6324:CLK 4.00541e-06
21 *6211:S *6212:A 0
22 *6213:S *5993:A1 2.05461e-05
23 *6213:S *6213:A0 8.8266e-05
24 *6213:S *6329:CLK 6.20063e-05
25 *6213:S *6563:A 1.83847e-05
26 *6213:S *488:39 0
27 *6217:S *6208:A 0.000141323
28 *6217:S *6217:A0 0
29 *6217:S *6218:A 0
30 *6217:S *6328:CLK 0.000682396
31 *6217:S *590:12 5.30673e-05
32 *6217:S *598:10 1.16578e-05
33 *6217:S *625:32 0
34 *6217:S *735:20 0
35 *411:10 *6610:A 0
36 *411:20 *5910:A1 0.000104541
37 *411:20 *5948:A3 0.000136877
38 *411:20 *6324:CLK 0.00011577
39 *411:20 *6441:CLK 2.16917e-05
40 *411:20 *6585:A 3.20244e-05
41 *411:20 *6610:A 0
42 *411:20 *586:10 9.61052e-05
43 *411:20 *746:117 4.6651e-05
44 *411:30 *5934:A 0.000134509
45 *411:30 *6173:A1 3.82323e-06
46 *411:30 *6209:A0 3.86529e-05
47 *411:30 *6219:A1 0.000546797
48 *411:30 *6220:A 0
49 *411:30 *6417:CLK 0
50 *411:30 *6470:RESET_B 0
51 *411:30 *6497:A 0.000102753
52 *411:30 *479:51 7.74981e-05
53 *411:30 *487:10 6.55406e-05
54 *411:30 *680:14 0
55 *411:30 *709:185 0
56 *411:30 *709:187 0
57 *411:30 *746:117 2.61299e-05
58 *411:77 *6215:A0 5.05437e-05
59 *411:77 *519:10 0.000138808
60 *411:92 *6215:A0 5.61467e-05
61 *411:92 *6246:A 0.000198945
62 *411:92 *6431:CLK 8.65961e-05
63 *411:92 *597:8 4.66742e-05
64 *411:111 *6027:A1 0.00037111
65 *411:111 *6418:CLK 0
66 *411:111 *6525:A 0
67 *411:111 *6565:A 8.09021e-06
68 *411:111 *494:10 0
69 *411:111 *494:16 0
70 *411:111 *494:18 0
71 *411:111 *495:10 0
72 *411:111 *495:32 0
73 *411:111 *495:88 7.26551e-05
74 *411:111 *735:46 0.00015997
75 *411:111 *735:57 0.000517668
76 *411:125 *5918:A0 0
77 *411:125 *6205:A0 7.00889e-06
78 *411:125 *6206:A 0.000399166
79 *411:125 *6208:A 5.05437e-05
80 *411:125 *6328:CLK 7.66083e-05
81 *411:125 *6427:CLK 8.53113e-06
82 *411:125 *494:18 0.000126679
83 *411:125 *494:20 0.000198286
84 *411:125 *494:22 0.000677733
85 *411:125 *658:24 0.000110828
86 *5917:A *411:92 0.000270415
87 *5948:S0 *411:20 1.73593e-05
88 *5949:S0 *411:111 0.000181315
89 *5986:A0 *411:125 0
90 *6112:A *411:77 8.49205e-05
91 *6136:S *411:111 5.12017e-06
92 *6170:A *411:125 5.38986e-05
93 *6180:A *411:77 0.000193869
94 *6180:A *411:92 0.000116716
95 *6189:S *411:111 0.000416237
96 *6324:D *411:20 0
97 *6329:D *6213:S 0.000279937
98 *6348:D *411:111 0
99 *6377:D *411:77 0.000148835
100 *6420:D *411:92 4.65607e-05
101 *6429:D *6211:S 9.14049e-05
102 *6431:D *411:92 2.94625e-05
103 *6441:D *411:20 1.5693e-05
104 *6444:D *411:92 4.92062e-05
105 *203:50 *411:10 8.65961e-05
106 *225:39 *6213:S 0
107 *226:14 *411:30 8.69196e-05
108 *230:8 *411:30 0
109 *270:12 *6211:S 0
110 *391:47 *411:30 0
111 *401:12 *411:10 0.000127602
112 *401:12 *411:20 0.000145833
113 *401:22 *411:20 6.36754e-05
114 *401:87 *6211:S 0
115 *401:93 *411:111 0.000182023
*RES
1 *6204:X *411:10 8.07 
2 *411:10 *411:20 18.215 
3 *411:20 *411:30 29.605 
4 *411:30 *6213:S 19.25 
5 *411:30 *6219:S 2.215 
6 *411:20 *6209:S 2.215 
7 *411:10 *411:77 18.245 
8 *411:77 *6215:S 1.6 
9 *411:77 *411:92 20.52 
10 *411:92 *6211:S 11.57 
11 *411:92 *411:111 36.22 
12 *411:111 *411:125 19.525 
13 *411:125 *6217:S 18.965 
14 *411:125 *6207:S 1.6 
15 *411:111 *6205:S 2.395 
*END

*D_NET *412 0.00131196
*CONN
*I *6206:A I *D sky130_fd_sc_hd__clkbuf_1
*I *6205:X O *D sky130_fd_sc_hd__mux2_1
*CAP
1 *6206:A 0.000269419
2 *6205:X 0.000269419
3 *6206:A *6445:CLK 0.000162311
4 *6206:A *658:24 3.1562e-06
5 *5986:A0 *6206:A 0
6 *6170:A *6206:A 0.000208484
7 *411:125 *6206:A 0.000399166
*RES
1 *6205:X *6206:A 13.5 
*END

*D_NET *413 0.0012246
*CONN
*I *6208:A I *D sky130_fd_sc_hd__clkbuf_1
*I *6207:X O *D sky130_fd_sc_hd__mux2_1
*CAP
1 *6208:A 0.000421345
2 *6207:X 0.000421345
3 *6208:A *6328:CLK 1.34503e-05
4 *6208:A *494:22 3.29969e-05
5 *6208:A *735:27 2.84534e-05
6 *6208:A *735:35 3.79461e-05
7 *6217:S *6208:A 0.000141323
8 *6411:D *6208:A 6.50844e-06
9 *6427:D *6208:A 7.06865e-05
10 *411:125 *6208:A 5.05437e-05
*RES
1 *6207:X *6208:A 13.635 
*END

*D_NET *414 0.000153857
*CONN
*I *6210:A I *D sky130_fd_sc_hd__clkbuf_1
*I *6209:X O *D sky130_fd_sc_hd__mux2_1
*CAP
1 *6210:A 5.84042e-05
2 *6209:X 5.84042e-05
3 *6210:A *6412:CLK 3.70488e-05
4 *6209:S *6210:A 0
*RES
1 *6209:X *6210:A 4.37 
*END

*D_NET *415 0.00104467
*CONN
*I *6212:A I *D sky130_fd_sc_hd__clkbuf_1
*I *6211:X O *D sky130_fd_sc_hd__mux2_1
*CAP
1 *6212:A 0.000263981
2 *6211:X 0.000263981
3 *6212:A *6241:S 0.000239807
4 *6211:S *6212:A 0
5 *6429:D *6212:A 3.00381e-05
6 *270:12 *6212:A 0.000246865
*RES
1 *6211:X *6212:A 12.9 
*END

*D_NET *416 0.000393175
*CONN
*I *6214:A I *D sky130_fd_sc_hd__clkbuf_1
*I *6213:X O *D sky130_fd_sc_hd__mux2_1
*CAP
1 *6214:A 0.000152454
2 *6213:X 0.000152454
3 *6214:A *6213:A0 0
4 *6214:A *6430:CLK 0
5 *6430:D *6214:A 8.8266e-05
*RES
1 *6213:X *6214:A 9.825 
*END

*D_NET *417 0.000587707
*CONN
*I *6216:A I *D sky130_fd_sc_hd__clkbuf_1
*I *6215:X O *D sky130_fd_sc_hd__mux2_1
*CAP
1 *6216:A 0.000187435
2 *6215:X 0.000187435
3 *6216:A *5904:A 7.4027e-05
4 *6216:A *6091:A0 8.8266e-05
5 *6431:D *6216:A 5.05437e-05
6 *309:16 *6216:A 0
*RES
1 *6215:X *6216:A 10.86 
*END

*D_NET *418 0.000684382
*CONN
*I *6218:A I *D sky130_fd_sc_hd__clkbuf_1
*I *6217:X O *D sky130_fd_sc_hd__mux2_1
*CAP
1 *6218:A 0.000322911
2 *6217:X 0.000322911
3 *6218:A *6217:A0 0
4 *6218:A *598:10 0
5 *6217:S *6218:A 0
6 *6432:D *6218:A 3.85599e-05
*RES
1 *6217:X *6218:A 12.015 
*END

*D_NET *419 0.000666701
*CONN
*I *6220:A I *D sky130_fd_sc_hd__clkbuf_1
*I *6219:X O *D sky130_fd_sc_hd__mux2_1
*CAP
1 *6220:A 0.000330584
2 *6219:X 0.000330584
3 *6220:A *6417:CLK 5.53249e-06
4 *411:30 *6220:A 0
*RES
1 *6219:X *6220:A 11.355 
*END

*D_NET *420 0.012785
*CONN
*I *6282:S I *D sky130_fd_sc_hd__mux2_1
*I *6278:B I *D sky130_fd_sc_hd__xor2_1
*I *6279:S I *D sky130_fd_sc_hd__mux2_1
*I *6222:S I *D sky130_fd_sc_hd__mux2_1
*I *6285:S I *D sky130_fd_sc_hd__mux2_1
*I *6225:S I *D sky130_fd_sc_hd__mux2_1
*I *6231:S I *D sky130_fd_sc_hd__mux2_1
*I *6229:S I *D sky130_fd_sc_hd__mux2_1
*I *6228:A2 I *D sky130_fd_sc_hd__o21ba_1
*I *6221:X O *D sky130_fd_sc_hd__o21a_4
*CAP
1 *6282:S 0
2 *6278:B 0
3 *6279:S 0
4 *6222:S 0.000717474
5 *6285:S 0
6 *6225:S 0
7 *6231:S 0
8 *6229:S 0.000257245
9 *6228:A2 9.62783e-05
10 *6221:X 7.99358e-05
11 *420:87 0.000873803
12 *420:85 0.000468876
13 *420:51 0.000803062
14 *420:47 0.000905278
15 *420:39 0.000818588
16 *420:31 0.000925841
17 *420:27 0.000803829
18 *420:10 0.000825875
19 *6222:S *5885:A 0.000115378
20 *6222:S *6222:A0 0.000207887
21 *6222:S *6280:A 8.65905e-05
22 *6228:A2 *680:14 0.00022448
23 *6229:S *6229:A0 1.70935e-05
24 *6229:S *710:16 0
25 *6229:S *710:30 0.000207251
26 *6229:S *710:32 8.97564e-05
27 *420:10 *680:14 8.53113e-06
28 *420:27 *5870:D 1.94805e-05
29 *420:27 *6282:A0 1.53032e-05
30 *420:27 *6282:A1 6.18754e-05
31 *420:27 *812:38 0
32 *420:27 *812:46 0
33 *420:31 *6282:A0 1.34361e-05
34 *420:31 *6282:A1 9.50342e-06
35 *420:31 *6283:A 0
36 *420:31 *812:36 0
37 *420:31 *812:38 0
38 *420:39 *6507:A 0.000360802
39 *420:39 *6508:A 6.16204e-05
40 *420:39 *490:6 0.000158689
41 *420:39 *491:12 8.65905e-05
42 *420:47 *6225:A1 0.000339669
43 *420:47 *6285:A1 0.000139252
44 *420:47 *812:10 3.76596e-05
45 *420:51 *6463:D 4.70343e-05
46 *420:51 *490:12 0
47 *420:51 *710:16 0
48 *420:85 *6283:A 0
49 *420:85 *6478:RESET_B 0
50 *420:85 *491:12 0.000198204
51 *420:85 *810:75 0
52 *420:85 *812:36 0
53 *420:87 *710:185 6.88941e-05
54 *5871:A *6229:S 7.75412e-05
55 *5871:A *420:51 7.6664e-05
56 *5871:B *420:51 0
57 *5879:A *420:85 8.3877e-05
58 *5879:A *420:87 8.65961e-05
59 *5889:C1 *420:47 0
60 *5891:A *420:10 3.18137e-05
61 *6168:A1 *420:27 0.000137752
62 *6168:B1 *420:27 0.000155491
63 *6227:A1 *420:27 0.000115464
64 *6229:A1 *6229:S 0
65 *6231:A1 *6229:S 5.53249e-06
66 *6231:A1 *420:51 5.99925e-05
67 *6279:A1 *6222:S 3.23663e-05
68 *6279:A1 *420:87 8.65905e-05
69 *6287:C1 *420:27 0.000162325
70 *6478:D *420:85 9.54399e-05
71 *183:8 *420:27 0.000342247
72 *188:8 *6229:S 0
73 *189:10 *420:27 8.08153e-06
74 *190:8 *420:10 0.000123225
75 *190:21 *420:10 8.65961e-05
76 *192:12 *420:31 0
77 *193:16 *420:27 0
78 *203:10 *420:27 0.000132096
79 *203:14 *420:27 0.000136877
80 *203:36 *420:10 0.000201508
81 *391:8 *6228:A2 0.000181376
82 *391:8 *420:10 0.000107634
83 *391:8 *420:27 6.44051e-05
84 *391:22 *6228:A2 4.24562e-05
*RES
1 *6221:X *420:10 6.81 
2 *420:10 *6228:A2 6.255 
3 *420:10 *420:27 19.105 
4 *420:27 *420:31 2.595 
5 *420:31 *420:39 11.195 
6 *420:39 *420:47 11.68 
7 *420:47 *420:51 12.05 
8 *420:51 *6229:S 10.08 
9 *420:51 *6231:S 3.6 
10 *420:47 *6225:S 1.6 
11 *420:39 *6285:S 1.6 
12 *420:31 *420:85 8.78 
13 *420:85 *420:87 3.21 
14 *420:87 *6222:S 12.7 
15 *420:87 *6279:S 1.6 
16 *420:85 *6278:B 1.6 
17 *420:27 *6282:S 3.6 
*END

*D_NET *421 0.000222357
*CONN
*I *6223:A I *D sky130_fd_sc_hd__clkbuf_1
*I *6222:X O *D sky130_fd_sc_hd__mux2_1
*CAP
1 *6223:A 0.000111178
2 *6222:X 0.000111178
*RES
1 *6222:X *6223:A 4.955 
*END

*D_NET *422 0.00157912
*CONN
*I *6225:A1 I *D sky130_fd_sc_hd__mux2_1
*I *6224:Y O *D sky130_fd_sc_hd__nand2_1
*CAP
1 *6225:A1 0.000498986
2 *6224:Y 0.000498986
3 *6225:A1 *6225:A0 0.000241483
4 *420:47 *6225:A1 0.000339669
*RES
1 *6224:Y *6225:A1 12.275 
*END

*D_NET *423 0.000523296
*CONN
*I *6226:A I *D sky130_fd_sc_hd__clkbuf_1
*I *6225:X O *D sky130_fd_sc_hd__mux2_1
*CAP
1 *6226:A 0.000218353
2 *6225:X 0.000218353
3 *6260:A *6226:A 8.65905e-05
*RES
1 *6225:X *6226:A 6.68 
*END

*D_NET *424 0.00040918
*CONN
*I *6228:B1_N I *D sky130_fd_sc_hd__o21ba_1
*I *6227:X O *D sky130_fd_sc_hd__o211a_1
*CAP
1 *6228:B1_N 0.00020459
2 *6227:X 0.00020459
3 *6228:B1_N *479:61 0
4 *391:8 *6228:B1_N 0
5 *391:22 *6228:B1_N 0
*RES
1 *6227:X *6228:B1_N 10.17 
*END

*D_NET *425 0.000496769
*CONN
*I *6230:A I *D sky130_fd_sc_hd__clkbuf_1
*I *6229:X O *D sky130_fd_sc_hd__mux2_1
*CAP
1 *6230:A 0.000128478
2 *6229:X 0.000128478
3 *6230:A *6461:RESET_B 0.000239813
*RES
1 *6229:X *6230:A 5.99 
*END

*D_NET *426 0.000892971
*CONN
*I *6232:A I *D sky130_fd_sc_hd__clkbuf_1
*I *6231:X O *D sky130_fd_sc_hd__mux2_1
*CAP
1 *6232:A 0.000229235
2 *6231:X 0.000229235
3 *6232:A *5868:A 4.82919e-05
4 *6232:A *6451:D 0.000312182
5 *6232:A *710:30 0
6 *6232:A *813:10 7.4027e-05
*RES
1 *6231:X *6232:A 11.895 
*END

*D_NET *427 0.00136524
*CONN
*I *6234:B1 I *D sky130_fd_sc_hd__o211a_4
*I *6233:Y O *D sky130_fd_sc_hd__nor2_1
*CAP
1 *6234:B1 0.000321316
2 *6233:Y 0.000321316
3 *6234:B1 *6305:B1 4.66108e-05
4 *5903:A *6234:B1 0.00022282
5 *6095:B *6234:B1 0.000180682
6 *6111:S *6234:B1 0
7 *6150:B *6234:B1 2.49909e-05
8 *6203:A *6234:B1 1.19928e-05
9 *6203:B *6234:B1 4.82919e-05
10 *6287:A1 *6234:B1 4.82863e-05
11 *190:59 *6234:B1 4.18603e-06
12 *203:175 *6234:B1 9.68787e-05
13 *213:29 *6234:B1 2.16833e-05
14 *279:22 *6234:B1 1.61831e-05
*RES
1 *6233:Y *6234:B1 14.355 
*END

*D_NET *428 0.0278274
*CONN
*I *6247:S I *D sky130_fd_sc_hd__mux2_1
*I *6237:S I *D sky130_fd_sc_hd__mux2_1
*I *6235:S I *D sky130_fd_sc_hd__mux2_1
*I *6243:S I *D sky130_fd_sc_hd__mux2_1
*I *6249:S I *D sky130_fd_sc_hd__mux2_1
*I *6239:S I *D sky130_fd_sc_hd__mux2_1
*I *6245:S I *D sky130_fd_sc_hd__mux2_1
*I *6241:S I *D sky130_fd_sc_hd__mux2_1
*I *6234:X O *D sky130_fd_sc_hd__o211a_4
*CAP
1 *6247:S 1.49415e-05
2 *6237:S 0.000248438
3 *6235:S 0
4 *6243:S 0.000196418
5 *6249:S 0
6 *6239:S 0
7 *6245:S 0
8 *6241:S 0.00107223
9 *6234:X 0
10 *428:121 0.00167553
11 *428:105 0.00217426
12 *428:84 0.00153547
13 *428:75 0.00203058
14 *428:52 0.0020717
15 *428:16 0.00200347
16 *428:4 0.00157919
17 *6237:S *724:41 6.58339e-05
18 *6237:S *735:92 3.50033e-05
19 *6241:S *6211:A0 5.34747e-05
20 *6241:S *6241:A0 1.03323e-05
21 *6241:S *6241:A1 0.000206944
22 *6241:S *6246:A 0.000245192
23 *6241:S *6611:A 6.68426e-05
24 *6241:S *581:12 0.000222244
25 *6241:S *768:44 0.000288997
26 *6243:S *5914:A0 3.86607e-05
27 *6243:S *5966:A0 0.000120655
28 *6243:S *6243:A1 0.000204456
29 *6243:S *6244:A 1.1561e-05
30 *6243:S *6416:CLK 0.00016163
31 *6243:S *6519:A 3.74161e-05
32 *6247:S *6598:A 1.37328e-05
33 *428:16 *5975:A0 0.000428248
34 *428:16 *6179:A0 2.16833e-05
35 *428:16 *6179:A1 0.00015896
36 *428:16 *6245:A0 8.65905e-05
37 *428:16 *6245:A1 0.000188856
38 *428:16 *470:12 0.000574054
39 *428:16 *779:109 0.000454522
40 *428:52 *6239:A0 2.67022e-05
41 *428:52 *6377:CLK 0
42 *428:52 *6562:A 0
43 *428:75 *5994:A0 5.24801e-05
44 *428:75 *5994:A2 0
45 *428:75 *5997:A0 0.000340778
46 *428:75 *6148:A0 0.000131179
47 *428:75 *6201:A1 0
48 *428:75 *6240:A 0
49 *428:75 *6249:A0 8.8266e-05
50 *428:75 *6249:A1 0
51 *428:75 *6377:CLK 4.82863e-05
52 *428:75 *6543:A 1.80792e-05
53 *428:75 *6562:A 0
54 *428:75 *488:39 0.000178214
55 *428:75 *578:10 0
56 *428:75 *636:111 0
57 *428:75 *746:99 0.000112631
58 *428:75 *790:33 6.56448e-06
59 *428:84 *6249:A0 0.000572886
60 *428:105 *6247:A0 2.30292e-05
61 *428:105 *6247:A1 0.000190633
62 *428:105 *6248:A 0.000158965
63 *428:105 *625:51 0.000333137
64 *428:121 *5984:A2 0
65 *428:121 *6247:A0 2.96334e-05
66 *428:121 *6594:A 0
67 *428:121 *6598:A 0.000195102
68 *428:121 *625:45 0
69 *428:121 *724:41 2.7441e-05
70 *428:121 *724:43 0.000156202
71 *5941:A0 *6237:S 0.000298442
72 *5968:A0 *6243:S 0.000159747
73 *5984:S1 *428:121 0.00126938
74 *5986:A0 *428:121 0
75 *5994:S0 *428:75 0.000357862
76 *5995:A0 *428:75 0
77 *5999:A0 *428:75 0.00013521
78 *5999:A1 *428:75 0.000756474
79 *6111:S *428:52 0
80 *6112:A *428:52 0.000167716
81 *6130:S *428:52 0
82 *6130:S *428:75 0.000131654
83 *6148:S *428:75 0
84 *6175:S *428:16 0.000426195
85 *6180:A *428:16 4.82919e-05
86 *6204:B1 *428:52 0.000162325
87 *6212:A *6241:S 0.000239807
88 *6234:C1 *428:16 8.12264e-05
89 *6385:D *428:52 4.05358e-05
90 *6441:D *428:75 0
91 *6444:D *6241:S 1.08758e-05
92 *6446:D *428:75 0.000145069
93 *6496:A *6241:S 1.44259e-05
94 *190:59 *428:16 0.00015639
95 *190:70 *428:16 0.000295274
96 *203:54 *428:52 0.000136884
97 *203:64 *428:16 0.000271303
98 *203:175 *428:52 4.38051e-05
99 *215:28 *428:52 8.09021e-06
100 *216:14 *428:52 0
101 *216:44 *6243:S 0
102 *216:44 *428:105 0
103 *225:62 *428:105 3.45679e-05
104 *225:79 *428:105 0.000189272
105 *225:164 *6241:S 0.000742763
106 *225:181 *6241:S 0.000235573
107 *226:95 *428:75 6.90876e-05
108 *226:95 *428:84 0.000173988
109 *295:20 *428:75 1.82329e-05
110 *391:122 *428:16 1.85674e-05
*RES
1 *6234:X *428:4 1.6 
2 *428:4 *428:16 23.73 
3 *428:16 *6241:S 31.04 
4 *428:16 *6245:S 1.6 
5 *428:4 *428:52 16.345 
6 *428:52 *6239:S 1.6 
7 *428:52 *428:75 35.485 
8 *428:75 *6249:S 1.6 
9 *428:75 *428:84 13.49 
10 *428:84 *6243:S 9.27 
11 *428:84 *428:105 14.3 
12 *428:105 *428:121 30.01 
13 *428:121 *6235:S 1.6 
14 *428:121 *6237:S 10.925 
15 *428:105 *6247:S 1.96 
*END

*D_NET *429 0.00139934
*CONN
*I *6236:A I *D sky130_fd_sc_hd__clkbuf_1
*I *6235:X O *D sky130_fd_sc_hd__mux2_1
*CAP
1 *6236:A 0.000465799
2 *6235:X 0.000465799
3 *6236:A *5924:A0 0.000315003
4 *6236:A *5924:A1 4.82919e-05
5 *6236:A *481:52 0
6 *6236:A *481:56 0
7 *6236:A *724:43 8.8266e-05
8 *6236:A *735:105 0
9 *5928:A0 *6236:A 1.61831e-05
*RES
1 *6235:X *6236:A 15.675 
*END

*D_NET *430 0.000429307
*CONN
*I *6238:A I *D sky130_fd_sc_hd__clkbuf_1
*I *6237:X O *D sky130_fd_sc_hd__mux2_1
*CAP
1 *6238:A 0.000150043
2 *6237:X 0.000150043
3 *6238:A *5939:A0 1.83913e-05
4 *6238:A *481:56 2.03321e-05
5 *6238:A *735:105 0
6 *5941:A0 *6238:A 4.99619e-05
7 *6440:D *6238:A 4.05358e-05
*RES
1 *6237:X *6238:A 9.72 
*END

*D_NET *431 0.000739118
*CONN
*I *6240:A I *D sky130_fd_sc_hd__clkbuf_1
*I *6239:X O *D sky130_fd_sc_hd__mux2_1
*CAP
1 *6240:A 0.000319887
2 *6239:X 0.000319887
3 *6240:A *6562:A 7.06865e-05
4 *6240:A *578:10 8.53113e-06
5 *6240:A *746:109 2.01259e-05
6 *5948:S1 *6240:A 0
7 *428:75 *6240:A 0
*RES
1 *6239:X *6240:A 11.565 
*END

*D_NET *432 0.00160017
*CONN
*I *6242:A I *D sky130_fd_sc_hd__clkbuf_1
*I *6241:X O *D sky130_fd_sc_hd__mux2_1
*CAP
1 *6242:A 0.000464434
2 *6241:X 0.000464434
3 *6242:A *5957:A0 0.000160635
4 *6242:A *6561:A 7.23602e-05
5 *6242:A *579:14 0.000337046
6 *6242:A *746:45 0.000101265
7 *6120:S *6242:A 0
*RES
1 *6241:X *6242:A 16.02 
*END

*D_NET *433 0.00113342
*CONN
*I *6244:A I *D sky130_fd_sc_hd__clkbuf_1
*I *6243:X O *D sky130_fd_sc_hd__mux2_1
*CAP
1 *6244:A 0.00015066
2 *6243:X 0.00015066
3 *6244:A *6243:A1 0.000148977
4 *6244:A *6416:CLK 0.000117825
5 *6244:A *768:119 0.00027209
6 *6243:S *6244:A 1.1561e-05
7 *216:44 *6244:A 1.70935e-05
8 *216:60 *6244:A 6.28765e-05
9 *225:58 *6244:A 4.82863e-05
10 *391:59 *6244:A 0.000153392
*RES
1 *6243:X *6244:A 12.735 
*END

*D_NET *434 0.00191339
*CONN
*I *6246:A I *D sky130_fd_sc_hd__clkbuf_1
*I *6245:X O *D sky130_fd_sc_hd__mux2_1
*CAP
1 *6246:A 0.000413351
2 *6245:X 0.000413351
3 *6246:A *5975:A0 0.000193801
4 *6246:A *6444:CLK 0.000206817
5 *6246:A *768:44 5.71242e-05
6 *6241:S *6246:A 0.000245192
7 *6444:D *6246:A 0.000140905
8 *6496:A *6246:A 4.39001e-05
9 *230:66 *6246:A 0
10 *411:92 *6246:A 0.000198945
*RES
1 *6245:X *6246:A 16.575 
*END

*D_NET *435 0.000977087
*CONN
*I *6248:A I *D sky130_fd_sc_hd__clkbuf_1
*I *6247:X O *D sky130_fd_sc_hd__mux2_1
*CAP
1 *6248:A 0.000353526
2 *6247:X 0.000353526
3 *6248:A *6445:CLK 3.72916e-05
4 *6445:D *6248:A 3.70009e-05
5 *225:79 *6248:A 3.67779e-05
6 *428:105 *6248:A 0.000158965
*RES
1 *6247:X *6248:A 12.255 
*END

*D_NET *436 0.000375522
*CONN
*I *6250:A I *D sky130_fd_sc_hd__clkbuf_1
*I *6249:X O *D sky130_fd_sc_hd__mux2_1
*CAP
1 *6250:A 7.38672e-05
2 *6249:X 7.38672e-05
3 *6446:D *6250:A 6.54766e-05
4 *226:95 *6250:A 0.000162311
*RES
1 *6249:X *6250:A 5.3 
*END

*D_NET *437 0.00236674
*CONN
*I *6267:B I *D sky130_fd_sc_hd__and2_1
*I *6258:C I *D sky130_fd_sc_hd__or3_1
*I *6253:B I *D sky130_fd_sc_hd__or2_1
*I *6276:D I *D sky130_fd_sc_hd__or4_1
*I *6252:Y O *D sky130_fd_sc_hd__nand2_1
*CAP
1 *6267:B 8.0333e-05
2 *6258:C 0.000309125
3 *6253:B 6.22963e-05
4 *6276:D 2.98794e-05
5 *6252:Y 0
6 *437:12 0.000252503
7 *437:6 0.000469452
8 *437:4 8.0333e-05
9 *6253:B *6277:B 0.000124007
10 *6258:C *6268:B 7.55391e-05
11 *6258:C *711:109 0
12 *6267:B *6670:A 0
13 *6276:D *6277:B 3.83194e-05
14 *437:12 *6276:B 7.23533e-05
15 *437:12 *711:109 0
16 *6258:A *6258:C 0
17 *6258:B *6258:C 0
18 *6267:A *6267:B 0.000163487
19 *6267:A *437:12 0.000158297
20 *225:262 *6267:B 3.26889e-05
21 *226:18 *6267:B 4.84155e-05
22 *226:28 *6267:B 8.49205e-05
23 *226:28 *437:12 6.54674e-05
24 *230:271 *6253:B 0.00013505
25 *237:24 *6258:C 0
26 *237:24 *437:12 1.01661e-05
27 *239:10 *6253:B 8.34281e-06
28 *239:10 *6276:D 1.91597e-05
29 *239:16 *6276:D 4.66108e-05
*RES
1 *6252:Y *437:4 1.6 
2 *437:4 *437:6 2 
3 *437:6 *437:12 5.105 
4 *437:12 *6276:D 2.395 
5 *437:12 *6253:B 3.445 
6 *437:6 *6258:C 8.67 
7 *437:4 *6267:B 4.06 
*END

*D_NET *438 0.00116344
*CONN
*I *6255:A I *D sky130_fd_sc_hd__and2_1
*I *6257:B I *D sky130_fd_sc_hd__xnor2_1
*I *6253:X O *D sky130_fd_sc_hd__or2_1
*CAP
1 *6255:A 3.93318e-05
2 *6257:B 0.000209547
3 *6253:X 5.09598e-05
4 *438:10 0.000299838
5 *6255:A *6255:B 4.82919e-05
6 *438:10 *6255:B 0.000117832
7 *438:10 *711:135 5.4256e-05
8 *5991:A0 *6255:A 1.33285e-05
9 *5991:A0 *6257:B 0.000157968
10 *210:12 *438:10 8.08153e-06
11 *225:262 *6257:B 0.000117832
12 *226:28 *6257:B 4.61744e-05
*RES
1 *6253:X *438:10 7.235 
2 *438:10 *6257:B 10.115 
3 *438:10 *6255:A 2.395 
*END

*D_NET *439 0.00105585
*CONN
*I *6255:B I *D sky130_fd_sc_hd__and2_1
*I *6254:X O *D sky130_fd_sc_hd__a31o_1
*CAP
1 *6255:B 0.000192582
2 *6254:X 0.000192582
3 *6255:B *711:115 4.82919e-05
4 *6255:B *711:135 0
5 *5991:A0 *6255:B 0.000122337
6 *6253:A *6255:B 9.3062e-06
7 *6254:A3 *6255:B 9.33406e-05
8 *6255:A *6255:B 4.82919e-05
9 *6258:A *6255:B 9.78798e-05
10 *210:12 *6255:B 8.34426e-05
11 *225:247 *6255:B 4.99619e-05
12 *438:10 *6255:B 0.000117832
*RES
1 *6254:X *6255:B 12.72 
*END

*D_NET *440 0.00105327
*CONN
*I *6256:A I *D sky130_fd_sc_hd__clkbuf_1
*I *6255:X O *D sky130_fd_sc_hd__and2_1
*CAP
1 *6256:A 0.000349465
2 *6255:X 0.000349465
3 *210:12 *6256:A 2.87867e-05
4 *230:263 *6256:A 0.000325557
*RES
1 *6255:X *6256:A 13.725 
*END

*D_NET *441 0.000239213
*CONN
*I *6259:B I *D sky130_fd_sc_hd__xnor2_1
*I *6258:X O *D sky130_fd_sc_hd__or3_1
*CAP
1 *6259:B 6.06904e-05
2 *6258:X 6.06904e-05
3 *6259:B *713:8 0
4 *6258:A *6259:B 0.000117832
5 *6470:D *6259:B 0
*RES
1 *6258:X *6259:B 8.58 
*END

*D_NET *442 0.0013225
*CONN
*I *6261:A0 I *D sky130_fd_sc_hd__mux2_1
*I *6260:Y O *D sky130_fd_sc_hd__inv_2
*CAP
1 *6261:A0 0.000437447
2 *6260:Y 0.000437447
3 *6260:A *6261:A0 1.77595e-05
4 *6261:S *6261:A0 0.000429843
*RES
1 *6260:Y *6261:A0 14.67 
*END

*D_NET *443 0.00024874
*CONN
*I *6262:A I *D sky130_fd_sc_hd__clkbuf_1
*I *6261:X O *D sky130_fd_sc_hd__mux2_1
*CAP
1 *6262:A 8.76846e-05
2 *6261:X 8.76846e-05
3 *6262:A *6447:D 7.33706e-05
*RES
1 *6261:X *6262:A 4.955 
*END

*D_NET *444 0.000973723
*CONN
*I *6264:B I *D sky130_fd_sc_hd__xnor2_1
*I *6263:Y O *D sky130_fd_sc_hd__nor2_1
*CAP
1 *6264:B 0.000235322
2 *6263:Y 0.000235322
3 *6264:B *6264:A 0.000214531
4 *6264:B *6272:B 0.000162777
5 *6260:A *6264:B 9.72742e-06
6 *6271:A2 *6264:B 3.29384e-05
7 *226:28 *6264:B 7.00889e-06
8 *226:30 *6264:B 7.60965e-05
*RES
1 *6263:Y *6264:B 7.82 
*END

*D_NET *445 0.00460375
*CONN
*I *6265:A0 I *D sky130_fd_sc_hd__mux2_1
*I *6264:Y O *D sky130_fd_sc_hd__xnor2_1
*CAP
1 *6265:A0 0.00160827
2 *6264:Y 0.00160827
3 *6265:A0 *5895:A 0
4 *6265:A0 *6272:B 0.000275313
5 *6265:A0 *6459:CLK 0
6 *6265:A0 *6461:CLK 0.000139933
7 *6265:A0 *487:73 0
8 *6265:A0 *490:35 0.000315139
9 *6265:A0 *794:34 0
10 *5897:B *6265:A0 0.000126952
11 *5897:C *6265:A0 4.66108e-05
12 *5898:C *6265:A0 3.60024e-06
13 *6261:S *6265:A0 0.000297779
14 *6265:S *6265:A0 8.64421e-05
15 *6438:D *6265:A0 9.54399e-05
*RES
1 *6264:Y *6265:A0 36.705 
*END

*D_NET *446 0.000556792
*CONN
*I *6266:A I *D sky130_fd_sc_hd__clkbuf_1
*I *6265:X O *D sky130_fd_sc_hd__mux2_1
*CAP
1 *6266:A 0.000225189
2 *6265:X 0.000225189
3 *6266:A *6265:A1 3.26889e-05
4 *6265:S *6266:A 4.00541e-06
5 *239:67 *6266:A 6.97202e-05
*RES
1 *6265:X *6266:A 7.025 
*END

*D_NET *447 0.000252935
*CONN
*I *6268:B I *D sky130_fd_sc_hd__xnor2_1
*I *6267:X O *D sky130_fd_sc_hd__and2_1
*CAP
1 *6268:B 5.72556e-05
2 *6267:X 5.72556e-05
3 *6268:B *709:10 0
4 *6258:C *6268:B 7.55391e-05
5 *237:24 *6268:B 6.28843e-05
*RES
1 *6267:X *6268:B 8.835 
*END

*D_NET *448 0.00127427
*CONN
*I *6269:A0 I *D sky130_fd_sc_hd__mux2_1
*I *6268:Y O *D sky130_fd_sc_hd__xnor2_1
*CAP
1 *6269:A0 0.000382006
2 *6268:Y 0.000382006
3 *6269:A0 *6670:A 0.000144039
4 *6269:A0 *711:109 5.062e-06
5 *6267:A *6269:A0 1.83756e-05
6 *237:14 *6269:A0 9.52646e-05
7 *237:24 *6269:A0 0.000163493
8 *239:30 *6269:A0 8.40213e-05
*RES
1 *6268:Y *6269:A0 13.365 
*END

*D_NET *449 0.000714655
*CONN
*I *6270:A I *D sky130_fd_sc_hd__clkbuf_1
*I *6269:X O *D sky130_fd_sc_hd__mux2_1
*CAP
1 *6270:A 0.000243032
2 *6269:X 0.000243032
3 *6270:A *6513:A 0.000123955
4 *6270:A *709:10 6.59797e-05
5 *6270:A *709:17 3.86571e-05
*RES
1 *6269:X *6270:A 12.015 
*END

*D_NET *450 0.00105426
*CONN
*I *6272:B I *D sky130_fd_sc_hd__xor2_1
*I *6271:X O *D sky130_fd_sc_hd__a31o_1
*CAP
1 *6272:B 0.000235106
2 *6271:X 0.000235106
3 *6272:B *6264:A 2.20014e-05
4 *6272:B *6273:A0 0.000123955
5 *6264:B *6272:B 0.000162777
6 *6265:A0 *6272:B 0.000275313
*RES
1 *6271:X *6272:B 8.84 
*END

*D_NET *451 0.00104103
*CONN
*I *6273:A0 I *D sky130_fd_sc_hd__mux2_1
*I *6272:X O *D sky130_fd_sc_hd__xor2_1
*CAP
1 *6273:A0 0.000358302
2 *6272:X 0.000358302
3 *6273:A0 *709:38 0.000143266
4 *6272:B *6273:A0 0.000123955
5 *239:41 *6273:A0 4.70343e-05
6 *239:54 *6273:A0 1.01661e-05
*RES
1 *6272:X *6273:A0 12.39 
*END

*D_NET *452 0.000390279
*CONN
*I *6274:A I *D sky130_fd_sc_hd__clkbuf_1
*I *6273:X O *D sky130_fd_sc_hd__mux2_1
*CAP
1 *6274:A 0.000195139
2 *6273:X 0.000195139
*RES
1 *6273:X *6274:A 6.095 
*END

*D_NET *453 0.000858487
*CONN
*I *6276:B I *D sky130_fd_sc_hd__or4_1
*I *6275:Y O *D sky130_fd_sc_hd__inv_2
*CAP
1 *6276:B 0.000204186
2 *6275:Y 0.000204186
3 *5991:A0 *6276:B 0.00015806
4 *225:262 *6276:B 3.90266e-05
5 *226:28 *6276:B 0.000180675
6 *437:12 *6276:B 7.23533e-05
*RES
1 *6275:Y *6276:B 10.83 
*END

*D_NET *454 0.00221845
*CONN
*I *6277:B I *D sky130_fd_sc_hd__xnor2_1
*I *6276:X O *D sky130_fd_sc_hd__or4_1
*CAP
1 *6277:B 0.000783805
2 *6276:X 0.000783805
3 *6277:B *6469:RESET_B 7.44453e-05
4 *6277:B *6475:RESET_B 1.04217e-05
5 *5991:A0 *6277:B 0.000314923
6 *6253:B *6277:B 0.000124007
7 *6276:D *6277:B 3.83194e-05
8 *239:16 *6277:B 8.87273e-05
*RES
1 *6276:X *6277:B 19.395 
*END

*D_NET *455 0.000230514
*CONN
*I *6280:A I *D sky130_fd_sc_hd__clkbuf_1
*I *6279:X O *D sky130_fd_sc_hd__mux2_1
*CAP
1 *6280:A 5.46823e-05
2 *6279:X 5.46823e-05
3 *6280:A *5885:A 3.45588e-05
4 *6222:S *6280:A 8.65905e-05
*RES
1 *6279:X *6280:A 4.61 
*END

*D_NET *456 0.0015575
*CONN
*I *6282:A1 I *D sky130_fd_sc_hd__mux2_1
*I *6281:Y O *D sky130_fd_sc_hd__nor2_1
*CAP
1 *6282:A1 0.000278061
2 *6281:Y 0.000278061
3 *6282:A1 *5878:B1 0.000199833
4 *6282:A1 *6282:A0 0.000120186
5 *6282:A1 *811:78 4.82919e-05
6 *5874:B *6282:A1 8.49205e-05
7 *5878:A1 *6282:A1 5.16479e-05
8 *186:41 *6282:A1 0.00015896
9 *193:16 *6282:A1 0.000266164
10 *420:27 *6282:A1 6.18754e-05
11 *420:31 *6282:A1 9.50342e-06
*RES
1 *6281:Y *6282:A1 14.22 
*END

*D_NET *457 0.000773769
*CONN
*I *6283:A I *D sky130_fd_sc_hd__clkbuf_1
*I *6282:X O *D sky130_fd_sc_hd__mux2_1
*CAP
1 *6283:A 0.00022836
2 *6282:X 0.00022836
3 *6283:A *491:12 0
4 *6283:A *812:36 9.4087e-05
5 *6478:D *6283:A 5.05437e-05
6 *192:12 *6283:A 0.000172418
7 *420:31 *6283:A 0
8 *420:85 *6283:A 0
*RES
1 *6282:X *6283:A 12.36 
*END

*D_NET *458 0.0011366
*CONN
*I *6285:A1 I *D sky130_fd_sc_hd__mux2_1
*I *6284:Y O *D sky130_fd_sc_hd__inv_2
*CAP
1 *6285:A1 0.000250678
2 *6284:Y 0.000250678
3 *6285:A1 *5874:A 0.000247574
4 *6285:A1 *6284:A 0.000238919
5 *6285:A1 *812:10 9.50342e-06
6 *5889:C1 *6285:A1 0
7 *420:47 *6285:A1 0.000139252
*RES
1 *6284:Y *6285:A1 12.285 
*END

*D_NET *459 0.000133455
*CONN
*I *6286:A I *D sky130_fd_sc_hd__clkbuf_1
*I *6285:X O *D sky130_fd_sc_hd__mux2_1
*CAP
1 *6286:A 5.61733e-05
2 *6285:X 5.61733e-05
3 *6286:A *490:6 2.11084e-05
*RES
1 *6285:X *6286:A 4.205 
*END

*D_NET *460 0.0261796
*CONN
*I *6298:S I *D sky130_fd_sc_hd__mux2_1
*I *6292:S I *D sky130_fd_sc_hd__mux2_1
*I *6294:S I *D sky130_fd_sc_hd__mux2_1
*I *6288:S I *D sky130_fd_sc_hd__mux2_1
*I *6300:S I *D sky130_fd_sc_hd__mux2_1
*I *6290:S I *D sky130_fd_sc_hd__mux2_1
*I *6296:S I *D sky130_fd_sc_hd__mux2_1
*I *6302:S I *D sky130_fd_sc_hd__mux2_1
*I *6287:X O *D sky130_fd_sc_hd__o211a_4
*CAP
1 *6298:S 0.000177258
2 *6292:S 0
3 *6294:S 5.9245e-05
4 *6288:S 7.33382e-05
5 *6300:S 0.000179947
6 *6290:S 0.000237118
7 *6296:S 4.35279e-05
8 *6302:S 2.08101e-05
9 *6287:X 0.00177962
10 *460:80 0.00114148
11 *460:78 0.00151699
12 *460:76 0.00188304
13 *460:66 0.00238092
14 *460:43 0.0025328
15 *460:31 0.00230786
16 *460:14 0.00271811
17 *6288:S *6480:CLK 1.61831e-05
18 *6288:S *724:143 2.75229e-05
19 *6290:S *6300:A0 3.39064e-05
20 *6290:S *6520:A 4.13171e-05
21 *6290:S *6650:A 1.23331e-05
22 *6290:S *537:12 0.00012657
23 *6290:S *625:122 0.000298435
24 *6294:S *5960:A1 0
25 *6296:S *6296:A0 1.22325e-05
26 *6298:S *5978:A3 9.48147e-05
27 *6298:S *6299:A 0
28 *6298:S *6526:A 1.10435e-05
29 *6300:S *6016:A0 0.000114589
30 *460:14 *6002:B 0
31 *460:14 *6018:A1 0
32 *460:14 *6302:A0 4.85494e-05
33 *460:14 *6303:A 0
34 *460:14 *6478:RESET_B 0
35 *460:14 *6641:A 0
36 *460:14 *810:79 0
37 *460:14 *811:20 6.1452e-05
38 *460:14 *811:32 3.50033e-05
39 *460:14 *811:38 0
40 *460:14 *812:36 0
41 *460:14 *812:38 0
42 *460:14 *812:46 0
43 *460:31 *5978:A3 7.596e-05
44 *460:31 *6055:A0 0.000312964
45 *460:31 *6055:A1 0
46 *460:31 *6073:A0 0.000463617
47 *460:31 *6302:A0 0.00020655
48 *460:31 *6571:A 0
49 *460:31 *636:38 0.000400703
50 *460:31 *636:47 0.000116177
51 *460:43 *5969:A1 0.000354126
52 *460:43 *6014:A1 0.000345353
53 *460:43 *6296:A0 2.16142e-05
54 *460:43 *6296:A1 4.66108e-05
55 *460:43 *6297:A 3.3625e-05
56 *460:43 *6552:A 3.54125e-05
57 *460:43 *768:16 0
58 *460:43 *768:18 0
59 *460:43 *779:20 0.000887526
60 *460:43 *779:22 8.65961e-05
61 *460:66 *5951:A1 0
62 *460:66 *5969:A3 8.84015e-05
63 *460:66 *6296:A0 2.53645e-05
64 *460:66 *6356:CLK 0.000287353
65 *460:66 *6358:CLK 2.69443e-06
66 *460:66 *6627:A 6.90254e-05
67 *460:66 *746:12 0.000157227
68 *460:66 *746:14 1.70935e-05
69 *460:76 *6047:A1 0.000304247
70 *460:76 *6063:A0 0.000268628
71 *460:76 *6063:A1 0.000331496
72 *460:76 *757:154 9.50342e-06
73 *460:76 *779:18 0.000199939
74 *460:78 *5931:A1 6.15308e-05
75 *460:78 *6522:A 0.000358448
76 *460:78 *544:10 0.000174649
77 *460:78 *724:151 0.000352169
78 *460:78 *757:154 0.000360611
79 *460:80 *5987:A0 3.50657e-05
80 *460:80 *6004:A0 0
81 *460:80 *6520:A 3.23391e-05
82 *460:80 *6650:A 1.94723e-05
83 *460:80 *6651:A 0.000226716
84 *460:80 *544:10 2.85364e-05
85 *460:80 *550:10 5.12942e-05
86 *460:80 *724:124 0
87 *5873:A *460:14 0.000268271
88 *5978:S0 *460:31 0.000162325
89 *5989:A0 *6290:S 0
90 *6014:S *460:31 0
91 *6019:A *460:14 3.68682e-05
92 *6054:A *460:80 7.4027e-05
93 *6055:S *460:31 0.000145542
94 *6056:A *460:31 6.2727e-05
95 *6063:S *460:76 0.000201508
96 *6185:D *460:14 4.284e-05
97 *6287:A2 *460:14 0
98 *6287:B1 *460:14 0
99 *6354:D *460:78 7.63125e-05
100 *6358:D *460:66 6.71686e-05
101 *6367:D *460:31 7.00889e-06
102 *6476:D *460:14 0
103 *6483:D *460:76 0
104 *199:40 *460:14 2.66935e-05
105 *232:141 *6294:S 9.77597e-05
106 *232:157 *460:78 0
107 *232:157 *460:80 0
108 *232:167 *6290:S 0
109 *298:37 *460:31 7.5919e-05
110 *319:105 *460:78 0
*RES
1 *6287:X *460:14 35.945 
2 *460:14 *6302:S 1.96 
3 *460:14 *460:31 23.045 
4 *460:31 *460:43 24.615 
5 *460:43 *6296:S 2.47 
6 *460:43 *460:66 25.76 
7 *460:66 *460:76 22.715 
8 *460:76 *460:78 16.425 
9 *460:78 *460:80 13.62 
10 *460:80 *6290:S 9.435 
11 *460:80 *6300:S 6.045 
12 *460:78 *6288:S 5.115 
13 *460:76 *6294:S 5.115 
14 *460:66 *6292:S 1.6 
15 *460:31 *6298:S 7.02 
*END

*D_NET *461 0.000533158
*CONN
*I *6289:A I *D sky130_fd_sc_hd__clkbuf_1
*I *6288:X O *D sky130_fd_sc_hd__mux2_1
*CAP
1 *6289:A 0.000137421
2 *6288:X 0.000137421
3 *6289:A *6004:A0 9.37731e-05
4 *6289:A *6480:CLK 0.000124007
5 *6289:A *544:10 0
6 *6480:D *6289:A 4.05358e-05
7 *298:77 *6289:A 0
*RES
1 *6288:X *6289:A 9.72 
*END

*D_NET *462 0.000981417
*CONN
*I *6291:A I *D sky130_fd_sc_hd__clkbuf_1
*I *6290:X O *D sky130_fd_sc_hd__mux2_1
*CAP
1 *6291:A 0.000220979
2 *6290:X 0.000220979
3 *6291:A *6006:A0 0.000272085
4 *6291:A *537:12 2.87867e-05
5 *6291:A *625:122 4.05358e-05
6 *6006:S *6291:A 0.000198051
7 *233:191 *6291:A 0
*RES
1 *6290:X *6291:A 12.345 
*END

*D_NET *463 0.000188345
*CONN
*I *6293:A I *D sky130_fd_sc_hd__clkbuf_1
*I *6292:X O *D sky130_fd_sc_hd__mux2_1
*CAP
1 *6293:A 3.6604e-05
2 *6292:X 3.6604e-05
3 *6293:A *779:18 0.000115137
*RES
1 *6292:X *6293:A 4.265 
*END

*D_NET *464 0.000308391
*CONN
*I *6295:A I *D sky130_fd_sc_hd__clkbuf_1
*I *6294:X O *D sky130_fd_sc_hd__mux2_1
*CAP
1 *6295:A 7.45661e-05
2 *6294:X 7.45661e-05
3 *232:141 *6295:A 0.000159259
*RES
1 *6294:X *6295:A 4.955 
*END

*D_NET *465 0.000898968
*CONN
*I *6297:A I *D sky130_fd_sc_hd__clkbuf_1
*I *6296:X O *D sky130_fd_sc_hd__mux2_1
*CAP
1 *6297:A 0.000250417
2 *6296:X 0.000250417
3 *6297:A *5969:A1 0.000244877
4 *319:59 *6297:A 0.000119631
5 *460:43 *6297:A 3.3625e-05
*RES
1 *6296:X *6297:A 12.705 
*END

*D_NET *466 0.000871146
*CONN
*I *6299:A I *D sky130_fd_sc_hd__clkbuf_1
*I *6298:X O *D sky130_fd_sc_hd__mux2_1
*CAP
1 *6299:A 0.000296515
2 *6298:X 0.000296515
3 *6299:A *6485:CLK 0
4 *6299:A *493:60 0.000278117
5 *6298:S *6299:A 0
*RES
1 *6298:X *6299:A 12.6 
*END

*D_NET *467 0.000668518
*CONN
*I *6301:A I *D sky130_fd_sc_hd__clkbuf_1
*I *6300:X O *D sky130_fd_sc_hd__mux2_1
*CAP
1 *6301:A 0.000194207
2 *6300:X 0.000194207
3 *6301:A *6016:A0 5.91029e-05
4 *6301:A *6650:A 4.40812e-05
5 *6301:A *550:10 1.01661e-05
6 *6301:A *724:124 0.000139238
7 *6006:S *6301:A 2.75145e-05
*RES
1 *6300:X *6301:A 10.665 
*END

*D_NET *468 0.000820824
*CONN
*I *6303:A I *D sky130_fd_sc_hd__clkbuf_1
*I *6302:X O *D sky130_fd_sc_hd__mux2_1
*CAP
1 *6303:A 0.000342586
2 *6302:X 0.000342586
3 *6303:A *6487:CLK 0
4 *6019:A *6303:A 8.56912e-05
5 *6345:D *6303:A 4.99619e-05
6 *6487:D *6303:A 0
7 *460:14 *6303:A 0
*RES
1 *6302:X *6303:A 12.66 
*END

*D_NET *469 0.00197243
*CONN
*I *6305:B1 I *D sky130_fd_sc_hd__o211a_4
*I *6304:Y O *D sky130_fd_sc_hd__nor2_1
*CAP
1 *6305:B1 0.000517136
2 *6304:Y 0.000517136
3 *6095:A *6305:B1 9.27255e-06
4 *6096:A1 *6305:B1 4.66108e-05
5 *6096:A2 *6305:B1 1.91597e-05
6 *6096:C1 *6305:B1 2.11084e-05
7 *6150:A *6305:B1 2.75145e-05
8 *6150:B *6305:B1 2.67275e-05
9 *6234:B1 *6305:B1 4.66108e-05
10 *190:70 *6305:B1 0.000222813
11 *190:94 *6305:B1 0.000114492
12 *215:109 *6305:B1 3.25831e-05
13 *215:118 *6305:B1 0.000149759
14 *215:133 *6305:B1 0.000157892
15 *351:31 *6305:B1 6.36139e-05
*RES
1 *6304:Y *6305:B1 17.1 
*END

*D_NET *470 0.0380723
*CONN
*I *6312:S I *D sky130_fd_sc_hd__mux2_1
*I *6310:S I *D sky130_fd_sc_hd__mux2_1
*I *6314:S I *D sky130_fd_sc_hd__mux2_1
*I *6316:S I *D sky130_fd_sc_hd__mux2_1
*I *6320:S I *D sky130_fd_sc_hd__mux2_1
*I *6318:S I *D sky130_fd_sc_hd__mux2_1
*I *6308:S I *D sky130_fd_sc_hd__mux2_1
*I *6306:S I *D sky130_fd_sc_hd__mux2_1
*I *6305:X O *D sky130_fd_sc_hd__o211a_4
*CAP
1 *6312:S 0.00168907
2 *6310:S 0
3 *6314:S 2.08101e-05
4 *6316:S 2.08101e-05
5 *6320:S 0
6 *6318:S 1.04051e-05
7 *6308:S 0.000163866
8 *6306:S 0.000930444
9 *6305:X 0.000346447
10 *470:128 0.00323664
11 *470:109 0.00226773
12 *470:100 0.00187117
13 *470:52 0.00168985
14 *470:40 0.00265713
15 *470:18 0.00278887
16 *470:12 0.00223515
17 *6306:S *5932:A0 9.14049e-05
18 *6306:S *5932:A2 8.43862e-05
19 *6306:S *5943:A1 0
20 *6306:S *6306:A1 4.82919e-05
21 *6306:S *6307:A 0.000196376
22 *6306:S *6371:CLK 0.000493307
23 *6306:S *6403:CLK 0.000227543
24 *6306:S *6527:A 3.31282e-05
25 *6306:S *6644:A 0
26 *6308:S *6099:A0 0.000146176
27 *6308:S *6308:A0 8.57024e-05
28 *6308:S *6309:A 5.05521e-05
29 *6308:S *735:133 0.000233769
30 *6312:S *5960:A2 0.000344725
31 *6312:S *6065:A0 0.000315527
32 *6312:S *6065:A1 0.000160641
33 *6312:S *6310:A0 0.00012982
34 *6312:S *6341:CLK 0.000123225
35 *6312:S *6608:A 4.18603e-06
36 *6312:S *6613:A 8.40269e-05
37 *6312:S *539:8 1.34594e-05
38 *6312:S *757:196 0
39 *6318:S *482:104 0
40 *470:18 *6320:A1 5.30673e-05
41 *470:18 *6533:A 6.28765e-05
42 *470:40 *5988:A1 9.02174e-05
43 *470:40 *6164:A1 3.79068e-05
44 *470:40 *6319:A 3.08148e-05
45 *470:40 *669:14 0
46 *470:40 *735:129 2.02872e-05
47 *470:52 *5988:A1 7.7052e-06
48 *470:52 *6099:A0 0.000391354
49 *470:52 *482:93 0.000115779
50 *470:52 *482:104 0.000149411
51 *470:52 *735:133 0.000394699
52 *470:100 *5979:A2 0.000155348
53 *470:100 *6316:A0 6.97118e-05
54 *470:100 *6317:A 0
55 *470:100 *6533:A 0.000103192
56 *470:100 *492:68 0
57 *470:100 *779:43 0.000242558
58 *470:100 *779:54 8.89028e-05
59 *470:100 *779:62 0.000200653
60 *470:109 *5970:A2 0.000370206
61 *470:109 *6314:A0 2.16917e-05
62 *470:109 *6316:A0 0.000202672
63 *470:109 *6609:A 0.000163199
64 *470:128 *6314:A0 0.000204018
65 *470:128 *757:56 0.000110914
66 *5932:S0 *6306:S 0
67 *5944:A1 *6306:S 0
68 *5950:A0 *470:40 0.00241737
69 *5953:A0 *470:128 0.000136884
70 *5975:S0 *470:18 0.000138196
71 *5979:S1 *470:100 0
72 *5980:A1 *470:100 2.20641e-05
73 *5981:A1 *470:100 0.00102855
74 *5981:S *470:18 0
75 *5981:S *470:40 1.79536e-05
76 *5988:S0 *470:40 0.00301777
77 *6065:S *6312:S 0.000102939
78 *6087:S *470:100 2.75538e-05
79 *6089:S *6306:S 0.000310424
80 *6109:S *470:40 0.0004515
81 *6180:A *470:18 0
82 *6305:A2 *470:12 3.26889e-05
83 *6341:D *6312:S 1.43717e-05
84 *6399:D *470:100 5.20968e-05
85 *6423:D *470:100 9.54399e-05
86 *6490:D *470:128 7.70553e-06
87 *16:5 *470:128 0.00013521
88 *190:70 *470:12 2.05056e-05
89 *203:75 *470:12 0.00015896
90 *203:79 *470:12 0.000245164
91 *225:160 *470:18 0.000450957
92 *231:18 *470:52 0
93 *237:150 *470:40 1.94723e-05
94 *279:22 *470:100 6.1452e-05
95 *298:67 *6312:S 0.000424525
96 *309:16 *470:18 0
97 *309:16 *470:100 0
98 *329:81 *6312:S 0.000331656
99 *339:31 *470:100 0.000107862
100 *339:81 *6306:S 0.00115609
101 *351:119 *470:52 0.000116853
102 *382:16 *470:100 0.000243763
103 *391:122 *470:18 7.04021e-05
104 *428:16 *470:12 0.000574054
*RES
1 *6305:X *470:12 12.36 
2 *470:12 *470:18 17.615 
3 *470:18 *470:40 15.6387 
4 *470:40 *470:52 15.43 
5 *470:52 *6306:S 30.335 
6 *470:52 *6308:S 6.22 
7 *470:40 *6318:S 1.96 
8 *470:18 *6320:S 1.6 
9 *470:12 *470:100 32.105 
10 *470:100 *6316:S 1.96 
11 *470:100 *470:109 11.49 
12 *470:109 *6314:S 1.96 
13 *470:109 *470:128 24.565 
14 *470:128 *6310:S 1.6 
15 *470:128 *6312:S 37.265 
*END

*D_NET *471 0.00203335
*CONN
*I *6307:A I *D sky130_fd_sc_hd__clkbuf_1
*I *6306:X O *D sky130_fd_sc_hd__mux2_1
*CAP
1 *6307:A 0.000781476
2 *6306:X 0.000781476
3 *6307:A *5932:A2 6.77681e-05
4 *6307:A *6306:A0 1.26737e-05
5 *6307:A *6488:CLK 1.33293e-05
6 *6306:S *6307:A 0.000196376
7 *6488:D *6307:A 0.000180249
*RES
1 *6306:X *6307:A 14.045 
*END

*D_NET *472 0.000448183
*CONN
*I *6309:A I *D sky130_fd_sc_hd__clkbuf_1
*I *6308:X O *D sky130_fd_sc_hd__mux2_1
*CAP
1 *6309:A 0.00012056
2 *6308:X 0.00012056
3 *6309:A *5943:A0 7.36562e-05
4 *6309:A *5943:A2 5.4003e-05
5 *6309:A *735:162 2.88519e-05
6 *6308:S *6309:A 5.05521e-05
*RES
1 *6308:X *6309:A 9.63 
*END

*D_NET *473 0.000742104
*CONN
*I *6311:A I *D sky130_fd_sc_hd__clkbuf_1
*I *6310:X O *D sky130_fd_sc_hd__mux2_1
*CAP
1 *6311:A 0.000222009
2 *6310:X 0.000222009
3 *5952:S1 *6311:A 4.43871e-06
4 *230:98 *6311:A 0.000124895
5 *232:118 *6311:A 0
6 *233:150 *6311:A 0.000168753
*RES
1 *6310:X *6311:A 12.015 
*END

*D_NET *474 0.000754383
*CONN
*I *6313:A I *D sky130_fd_sc_hd__clkbuf_1
*I *6312:X O *D sky130_fd_sc_hd__mux2_1
*CAP
1 *6313:A 0.000162558
2 *6312:X 0.000162558
3 *6313:A *6083:A0 3.45679e-05
4 *6313:A *757:24 0.000394699
*RES
1 *6312:X *6313:A 7.37 
*END

*D_NET *475 0.000291911
*CONN
*I *6315:A I *D sky130_fd_sc_hd__clkbuf_1
*I *6314:X O *D sky130_fd_sc_hd__mux2_1
*CAP
1 *6315:A 8.23668e-05
2 *6314:X 8.23668e-05
3 *6315:A *5970:A2 2.11084e-05
4 *6315:A *768:26 6.55328e-05
5 *6492:D *6315:A 4.05358e-05
*RES
1 *6314:X *6315:A 9.03 
*END

*D_NET *476 0.000973618
*CONN
*I *6317:A I *D sky130_fd_sc_hd__clkbuf_1
*I *6316:X O *D sky130_fd_sc_hd__mux2_1
*CAP
1 *6317:A 0.000172537
2 *6316:X 0.000172537
3 *6317:A *5979:A2 0.000160641
4 *6317:A *6107:A1 0.00015896
5 *6317:A *779:54 1.52184e-05
6 *5979:S1 *6317:A 0.000293726
7 *470:100 *6317:A 0
*RES
1 *6316:X *6317:A 12.105 
*END

*D_NET *477 0.00102836
*CONN
*I *6319:A I *D sky130_fd_sc_hd__clkbuf_1
*I *6318:X O *D sky130_fd_sc_hd__mux2_1
*CAP
1 *6319:A 0.000372638
2 *6318:X 0.000372638
3 *6319:A *5988:A0 7.44685e-05
4 *5988:S1 *6319:A 0.000138791
5 *230:140 *6319:A 3.04778e-05
6 *237:150 *6319:A 8.53113e-06
7 *470:40 *6319:A 3.08148e-05
*RES
1 *6318:X *6319:A 12.495 
*END

*D_NET *478 0.0012247
*CONN
*I *6321:A I *D sky130_fd_sc_hd__clkbuf_1
*I *6320:X O *D sky130_fd_sc_hd__mux2_1
*CAP
1 *6321:A 0.000410052
2 *6320:X 0.000410052
3 *6321:A *5904:A 0.000289759
4 *6321:A *6320:A1 0.00011484
5 *309:16 *6321:A 0
*RES
1 *6320:X *6321:A 13.83 
*END

*D_NET *479 0.0423197
*CONN
*I *6500:A I *D sky130_fd_sc_hd__clkbuf_8
*I *6501:A I *D sky130_fd_sc_hd__clkbuf_8
*I *6503:A I *D sky130_fd_sc_hd__clkbuf_8
*I *6502:A I *D sky130_fd_sc_hd__clkbuf_8
*I *6510:A I *D sky130_fd_sc_hd__clkbuf_8
*I *6509:A I *D sky130_fd_sc_hd__clkbuf_8
*I *6512:A I *D sky130_fd_sc_hd__clkbuf_8
*I *6511:A I *D sky130_fd_sc_hd__clkbuf_8
*I *6499:A I *D sky130_fd_sc_hd__clkbuf_8
*I *6498:A I *D sky130_fd_sc_hd__clkbuf_8
*I *6506:A I *D sky130_fd_sc_hd__clkbuf_8
*I *6505:A I *D sky130_fd_sc_hd__clkbuf_8
*I *6504:A I *D sky130_fd_sc_hd__clkbuf_8
*I *6508:A I *D sky130_fd_sc_hd__clkbuf_8
*I *6507:A I *D sky130_fd_sc_hd__clkbuf_8
*I *6497:A I *D sky130_fd_sc_hd__clkbuf_8
*I *6496:X O *D sky130_fd_sc_hd__clkbuf_16
*CAP
1 *6500:A 0
2 *6501:A 0.000105955
3 *6503:A 0
4 *6502:A 3.72531e-05
5 *6510:A 0
6 *6509:A 0.000150208
7 *6512:A 0.000326775
8 *6511:A 0
9 *6499:A 0.000433453
10 *6498:A 0
11 *6506:A 2.56208e-05
12 *6505:A 0.000375514
13 *6504:A 0
14 *6508:A 4.84548e-05
15 *6507:A 7.98728e-05
16 *6497:A 0.000123438
17 *6496:X 0.000111431
18 *479:238 0.00160273
19 *479:228 0.00203122
20 *479:218 0.00105487
21 *479:188 0.00144059
22 *479:178 0.00393712
23 *479:132 0.00196036
24 *479:116 0.00191833
25 *479:110 0.0007182
26 *479:86 0.000412563
27 *479:61 0.0015131
28 *479:51 0.00162504
29 *479:30 0.0018432
30 *479:26 0.00325339
31 *479:20 0.00327585
32 *479:16 0.00357646
33 *6497:A *680:14 0.000200246
34 *6499:A *6386:CLK 3.7712e-05
35 *6499:A *6547:A 0.000252755
36 *6499:A *482:18 0.000278889
37 *6501:A *483:53 2.32724e-05
38 *6501:A *484:6 4.82863e-05
39 *6501:A *746:31 2.14129e-05
40 *6501:A *746:37 0.000163992
41 *6501:A *757:56 0.000129868
42 *6505:A *5904:A 0.000183798
43 *6505:A *5997:S1 0
44 *6505:A *636:84 0
45 *6505:A *636:90 0
46 *6507:A *490:6 0.000312964
47 *6509:A *492:8 0
48 *6509:A *509:12 5.23362e-05
49 *6512:A *6128:A0 7.4027e-05
50 *6512:A *495:8 5.83121e-06
51 *479:51 *6209:A0 5.83121e-06
52 *479:51 *487:10 4.99619e-05
53 *479:51 *680:14 8.01855e-05
54 *479:51 *709:185 4.41506e-05
55 *479:61 *5888:A 0
56 *479:61 *6449:D 0.000126446
57 *479:61 *6449:RESET_B 0.000201855
58 *479:61 *487:40 0
59 *479:61 *487:53 0
60 *479:61 *487:65 0.000114492
61 *479:61 *712:39 0.0004034
62 *479:61 *810:18 0
63 *479:86 *5904:A 5.05716e-06
64 *479:116 *502:12 0.00011852
65 *479:132 *6023:A0 0.000155497
66 *479:132 *6386:CLK 5.83121e-06
67 *479:178 *6413:CLK 0.0001342
68 *479:188 *493:10 0.000308719
69 *479:188 *509:12 2.49909e-05
70 *479:218 *6380:CLK 0
71 *479:218 *757:56 0
72 *479:228 *483:8 0.000205917
73 *479:228 *483:53 4.66108e-05
74 *479:228 *757:56 2.49e-05
75 *479:238 *483:53 7.53504e-05
76 *479:238 *757:56 5.27538e-05
77 *5889:B1 *479:61 0
78 *5889:D1 *479:61 0
79 *5890:A *479:61 5.20968e-05
80 *5928:A0 *6499:A 0
81 *5928:A1 *6499:A 5.83121e-06
82 *5928:S *6499:A 2.75145e-05
83 *5941:S *6499:A 7.18452e-06
84 *5972:A1 *6512:A 5.73375e-05
85 *5972:A1 *479:116 0.000148694
86 *5973:A0 *479:132 0
87 *5975:S1 *479:16 1.56428e-05
88 *5990:A0 *479:116 0.000118978
89 *5990:A1 *479:116 0.00046618
90 *5990:A1 *479:132 0.000140898
91 *5991:A0 *6497:A 8.57024e-05
92 *5995:A1 *6505:A 8.26604e-05
93 *5998:S *479:51 0.000538544
94 *6025:S *479:132 1.79483e-05
95 *6082:A *479:218 0.000104671
96 *6088:A *479:188 0.000467074
97 *6129:A *6512:A 4.6368e-06
98 *6135:A *6512:A 7.94582e-05
99 *6168:B1 *479:61 0
100 *6168:C1 *479:61 0.000161637
101 *6168:D1 *479:61 0.000358264
102 *6188:A *6512:A 8.49205e-05
103 *6227:A1 *479:61 0
104 *6228:B1_N *479:61 0
105 *6392:D *6512:A 1.27504e-05
106 *6392:D *479:116 5.23132e-05
107 *6436:D *479:61 0
108 *183:8 *479:61 0
109 *186:10 *479:61 0.000112123
110 *186:12 *479:61 0.000174279
111 *189:10 *479:61 0
112 *192:12 *479:61 0.000439464
113 *199:10 *479:61 0.000131408
114 *200:10 *479:61 0
115 *230:16 *479:30 0
116 *230:157 *6499:A 1.73877e-05
117 *232:21 *6506:A 1.83847e-05
118 *232:157 *6502:A 6.47516e-05
119 *232:157 *479:238 0.000103401
120 *232:278 *479:188 0.000390436
121 *237:80 *6505:A 6.09503e-05
122 *270:12 *479:16 7.96104e-06
123 *270:12 *479:178 0.000144217
124 *287:22 *6505:A 2.85943e-05
125 *287:22 *479:30 0
126 *319:109 *6502:A 0.000117825
127 *319:109 *479:238 0.000196303
128 *339:50 *6501:A 0
129 *351:31 *6509:A 8.97832e-05
130 *351:52 *479:188 0
131 *372:24 *479:16 1.88904e-05
132 *372:36 *479:116 0
133 *382:68 *479:238 0
134 *391:22 *479:61 0.0001752
135 *391:30 *479:61 0.000383698
136 *411:30 *6497:A 0.000102753
137 *411:30 *479:51 7.74981e-05
138 *420:39 *6507:A 0.000360802
139 *420:39 *6508:A 6.16204e-05
*RES
1 *6496:X *479:16 5.34963 
2 *479:16 *479:20 3.46653 
3 *479:20 *479:26 3.3592 
4 *479:26 *479:30 3.39307 
5 *479:30 *6497:A 7.4775 
6 *479:30 *479:51 8.6975 
7 *479:51 *479:61 37.045 
8 *479:61 *6507:A 5.17 
9 *479:61 *6508:A 2.395 
10 *479:51 *6504:A 1.6 
11 *479:26 *479:86 0.7325 
12 *479:86 *6505:A 10.89 
13 *479:86 *6506:A 4.05 
14 *479:20 *479:110 0.5 
15 *479:110 *479:116 10.3025 
16 *479:116 *479:132 11.0391 
17 *479:132 *6498:A 1.6 
18 *479:132 *6499:A 14.345 
19 *479:116 *6511:A 1.6 
20 *479:110 *6512:A 9.4575 
21 *479:16 *479:178 4.50013 
22 *479:178 *479:188 10.3566 
23 *479:188 *6509:A 8.795 
24 *479:188 *6510:A 1.6 
25 *479:178 *479:218 5.9923 
26 *479:218 *479:228 6.9425 
27 *479:228 *479:238 7.80057 
28 *479:238 *6502:A 4.98 
29 *479:238 *6503:A 3.6 
30 *479:228 *6501:A 7.0875 
31 *479:218 *6500:A 1.6 
*END

*D_NET *480 0.00695068
*CONN
*I *6441:CLK I *D sky130_fd_sc_hd__dfxtp_1
*I *6324:CLK I *D sky130_fd_sc_hd__dfxtp_1
*I *6425:CLK I *D sky130_fd_sc_hd__dfxtp_1
*I *6401:CLK I *D sky130_fd_sc_hd__dfxtp_1
*I *6417:CLK I *D sky130_fd_sc_hd__dfxtp_1
*I *6433:CLK I *D sky130_fd_sc_hd__dfxtp_1
*I *6329:CLK I *D sky130_fd_sc_hd__dfxtp_1
*I *6497:X O *D sky130_fd_sc_hd__clkbuf_8
*CAP
1 *6441:CLK 1.28344e-05
2 *6324:CLK 0.000237738
3 *6425:CLK 0.000148363
4 *6401:CLK 1.6149e-05
5 *6417:CLK 0.000118131
6 *6433:CLK 1.91908e-05
7 *6329:CLK 0.000243935
8 *6497:X 0
9 *480:79 0.000504124
10 *480:37 0.000530876
11 *480:16 0.00110224
12 *480:14 0.000656191
13 *480:8 0.000517012
14 *480:6 0.000446905
15 *6324:CLK *6529:A 0.000116629
16 *6324:CLK *680:14 0
17 *6324:CLK *746:117 9.47027e-05
18 *6329:CLK *5993:A1 0
19 *6329:CLK *6581:A 6.52906e-05
20 *6441:CLK *746:117 1.83847e-05
21 *480:8 *680:14 0
22 *480:8 *791:14 0
23 *480:16 *5920:A1 0
24 *480:16 *6528:A 9.78734e-05
25 *480:37 *5993:A0 4.00541e-06
26 *480:37 *5993:A2 0.000123225
27 *480:37 *599:6 0.000122331
28 *480:79 *6529:A 0
29 *480:79 *680:14 0
30 *5911:A *6324:CLK 4.18603e-06
31 *5911:A *480:79 6.10014e-05
32 *5921:A *6329:CLK 0
33 *5921:A *480:16 0
34 *5948:S0 *6324:CLK 0
35 *5948:S0 *480:8 5.53249e-06
36 *5948:S0 *480:79 0.000284088
37 *6184:A *480:37 0.000244334
38 *6202:A *6425:CLK 6.6925e-05
39 *6209:S *6324:CLK 4.00541e-06
40 *6213:S *6329:CLK 6.20063e-05
41 *6220:A *6417:CLK 5.53249e-06
42 *6324:D *6324:CLK 0.000293032
43 *6329:D *6329:CLK 0.000128396
44 *6401:D *480:8 0.000111603
45 *6401:D *480:14 7.97165e-05
46 *6417:D *480:16 0
47 *6433:D *6433:CLK 4.82863e-05
48 *6433:D *480:37 7.36892e-05
49 *216:29 *480:16 0
50 *225:237 *6401:CLK 1.34503e-05
51 *226:14 *480:14 0
52 *237:66 *6401:CLK 4.66108e-05
53 *239:168 *6401:CLK 5.83121e-06
54 *239:168 *480:14 2.65288e-05
55 *239:168 *480:16 5.23362e-05
56 *391:47 *480:16 0
57 *411:20 *6324:CLK 0.00011577
58 *411:20 *6441:CLK 2.16917e-05
59 *411:30 *6417:CLK 0
*RES
1 *6497:X *480:6 3.6 
2 *480:6 *480:8 3.675 
3 *480:8 *480:14 3.21 
4 *480:14 *480:16 8.265 
5 *480:16 *6329:CLK 8.175 
6 *480:16 *480:37 9.83 
7 *480:37 *6433:CLK 2.05 
8 *480:37 *6417:CLK 7.49 
9 *480:14 *6401:CLK 4.05 
10 *480:8 *6425:CLK 5.7 
11 *480:6 *480:79 7.97 
12 *480:79 *6324:CLK 11.72 
13 *480:79 *6441:CLK 2.05 
*END

*D_NET *481 0.0077336
*CONN
*I *6387:CLK I *D sky130_fd_sc_hd__dfxtp_1
*I *6347:CLK I *D sky130_fd_sc_hd__dfxtp_1
*I *6439:CLK I *D sky130_fd_sc_hd__dfxtp_1
*I *6440:CLK I *D sky130_fd_sc_hd__dfxtp_1
*I *6323:CLK I *D sky130_fd_sc_hd__dfxtp_1
*I *6322:CLK I *D sky130_fd_sc_hd__dfxtp_1
*I *6386:CLK I *D sky130_fd_sc_hd__dfxtp_1
*I *6498:X O *D sky130_fd_sc_hd__clkbuf_8
*CAP
1 *6387:CLK 0
2 *6347:CLK 0
3 *6439:CLK 2.90027e-05
4 *6440:CLK 0
5 *6323:CLK 0.000295475
6 *6322:CLK 0
7 *6386:CLK 0.000108978
8 *6498:X 3.5879e-05
9 *481:56 0.000626213
10 *481:52 0.000706526
11 *481:41 0.000559683
12 *481:35 0.000515081
13 *481:29 0.000633132
14 *481:6 0.000475807
15 *6323:CLK *5908:A0 8.65961e-05
16 *6323:CLK *5939:A2 0.000221931
17 *6323:CLK *585:12 0.00016063
18 *6323:CLK *735:92 2.30292e-05
19 *6386:CLK *6547:A 0.000121943
20 *6439:CLK *5906:A0 5.0751e-05
21 *6439:CLK *5906:A1 7.35813e-05
22 *481:6 *6547:A 0.000197264
23 *481:35 *5940:A1 0.000232461
24 *481:35 *5940:A2 0.000107121
25 *481:35 *553:6 1.56428e-05
26 *481:41 *5940:A1 0
27 *481:41 *6136:A0 0
28 *481:52 *584:12 0
29 *481:52 *658:24 6.27529e-05
30 *481:56 *5939:A2 0
31 *5906:S *481:56 0
32 *5928:A0 *6386:CLK 0.000159957
33 *5928:A0 *481:29 0
34 *5928:A0 *481:52 0
35 *5939:S1 *481:56 0.000193815
36 *5941:A0 *481:29 0.000174995
37 *5941:S *6386:CLK 0
38 *5941:S *481:29 0
39 *5955:A0 *6386:CLK 6.51782e-05
40 *5990:A1 *6386:CLK 0.000124895
41 *5990:A1 *481:6 0.000186388
42 *6116:S *481:29 6.65804e-05
43 *6236:A *481:52 0
44 *6236:A *481:56 0
45 *6238:A *481:56 2.03321e-05
46 *6322:D *481:52 0.0001111
47 *6323:D *6323:CLK 0.000128642
48 *6347:D *481:35 0.00010943
49 *6386:D *6386:CLK 3.95698e-05
50 *6387:D *481:35 7.22354e-05
51 *6440:D *481:56 0.000319167
52 *6499:A *6386:CLK 3.7712e-05
53 *216:79 *6323:CLK 8.8266e-05
54 *225:136 *481:41 0.000192876
55 *226:133 *481:52 0.000103185
56 *226:135 *481:52 9.68709e-05
57 *226:135 *481:56 9.70985e-05
58 *479:132 *6386:CLK 5.83121e-06
*RES
1 *6498:X *481:6 3.43 
2 *481:6 *6386:CLK 9.44 
3 *481:6 *481:29 9.97 
4 *481:29 *481:35 7.125 
5 *481:35 *481:41 8.185 
6 *481:41 *6322:CLK 1.6 
7 *481:41 *481:52 9.05 
8 *481:52 *481:56 10.265 
9 *481:56 *6323:CLK 12.635 
10 *481:56 *6440:CLK 1.6 
11 *481:52 *6439:CLK 4.74 
12 *481:35 *6347:CLK 1.6 
13 *481:29 *6387:CLK 1.6 
*END

*D_NET *482 0.0141132
*CONN
*I *6408:CLK I *D sky130_fd_sc_hd__dfxtp_1
*I *6489:CLK I *D sky130_fd_sc_hd__dfxtp_1
*I *6371:CLK I *D sky130_fd_sc_hd__dfxtp_1
*I *6403:CLK I *D sky130_fd_sc_hd__dfxtp_1
*I *6379:CLK I *D sky130_fd_sc_hd__dfxtp_1
*I *6494:CLK I *D sky130_fd_sc_hd__dfxtp_1
*I *6481:CLK I *D sky130_fd_sc_hd__dfxtp_1
*I *6376:CLK I *D sky130_fd_sc_hd__dfxtp_1
*I *6384:CLK I *D sky130_fd_sc_hd__dfxtp_1
*I *6346:CLK I *D sky130_fd_sc_hd__dfxtp_1
*I *6499:X O *D sky130_fd_sc_hd__clkbuf_8
*CAP
1 *6408:CLK 9.3866e-05
2 *6489:CLK 0.000106629
3 *6371:CLK 0.000281323
4 *6403:CLK 0.000386433
5 *6379:CLK 0
6 *6494:CLK 0
7 *6481:CLK 0.000487173
8 *6376:CLK 0.000154617
9 *6384:CLK 0.000109338
10 *6346:CLK 0.000332153
11 *6499:X 0
12 *482:106 0.000667756
13 *482:104 0.000478879
14 *482:93 0.000704583
15 *482:76 0.000661384
16 *482:42 0.000902682
17 *482:29 0.000553867
18 *482:18 0.000996572
19 *482:8 0.000896223
20 *482:4 0.000180257
21 *6346:CLK *552:10 0.000267354
22 *6371:CLK *5943:A0 4.01535e-05
23 *6371:CLK *5943:A3 0
24 *6371:CLK *513:10 0
25 *6403:CLK *5943:A0 0
26 *6403:CLK *6099:A0 4.05358e-05
27 *6481:CLK *6089:A0 4.82919e-05
28 *6481:CLK *6290:A0 0.000116158
29 *6481:CLK *518:12 0.000234674
30 *6481:CLK *735:192 0.000357983
31 *6489:CLK *5943:A1 0.000311294
32 *6489:CLK *5943:A2 0.000100729
33 *482:42 *724:124 0
34 *482:76 *735:117 0.000296081
35 *482:93 *5988:A0 1.16729e-05
36 *482:93 *5988:A1 2.75229e-05
37 *482:93 *6164:A1 7.54134e-05
38 *482:93 *622:12 8.82557e-05
39 *482:104 *5943:A1 0.000109931
40 *482:104 *5943:A2 9.27326e-05
41 *482:104 *5988:A1 0
42 *482:104 *505:6 5.30673e-05
43 *482:104 *622:12 3.25591e-05
44 *5945:A0 *482:93 0
45 *5950:S *6384:CLK 0.000115474
46 *5950:S *482:29 7.04021e-05
47 *5950:S *482:42 2.90068e-05
48 *5988:S1 *482:93 0.000154658
49 *5989:A0 *6481:CLK 1.60058e-05
50 *5989:A1 *482:76 9.27255e-06
51 *5989:A1 *482:93 0.000360601
52 *6007:A *6481:CLK 3.72916e-05
53 *6090:A *6376:CLK 4.80285e-05
54 *6090:A *6481:CLK 0.000202064
55 *6090:A *482:42 6.28765e-05
56 *6164:S *6403:CLK 8.8266e-05
57 *6306:S *6371:CLK 0.000493307
58 *6306:S *6403:CLK 0.000227543
59 *6318:S *482:104 0
60 *6346:D *6346:CLK 0.000112853
61 *6371:D *6371:CLK 0
62 *6376:D *6376:CLK 1.43717e-05
63 *6376:D *482:42 0
64 *6379:D *482:104 1.54049e-05
65 *6384:D *6384:CLK 5.20335e-05
66 *6384:D *482:29 3.68682e-05
67 *6403:D *6403:CLK 0.000143266
68 *6408:D *6408:CLK 9.53428e-06
69 *6408:D *482:8 0
70 *6408:D *482:76 0
71 *6481:D *6481:CLK 0.000200117
72 *6489:D *6489:CLK 5.16512e-05
73 *6494:D *482:93 0.000335745
74 *6499:A *482:18 0.000278889
75 *230:140 *482:76 4.99619e-05
76 *230:155 *482:76 0.000118046
77 *230:155 *482:93 1.31519e-05
78 *230:157 *482:18 4.82018e-05
79 *230:157 *482:29 7.45881e-05
80 *231:18 *6346:CLK 8.03844e-05
81 *231:18 *482:18 0
82 *231:18 *482:29 0
83 *470:52 *482:93 0.000115779
84 *470:52 *482:104 0.000149411
*RES
1 *6499:X *482:4 1.6 
2 *482:4 *482:8 1.155 
3 *482:8 *482:18 8.525 
4 *482:18 *6346:CLK 10.605 
5 *482:18 *482:29 4.185 
6 *482:29 *6384:CLK 6.12 
7 *482:29 *482:42 6.185 
8 *482:42 *6376:CLK 4.12 
9 *482:42 *6481:CLK 17.585 
10 *482:8 *482:76 10.66 
11 *482:76 *6494:CLK 1.6 
12 *482:76 *482:93 13.33 
13 *482:93 *6379:CLK 1.6 
14 *482:93 *482:104 7.815 
15 *482:104 *482:106 2 
16 *482:106 *6403:CLK 11.49 
17 *482:106 *6371:CLK 9.57 
18 *482:104 *6489:CLK 5.185 
19 *482:4 *6408:CLK 3.1 
*END

*D_NET *483 0.01002
*CONN
*I *6338:CLK I *D sky130_fd_sc_hd__dfxtp_1
*I *6349:CLK I *D sky130_fd_sc_hd__dfxtp_1
*I *6397:CLK I *D sky130_fd_sc_hd__dfxtp_1
*I *6391:CLK I *D sky130_fd_sc_hd__dfxtp_1
*I *6413:CLK I *D sky130_fd_sc_hd__dfxtp_1
*I *6380:CLK I *D sky130_fd_sc_hd__dfxtp_1
*I *6421:CLK I *D sky130_fd_sc_hd__dfxtp_1
*I *6374:CLK I *D sky130_fd_sc_hd__dfxtp_1
*I *6500:X O *D sky130_fd_sc_hd__clkbuf_8
*CAP
1 *6338:CLK 0.000320306
2 *6349:CLK 0
3 *6397:CLK 0
4 *6391:CLK 0.000225112
5 *6413:CLK 0.000296386
6 *6380:CLK 0.000140952
7 *6421:CLK 0.000191398
8 *6374:CLK 0.000394476
9 *6500:X 0
10 *483:69 0.000615747
11 *483:65 0.000452438
12 *483:63 0.000840682
13 *483:53 0.00108357
14 *483:12 0.000762553
15 *483:8 0.000483373
16 *483:4 0.000446514
17 *6338:CLK *6029:A0 0.000361378
18 *6374:CLK *5970:A3 4.70919e-05
19 *6374:CLK *6600:A 3.18973e-05
20 *6391:CLK *501:14 0.000386309
21 *6421:CLK *6085:A0 0
22 *483:8 *746:45 0
23 *483:53 *746:37 2.75145e-05
24 *483:53 *746:45 0
25 *483:53 *757:56 0
26 *483:63 *5958:A0 6.03272e-05
27 *483:63 *5958:A2 0.000114492
28 *483:63 *6193:A0 0
29 *483:63 *563:10 0.000248565
30 *483:63 *746:45 0
31 *483:65 *563:10 2.75229e-05
32 *5912:S *6413:CLK 1.68092e-05
33 *5958:S0 *483:63 2.66568e-05
34 *6029:S *483:63 0
35 *6082:A *6380:CLK 0
36 *6349:D *483:63 1.43717e-05
37 *6374:D *6374:CLK 0.000113663
38 *6391:D *6391:CLK 7.82691e-05
39 *6397:D *483:65 9.03376e-05
40 *6397:D *483:69 0
41 *6413:D *6413:CLK 2.75229e-05
42 *6501:A *483:53 2.32724e-05
43 *270:12 *6413:CLK 0.000544561
44 *270:12 *6421:CLK 0.000316806
45 *270:12 *483:69 0.00015212
46 *339:50 *483:53 5.51245e-05
47 *382:53 *6374:CLK 1.58398e-05
48 *382:53 *483:8 0.000305718
49 *382:53 *483:12 0.000164024
50 *382:53 *483:53 5.41776e-05
51 *479:178 *6413:CLK 0.0001342
52 *479:218 *6380:CLK 0
53 *479:228 *483:8 0.000205917
54 *479:228 *483:53 4.66108e-05
55 *479:238 *483:53 7.53504e-05
*RES
1 *6500:X *483:4 1.6 
2 *483:4 *483:8 5.295 
3 *483:8 *483:12 3.915 
4 *483:12 *6374:CLK 8.38 
5 *483:12 *6421:CLK 9.725 
6 *483:8 *6380:CLK 7.745 
7 *483:4 *483:53 7.505 
8 *483:53 *483:63 11.24 
9 *483:63 *483:65 5.625 
10 *483:65 *483:69 3.89 
11 *483:69 *6413:CLK 10.62 
12 *483:69 *6391:CLK 8.565 
13 *483:65 *6397:CLK 1.6 
14 *483:63 *6349:CLK 1.6 
15 *483:53 *6338:CLK 9.915 
*END

*D_NET *484 0.0146766
*CONN
*I *6356:CLK I *D sky130_fd_sc_hd__dfxtp_1
*I *6482:CLK I *D sky130_fd_sc_hd__dfxtp_1
*I *6364:CLK I *D sky130_fd_sc_hd__dfxtp_1
*I *6490:CLK I *D sky130_fd_sc_hd__dfxtp_1
*I *6340:CLK I *D sky130_fd_sc_hd__dfxtp_1
*I *6366:CLK I *D sky130_fd_sc_hd__dfxtp_1
*I *6358:CLK I *D sky130_fd_sc_hd__dfxtp_1
*I *6492:CLK I *D sky130_fd_sc_hd__dfxtp_1
*I *6372:CLK I *D sky130_fd_sc_hd__dfxtp_1
*I *6406:CLK I *D sky130_fd_sc_hd__dfxtp_1
*I *6501:X O *D sky130_fd_sc_hd__clkbuf_8
*CAP
1 *6356:CLK 0.000394453
2 *6482:CLK 0
3 *6364:CLK 0.000183302
4 *6490:CLK 0.000241314
5 *6340:CLK 0
6 *6366:CLK 0
7 *6358:CLK 0.00055504
8 *6492:CLK 0.000428863
9 *6372:CLK 0
10 *6406:CLK 0.000566654
11 *6501:X 0.000423983
12 *484:118 0.00073047
13 *484:96 0.000807251
14 *484:48 0.00103017
15 *484:44 0.000387346
16 *484:36 0.000723712
17 *484:34 0.00118306
18 *484:19 0.000919623
19 *484:6 0.00106322
20 *6356:CLK *6045:A1 0.000137459
21 *6358:CLK *5969:A3 2.51954e-05
22 *6358:CLK *548:8 0.000118387
23 *6358:CLK *768:16 0.0001113
24 *6358:CLK *768:18 0.000492006
25 *6358:CLK *768:20 4.38051e-05
26 *6364:CLK *5951:A1 0.000181376
27 *6364:CLK *6008:A0 6.02127e-05
28 *6364:CLK *6605:A 0
29 *6364:CLK *746:14 0
30 *6406:CLK *612:10 0.00012657
31 *6490:CLK *5951:A1 4.9968e-05
32 *6490:CLK *6008:A0 0.000106784
33 *6490:CLK *746:20 0
34 *6492:CLK *5970:A1 2.24519e-05
35 *6492:CLK *6105:A0 0
36 *6492:CLK *508:14 3.6943e-05
37 *6492:CLK *768:20 0.000183043
38 *6492:CLK *768:26 0.000139933
39 *484:6 *6156:A1 0.000142669
40 *484:6 *506:10 4.82863e-05
41 *484:19 *506:10 0
42 *484:19 *757:56 0
43 *484:34 *6576:A 0
44 *484:34 *506:10 0
45 *484:34 *746:14 0
46 *484:34 *746:16 0
47 *484:34 *746:20 0
48 *484:44 *6012:A1 4.00541e-06
49 *484:44 *524:8 0.000197881
50 *484:96 *5951:A0 8.49205e-05
51 *484:96 *5951:A1 3.78664e-05
52 *484:96 *5951:A2 0.000139311
53 *484:96 *6605:A 4.99619e-05
54 *5969:S0 *6358:CLK 0.000185405
55 *5969:S0 *6492:CLK 0.000485623
56 *5971:A0 *484:34 0
57 *5971:A0 *484:118 0
58 *6009:A *484:34 7.26551e-05
59 *6009:A *484:118 0
60 *6050:A *6356:CLK 0
61 *6064:A *6364:CLK 4.66108e-05
62 *6082:A *484:19 0.000139252
63 *6161:A *6406:CLK 0.000157548
64 *6340:D *484:34 9.50342e-06
65 *6340:D *484:96 1.86443e-05
66 *6340:D *484:118 4.4073e-05
67 *6364:D *6364:CLK 6.52181e-05
68 *6366:D *484:44 1.43717e-05
69 *6380:D *6406:CLK 1.43717e-05
70 *6380:D *484:34 7.53115e-05
71 *6406:D *6406:CLK 0.000112003
72 *6482:D *484:118 3.89528e-05
73 *6490:D *6490:CLK 1.43521e-05
74 *6492:D *6492:CLK 1.27027e-05
75 *6501:A *484:6 4.82863e-05
76 *230:91 *484:34 0
77 *232:118 *6490:CLK 0
78 *233:139 *6364:CLK 0.000174595
79 *298:52 *484:44 0.000256512
80 *298:52 *484:48 3.03775e-05
81 *298:52 *484:96 0.000191355
82 *460:66 *6356:CLK 0.000287353
83 *460:66 *6358:CLK 2.69443e-06
*RES
1 *6501:X *484:6 8.26 
2 *484:6 *6406:CLK 10.69 
3 *484:6 *484:19 3.635 
4 *484:19 *6372:CLK 3.6 
5 *484:19 *484:34 12.6 
6 *484:34 *484:36 2 
7 *484:36 *484:44 7.485 
8 *484:44 *484:48 2.795 
9 *484:48 *6492:CLK 12.45 
10 *484:48 *6358:CLK 14.58 
11 *484:44 *6366:CLK 1.6 
12 *484:36 *6340:CLK 1.6 
13 *484:36 *484:96 9.935 
14 *484:96 *6490:CLK 8.04 
15 *484:96 *6364:CLK 8.61 
16 *484:34 *484:118 5.97 
17 *484:118 *6482:CLK 3.6 
18 *484:118 *6356:CLK 11.715 
*END

*D_NET *485 0.0143401
*CONN
*I *6368:CLK I *D sky130_fd_sc_hd__dfxtp_1
*I *6402:CLK I *D sky130_fd_sc_hd__dfxtp_1
*I *6488:CLK I *D sky130_fd_sc_hd__dfxtp_1
*I *6378:CLK I *D sky130_fd_sc_hd__dfxtp_1
*I *6363:CLK I *D sky130_fd_sc_hd__dfxtp_1
*I *6355:CLK I *D sky130_fd_sc_hd__dfxtp_1
*I *6360:CLK I *D sky130_fd_sc_hd__dfxtp_1
*I *6486:CLK I *D sky130_fd_sc_hd__dfxtp_1
*I *6389:CLK I *D sky130_fd_sc_hd__dfxtp_1
*I *6344:CLK I *D sky130_fd_sc_hd__dfxtp_1
*I *6442:CLK I *D sky130_fd_sc_hd__dfxtp_1
*I *6339:CLK I *D sky130_fd_sc_hd__dfxtp_1
*I *6502:X O *D sky130_fd_sc_hd__clkbuf_8
*CAP
1 *6368:CLK 2.00398e-05
2 *6402:CLK 0.000579658
3 *6488:CLK 0.000578342
4 *6378:CLK 0
5 *6363:CLK 0.000135128
6 *6355:CLK 0.00012966
7 *6360:CLK 0
8 *6486:CLK 0
9 *6389:CLK 0.000351841
10 *6344:CLK 3.76639e-05
11 *6442:CLK 0.000164948
12 *6339:CLK 0.000142209
13 *6502:X 0.000232126
14 *485:118 0.000745276
15 *485:90 0.000464523
16 *485:88 0.000366669
17 *485:86 0.000820738
18 *485:30 0.000580944
19 *485:28 0.000371587
20 *485:26 0.000583811
21 *485:20 0.000498167
22 *485:16 0.000463382
23 *485:14 0.000480485
24 *485:10 0.000354523
25 *6339:CLK *6241:A0 0.000142015
26 *6355:CLK *5942:A2 4.99619e-05
27 *6363:CLK *5942:A0 0.000284182
28 *6368:CLK *5987:A0 5.05521e-05
29 *6389:CLK *6560:A 4.9253e-06
30 *6389:CLK *499:12 0.000105508
31 *6402:CLK *6097:A0 0.00026661
32 *6402:CLK *6152:A1 1.65432e-05
33 *6402:CLK *6527:A 8.8266e-05
34 *6402:CLK *724:188 1.12578e-05
35 *6442:CLK *6561:A 4.9253e-06
36 *6488:CLK *5932:A2 0.000362479
37 *6488:CLK *6306:A0 0.000238919
38 *485:10 *6053:A0 7.23602e-05
39 *485:14 *6053:A1 0.000100536
40 *485:14 *534:16 1.71013e-05
41 *485:20 *550:10 2.75229e-05
42 *485:30 *6241:A0 0.000141606
43 *485:30 *579:14 1.52945e-05
44 *485:86 *534:16 0.000158072
45 *485:118 *526:6 9.27495e-05
46 *5954:A1 *6339:CLK 0
47 *5954:A1 *485:30 0
48 *5959:A0 *485:30 2.53191e-06
49 *5963:A0 *485:10 9.51192e-05
50 *6017:A *6389:CLK 0
51 *6017:A *485:28 0
52 *6017:A *485:30 0
53 *6043:S *6368:CLK 5.05521e-05
54 *6043:S *485:90 0.000179731
55 *6043:S *485:118 8.17841e-05
56 *6044:A *6355:CLK 0.000162038
57 *6044:A *6363:CLK 4.82919e-05
58 *6044:A *485:90 9.50342e-06
59 *6054:A *485:16 9.87313e-05
60 *6054:A *485:86 7.90936e-05
61 *6061:S *485:90 9.24049e-05
62 *6098:A *6402:CLK 4.41363e-05
63 *6307:A *6488:CLK 1.33293e-05
64 *6344:D *485:28 5.39718e-05
65 *6355:D *6355:CLK 7.25155e-05
66 *6360:D *485:16 0.000220331
67 *6360:D *485:86 0.000149613
68 *6363:D *6363:CLK 7.22354e-05
69 *6378:D *6488:CLK 0.000126073
70 *6389:D *6389:CLK 0.000113663
71 *6442:D *6442:CLK 0.000239069
72 *6486:D *485:20 0.000240991
73 *16:5 *6389:CLK 0.000353462
74 *16:5 *485:28 0.000156155
75 *16:5 *485:30 0.000353839
76 *230:122 *485:10 0.000237249
77 *232:157 *485:10 0
78 *232:167 *6355:CLK 0.000100544
79 *232:167 *485:90 2.4997e-05
80 *233:181 *485:10 0
81 *233:181 *485:14 0
82 *237:169 *485:90 0
83 *298:77 *6389:CLK 0
84 *298:77 *485:30 0
85 *319:109 *485:10 0.000316806
86 *329:87 *485:90 8.34426e-05
87 *329:87 *485:118 0.000114753
*RES
1 *6502:X *485:10 9.96 
2 *485:10 *485:14 4.145 
3 *485:14 *485:16 3.21 
4 *485:16 *485:20 5.985 
5 *485:20 *485:26 4.535 
6 *485:26 *485:28 1.89 
7 *485:28 *485:30 6.48 
8 *485:30 *6339:CLK 6.285 
9 *485:30 *6442:CLK 6.81 
10 *485:28 *6344:CLK 4.05 
11 *485:26 *6389:CLK 10.995 
12 *485:20 *6486:CLK 1.6 
13 *485:16 *6360:CLK 1.6 
14 *485:14 *485:86 5.055 
15 *485:86 *485:88 2 
16 *485:88 *485:90 5.715 
17 *485:90 *6355:CLK 6.885 
18 *485:90 *6363:CLK 7.17 
19 *485:88 *485:118 6.23 
20 *485:118 *6378:CLK 1.6 
21 *485:118 *6488:CLK 11.65 
22 *485:86 *6402:CLK 10.69 
23 *485:10 *6368:CLK 4.395 
*END

*D_NET *486 0.0182429
*CONN
*I *6370:CLK I *D sky130_fd_sc_hd__dfxtp_1
*I *6381:CLK I *D sky130_fd_sc_hd__dfxtp_1
*I *6354:CLK I *D sky130_fd_sc_hd__dfxtp_1
*I *6357:CLK I *D sky130_fd_sc_hd__dfxtp_1
*I *6491:CLK I *D sky130_fd_sc_hd__dfxtp_1
*I *6405:CLK I *D sky130_fd_sc_hd__dfxtp_1
*I *6373:CLK I *D sky130_fd_sc_hd__dfxtp_1
*I *6365:CLK I *D sky130_fd_sc_hd__dfxtp_1
*I *6483:CLK I *D sky130_fd_sc_hd__dfxtp_1
*I *6341:CLK I *D sky130_fd_sc_hd__dfxtp_1
*I *6404:CLK I *D sky130_fd_sc_hd__dfxtp_1
*I *6480:CLK I *D sky130_fd_sc_hd__dfxtp_1
*I *6362:CLK I *D sky130_fd_sc_hd__dfxtp_1
*I *6503:X O *D sky130_fd_sc_hd__clkbuf_8
*CAP
1 *6370:CLK 0.000510892
2 *6381:CLK 9.2011e-05
3 *6354:CLK 2.08101e-05
4 *6357:CLK 0
5 *6491:CLK 0
6 *6405:CLK 0.000238841
7 *6373:CLK 0.000347565
8 *6365:CLK 2.08101e-05
9 *6483:CLK 0
10 *6341:CLK 4.18288e-05
11 *6404:CLK 0.000322995
12 *6480:CLK 0.000482948
13 *6362:CLK 0
14 *6503:X 0
15 *486:131 0.00040948
16 *486:106 0.000976965
17 *486:93 0.00117109
18 *486:83 0.00115522
19 *486:72 0.000854018
20 *486:57 0.000729183
21 *486:42 0.00088522
22 *486:38 0.000563615
23 *486:34 0.000601461
24 *486:14 0.000516906
25 *486:10 0.000502234
26 *486:4 0.000747333
27 *6341:CLK *6310:A0 4.82919e-05
28 *6404:CLK *5952:A0 0.000220383
29 *6404:CLK *6530:A 9.53428e-06
30 *6404:CLK *514:8 5.83121e-06
31 *6405:CLK *5961:A0 4.41363e-05
32 *6405:CLK *6083:A0 0.000237243
33 *6405:CLK *6083:A1 9.54399e-05
34 *6405:CLK *6531:A 8.5225e-05
35 *6480:CLK *6004:A1 3.77036e-05
36 *6480:CLK *6288:A0 0.000196376
37 *6480:CLK *724:143 0.000308713
38 *486:10 *5931:A2 0.000213622
39 *486:34 *5931:A2 0.000162325
40 *486:34 *528:12 0.000118527
41 *486:72 *6591:A 0
42 *486:72 *522:6 5.83121e-06
43 *486:93 *5960:A0 7.23602e-05
44 *486:93 *5960:A1 1.85905e-05
45 *486:93 *5960:A2 6.90889e-06
46 *486:93 *5960:A3 0.000132339
47 *486:106 *6065:A0 9.57888e-05
48 *486:106 *6556:A 6.5265e-05
49 *5935:A1 *6370:CLK 4.47125e-05
50 *5937:A0 *6370:CLK 8.87196e-05
51 *5962:A0 *486:106 0
52 *5962:A1 *6373:CLK 0
53 *5962:A1 *6405:CLK 0
54 *5962:A1 *486:131 0.000161529
55 *5962:S *6373:CLK 0.000281796
56 *6005:A *6480:CLK 0.000157589
57 *6048:A *486:83 4.66108e-05
58 *6048:A *486:93 2.92496e-05
59 *6066:A *486:106 0
60 *6084:A *6373:CLK 7.16268e-05
61 *6157:A *6404:CLK 0.000184703
62 *6288:S *6480:CLK 1.61831e-05
63 *6289:A *6480:CLK 0.000124007
64 *6312:S *6341:CLK 0.000123225
65 *6354:D *486:38 0.000126078
66 *6357:D *486:83 6.29663e-05
67 *6362:D *6370:CLK 2.77283e-05
68 *6362:D *486:10 2.77183e-05
69 *6365:D *486:106 7.82691e-05
70 *6404:D *6404:CLK 0.00035077
71 *6405:D *6405:CLK 0.000170169
72 *6480:D *6480:CLK 0.000353334
73 *6483:D *486:72 0
74 *6483:D *486:83 1.43717e-05
75 *6491:D *6405:CLK 1.52184e-05
76 *6491:D *486:106 0
77 *6491:D *486:131 8.49205e-05
78 *16:5 *486:57 0
79 *16:5 *486:72 0
80 *230:111 *6404:CLK 0
81 *230:111 *486:57 0
82 *232:141 *486:93 8.40213e-05
83 *232:143 *486:34 2.23407e-05
84 *232:151 *486:34 0.000159781
85 *233:175 *486:34 0
86 *233:181 *486:10 0
87 *233:181 *486:34 0
88 *233:247 *6373:CLK 6.32859e-05
89 *237:169 *6370:CLK 0.000163204
90 *298:67 *486:57 7.7615e-05
91 *298:67 *486:72 1.7396e-05
92 *298:73 *6404:CLK 0
93 *298:73 *486:57 7.39816e-05
94 *319:105 *486:34 0.000354213
95 *319:105 *486:93 0.000136877
96 *319:109 *486:10 0.000231564
97 *319:109 *486:34 0.000324278
98 *351:101 *6381:CLK 0.000206699
99 *351:101 *486:38 0.000109018
100 *351:101 *486:42 0.000169765
101 *351:111 *6373:CLK 3.55414e-05
*RES
1 *6503:X *486:4 1.6 
2 *486:4 *486:10 7.175 
3 *486:10 *486:14 2.45 
4 *486:14 *6362:CLK 1.6 
5 *486:14 *6480:CLK 12.085 
6 *486:10 *486:34 10.01 
7 *486:34 *486:38 4.86 
8 *486:38 *486:42 6.59 
9 *486:42 *6404:CLK 11.64 
10 *486:42 *486:57 5.715 
11 *486:57 *6341:CLK 4.74 
12 *486:57 *486:72 8.015 
13 *486:72 *6483:CLK 1.6 
14 *486:72 *486:83 7.125 
15 *486:83 *486:93 13.345 
16 *486:93 *6365:CLK 1.96 
17 *486:93 *486:106 10.31 
18 *486:106 *6373:CLK 11.49 
19 *486:106 *486:131 5.21 
20 *486:131 *6405:CLK 11.405 
21 *486:131 *6491:CLK 1.6 
22 *486:83 *6357:CLK 1.6 
23 *486:38 *6354:CLK 1.96 
24 *486:34 *6381:CLK 3.775 
25 *486:4 *6370:CLK 9.655 
*END

*D_NET *487 0.0132188
*CONN
*I *6436:CLK I *D sky130_fd_sc_hd__dfrtp_1
*I *6464:CLK I *D sky130_fd_sc_hd__dfrtp_1
*I *6437:CLK I *D sky130_fd_sc_hd__dfrtp_1
*I *6465:CLK I *D sky130_fd_sc_hd__dfrtp_1
*I *6460:CLK I *D sky130_fd_sc_hd__dfrtp_1
*I *6459:CLK I *D sky130_fd_sc_hd__dfrtp_1
*I *6385:CLK I *D sky130_fd_sc_hd__dfxtp_1
*I *6428:CLK I *D sky130_fd_sc_hd__dfxtp_1
*I *6412:CLK I *D sky130_fd_sc_hd__dfxtp_1
*I *6504:X O *D sky130_fd_sc_hd__clkbuf_8
*CAP
1 *6436:CLK 0
2 *6464:CLK 2.08101e-05
3 *6437:CLK 0.000395844
4 *6465:CLK 7.32143e-05
5 *6460:CLK 0.000624866
6 *6459:CLK 0.000230673
7 *6385:CLK 0.000685027
8 *6428:CLK 0.000115313
9 *6412:CLK 0.000562315
10 *6504:X 0.000155648
11 *487:73 0.000930423
12 *487:71 0.000234965
13 *487:69 0.000774495
14 *487:65 0.00114973
15 *487:53 0.000979409
16 *487:40 0.00125367
17 *487:25 0.000664069
18 *487:10 0.000840345
19 *6385:CLK *6449:RESET_B 2.91561e-06
20 *6385:CLK *6454:D 0.000115779
21 *6412:CLK *746:117 0
22 *6428:CLK *6173:A0 4.9253e-06
23 *6428:CLK *6173:A1 0.0001282
24 *6459:CLK *5893:B 0.000125541
25 *6459:CLK *6459:D 6.97118e-05
26 *6460:CLK *6460:D 4.44849e-05
27 *6460:CLK *6460:RESET_B 0.000118672
28 *487:10 *6209:A0 0
29 *487:10 *709:185 0
30 *487:25 *6173:A1 0
31 *487:25 *6209:A0 0
32 *487:25 *602:10 0
33 *487:25 *680:14 0
34 *487:40 *6449:D 0
35 *487:40 *602:10 0
36 *487:40 *680:14 0
37 *487:53 *6449:D 0
38 *487:65 *5888:A 0
39 *487:65 *6436:RESET_B 0.000273872
40 *487:65 *6449:CLK 1.19928e-05
41 *487:65 *6449:RESET_B 4.66108e-05
42 *487:65 *6464:D 0.000111293
43 *487:65 *6464:RESET_B 7.81924e-05
44 *487:65 *712:33 0.000126471
45 *487:69 *5893:A 0.000770938
46 *487:69 *6450:D 0.000352161
47 *487:71 *5893:B 0.0001032
48 *487:73 *5893:B 6.36578e-05
49 *5898:A *6460:CLK 5.58436e-05
50 *5898:B *6465:CLK 8.88799e-05
51 *5898:C *6437:CLK 2.56536e-05
52 *5898:C *487:71 7.28789e-05
53 *6210:A *6412:CLK 3.70488e-05
54 *6260:A *6437:CLK 3.18219e-05
55 *6260:A *487:71 1.82476e-05
56 *6265:A0 *6459:CLK 0
57 *6265:A0 *487:73 0
58 *6412:D *6412:CLK 1.43717e-05
59 *6428:D *6428:CLK 5.20335e-05
60 *6428:D *487:25 3.39064e-05
61 *6437:D *6437:CLK 0.0001048
62 *210:8 *6465:CLK 2.75229e-05
63 *391:22 *487:40 0.000186333
64 *391:22 *487:53 0
65 *391:30 *487:10 0
66 *391:30 *487:25 0
67 *411:30 *487:10 6.55406e-05
68 *479:51 *487:10 4.99619e-05
69 *479:61 *487:40 0
70 *479:61 *487:53 0
71 *479:61 *487:65 0.000114492
*RES
1 *6504:X *487:10 6.195 
2 *487:10 *6412:CLK 11.325 
3 *487:10 *487:25 1.89 
4 *487:25 *6428:CLK 6.12 
5 *487:25 *487:40 7.47 
6 *487:40 *6385:CLK 14.055 
7 *487:40 *487:53 4.145 
8 *487:53 *487:65 16.3 
9 *487:65 *487:69 9.695 
10 *487:69 *487:71 2.655 
11 *487:71 *487:73 1.38 
12 *487:73 *6459:CLK 8.085 
13 *487:73 *6460:CLK 10.875 
14 *487:71 *6465:CLK 5.085 
15 *487:69 *6437:CLK 8.895 
16 *487:65 *6464:CLK 1.96 
17 *487:53 *6436:CLK 1.6 
*END

*D_NET *488 0.0129136
*CONN
*I *6393:CLK I *D sky130_fd_sc_hd__dfxtp_1
*I *6350:CLK I *D sky130_fd_sc_hd__dfxtp_1
*I *6422:CLK I *D sky130_fd_sc_hd__dfxtp_1
*I *6398:CLK I *D sky130_fd_sc_hd__dfxtp_1
*I *6416:CLK I *D sky130_fd_sc_hd__dfxtp_1
*I *6432:CLK I *D sky130_fd_sc_hd__dfxtp_1
*I *6443:CLK I *D sky130_fd_sc_hd__dfxtp_1
*I *6326:CLK I *D sky130_fd_sc_hd__dfxtp_1
*I *6430:CLK I *D sky130_fd_sc_hd__dfxtp_1
*I *6414:CLK I *D sky130_fd_sc_hd__dfxtp_1
*I *6446:CLK I *D sky130_fd_sc_hd__dfxtp_1
*I *6505:X O *D sky130_fd_sc_hd__clkbuf_8
*CAP
1 *6393:CLK 0.000273101
2 *6350:CLK 0.000208562
3 *6422:CLK 7.05463e-05
4 *6398:CLK 0.00011577
5 *6416:CLK 0.000118178
6 *6432:CLK 2.83889e-05
7 *6443:CLK 0.000321127
8 *6326:CLK 0
9 *6430:CLK 0.000408169
10 *6414:CLK 0
11 *6446:CLK 1.3651e-05
12 *6505:X 0
13 *488:82 0.000493292
14 *488:78 0.000669855
15 *488:52 0.00115659
16 *488:39 0.000721084
17 *488:24 0.000696653
18 *488:20 0.000789051
19 *488:14 0.000683781
20 *488:8 0.000584757
21 *488:4 0.00040691
22 *6393:CLK *5994:A0 0.000106525
23 *6393:CLK *503:6 3.79854e-05
24 *6393:CLK *636:107 5.91042e-05
25 *6398:CLK *5904:A 1.70935e-05
26 *6398:CLK *768:93 0
27 *6416:CLK *6243:A1 2.42236e-05
28 *6416:CLK *580:12 0
29 *6430:CLK *5966:A2 4.80285e-05
30 *6443:CLK *588:10 3.05373e-05
31 *6446:CLK *5993:A0 1.83756e-05
32 *488:8 *5904:A 0
33 *488:14 *5904:A 0
34 *488:14 *6142:A0 4.94326e-05
35 *488:14 *6142:A1 5.98004e-06
36 *488:14 *768:85 1.88904e-05
37 *488:14 *768:93 8.71796e-06
38 *488:20 *768:93 0.000134482
39 *488:24 *5993:A0 0.000181994
40 *488:24 *6554:A 3.00381e-05
41 *488:39 *6213:A0 8.53113e-06
42 *488:39 *6213:A1 3.00381e-05
43 *488:39 *6249:A1 0
44 *488:52 *6213:A1 9.03442e-05
45 *488:52 *6638:A 2.86623e-05
46 *488:78 *5966:A2 0.000624636
47 *488:78 *588:10 1.33293e-05
48 *488:82 *588:10 0
49 *5915:A *6443:CLK 4.76239e-05
50 *5995:A0 *6446:CLK 2.16833e-05
51 *5995:A0 *488:24 0.000200615
52 *6032:A *6350:CLK 4.99619e-05
53 *6038:A *6350:CLK 1.08758e-05
54 *6131:A *6393:CLK 0.000529954
55 *6196:A *488:14 3.86529e-05
56 *6213:S *488:39 0
57 *6214:A *6430:CLK 0
58 *6243:S *6416:CLK 0.00016163
59 *6244:A *6416:CLK 0.000117825
60 *6326:D *488:78 0.00020525
61 *6353:D *488:8 5.13155e-05
62 *6393:D *6393:CLK 0.000669397
63 *6398:D *6398:CLK 4.82919e-05
64 *6414:D *488:39 7.89767e-05
65 *6414:D *488:52 7.36892e-05
66 *6422:D *6422:CLK 0.000160641
67 *6430:D *6430:CLK 0.000116508
68 *6432:D *488:82 0
69 *6443:D *488:78 0.000152314
70 *6446:D *488:24 1.43717e-05
71 *216:44 *6398:CLK 2.75229e-05
72 *216:60 *6416:CLK 7.96827e-05
73 *216:60 *488:78 0.000123225
74 *216:60 *488:82 1.0183e-05
75 *225:160 *488:14 4.06309e-05
76 *225:160 *488:20 0.000121696
77 *239:168 *6350:CLK 0.000160418
78 *372:74 *488:8 7.29318e-05
79 *372:74 *488:14 2.30957e-05
80 *428:75 *488:39 0.000178214
*RES
1 *6505:X *488:4 1.6 
2 *488:4 *488:8 4.4 
3 *488:8 *488:14 4.23 
4 *488:14 *488:20 8.54 
5 *488:20 *488:24 6.33 
6 *488:24 *6446:CLK 2.05 
7 *488:24 *488:39 10.93 
8 *488:39 *6414:CLK 1.6 
9 *488:39 *488:52 9.79 
10 *488:52 *6430:CLK 8.395 
11 *488:52 *6326:CLK 1.6 
12 *488:52 *488:78 11.885 
13 *488:78 *488:82 4.4 
14 *488:82 *6443:CLK 11.255 
15 *488:82 *6432:CLK 2.05 
16 *488:78 *6416:CLK 7.275 
17 *488:20 *6398:CLK 7.685 
18 *488:14 *6422:CLK 5.085 
19 *488:8 *6350:CLK 7.425 
20 *488:4 *6393:CLK 10.69 
*END

*D_NET *489 0.0104108
*CONN
*I *6327:CLK I *D sky130_fd_sc_hd__dfxtp_1
*I *6431:CLK I *D sky130_fd_sc_hd__dfxtp_1
*I *6424:CLK I *D sky130_fd_sc_hd__dfxtp_1
*I *6352:CLK I *D sky130_fd_sc_hd__dfxtp_1
*I *6495:CLK I *D sky130_fd_sc_hd__dfxtp_1
*I *6377:CLK I *D sky130_fd_sc_hd__dfxtp_1
*I *6409:CLK I *D sky130_fd_sc_hd__dfxtp_1
*I *6400:CLK I *D sky130_fd_sc_hd__dfxtp_1
*I *6353:CLK I *D sky130_fd_sc_hd__dfxtp_1
*I *6506:X O *D sky130_fd_sc_hd__clkbuf_8
*CAP
1 *6327:CLK 0.000243266
2 *6431:CLK 1.86999e-05
3 *6424:CLK 0
4 *6352:CLK 0.000138433
5 *6495:CLK 0.000159135
6 *6377:CLK 0.000344572
7 *6409:CLK 0
8 *6400:CLK 0.000141825
9 *6353:CLK 0.000223002
10 *6506:X 0
11 *489:95 0.000444972
12 *489:75 0.00038172
13 *489:40 0.000657601
14 *489:36 0.00039718
15 *489:34 0.000434002
16 *489:21 0.000419861
17 *489:4 0.000250043
18 *6327:CLK *6215:A1 0.000419392
19 *6353:CLK *5904:A 0
20 *6353:CLK *5994:A1 8.46654e-05
21 *6377:CLK *5997:A0 8.23457e-05
22 *6377:CLK *6239:A0 3.86607e-05
23 *6377:CLK *615:10 0.00026617
24 *6377:CLK *746:99 0.000278427
25 *6431:CLK *6215:A0 2.42043e-05
26 *6495:CLK *5997:A3 6.934e-05
27 *6495:CLK *6166:A0 7.4027e-05
28 *489:34 *623:10 0.000187766
29 *489:40 *615:10 0.000131973
30 *489:40 *746:99 0.000574279
31 *489:75 *615:10 5.83121e-06
32 *489:75 *746:99 0.00016128
33 *5981:S *6352:CLK 0.000161419
34 *6092:A *6377:CLK 6.28843e-05
35 *6111:S *6377:CLK 0.000175066
36 *6112:A *6377:CLK 7.33465e-05
37 *6130:S *6377:CLK 7.18481e-05
38 *6167:A *6495:CLK 3.00381e-05
39 *6180:A *6327:CLK 0.000139238
40 *6353:D *6353:CLK 0.000166946
41 *6409:D *489:40 0.000126078
42 *6431:D *6431:CLK 4.82919e-05
43 *6431:D *489:95 9.14049e-05
44 *6495:D *6495:CLK 0
45 *225:160 *6327:CLK 2.25161e-05
46 *225:160 *489:34 0.000202893
47 *225:160 *489:95 0.000150662
48 *225:164 *6327:CLK 4.85494e-05
49 *232:21 *6353:CLK 1.1392e-05
50 *232:21 *6400:CLK 0.000114026
51 *232:21 *489:21 7.68414e-06
52 *233:31 *6353:CLK 0.000134209
53 *233:45 *6352:CLK 0
54 *309:16 *6327:CLK 0.000195932
55 *309:16 *6353:CLK 0.000224588
56 *309:16 *489:34 0.00071211
57 *309:16 *489:95 0.000474943
58 *391:122 *6327:CLK 0.000177136
59 *411:92 *6431:CLK 8.65961e-05
60 *428:52 *6377:CLK 0
61 *428:75 *6377:CLK 4.82863e-05
*RES
1 *6506:X *489:4 1.6 
2 *489:4 *6353:CLK 11.57 
3 *489:4 *489:21 0.45 
4 *489:21 *6400:CLK 4.48 
5 *489:21 *489:34 10.265 
6 *489:34 *489:36 2 
7 *489:36 *489:40 5.64 
8 *489:40 *6409:CLK 1.6 
9 *489:40 *6377:CLK 15.47 
10 *489:40 *6495:CLK 8.195 
11 *489:36 *489:75 4.515 
12 *489:75 *6352:CLK 8.285 
13 *489:75 *6424:CLK 1.6 
14 *489:34 *489:95 5.715 
15 *489:95 *6431:CLK 4.395 
16 *489:95 *6327:CLK 10.935 
*END

*D_NET *490 0.00996412
*CONN
*I *6435:CLK I *D sky130_fd_sc_hd__dfrtp_1
*I *6463:CLK I *D sky130_fd_sc_hd__dfrtp_1
*I *6466:CLK I *D sky130_fd_sc_hd__dfrtp_1
*I *6461:CLK I *D sky130_fd_sc_hd__dfrtp_1
*I *6438:CLK I *D sky130_fd_sc_hd__dfrtp_1
*I *6458:CLK I *D sky130_fd_sc_hd__dfrtp_1
*I *6507:X O *D sky130_fd_sc_hd__clkbuf_8
*CAP
1 *6435:CLK 0.000262656
2 *6463:CLK 0
3 *6466:CLK 9.14981e-05
4 *6461:CLK 0.000641279
5 *6438:CLK 8.59791e-05
6 *6458:CLK 0.000281358
7 *6507:X 0.000755707
8 *490:50 0.00115446
9 *490:35 0.000650467
10 *490:20 0.000861509
11 *490:12 0.000840503
12 *490:6 0.00142153
13 *6435:CLK *6435:RESET_B 5.04275e-05
14 *6435:CLK *6448:D 0.000386004
15 *6435:CLK *6557:A 5.4155e-06
16 *6458:CLK *6458:D 3.87313e-05
17 *6458:CLK *712:33 1.94251e-05
18 *6458:CLK *796:6 9.53428e-06
19 *6461:CLK *5895:A 0
20 *6461:CLK *6566:A 8.35068e-05
21 *6466:CLK *6466:D 2.75145e-05
22 *490:6 *6448:D 2.10134e-05
23 *490:6 *6557:A 5.30673e-05
24 *490:12 *710:10 0
25 *490:12 *710:12 0
26 *490:20 *6458:RESET_B 0.000269719
27 *490:20 *6463:RESET_B 9.07793e-05
28 *490:20 *712:33 3.10601e-05
29 *490:35 *6265:A1 0
30 *5897:A *490:35 7.06865e-05
31 *5897:B *490:35 0.000405104
32 *5898:C *490:50 0.000187996
33 *6260:A *490:50 0
34 *6261:S *6458:CLK 5.83121e-06
35 *6261:S *490:20 4.41506e-05
36 *6261:S *490:35 4.40006e-05
37 *6265:A0 *6461:CLK 0.000139933
38 *6265:A0 *490:35 0.000315139
39 *6286:A *490:6 2.11084e-05
40 *6435:D *6435:CLK 6.80075e-05
41 *6479:D *490:6 5.73739e-05
42 *6507:A *490:6 0.000312964
43 *420:39 *490:6 0.000158689
44 *420:51 *490:12 0
*RES
1 *6507:X *490:6 14.125 
2 *490:6 *490:12 9.715 
3 *490:12 *490:20 7.395 
4 *490:20 *6458:CLK 5.08 
5 *490:20 *490:35 9.46 
6 *490:35 *6438:CLK 2.74 
7 *490:35 *490:50 11.05 
8 *490:50 *6461:CLK 14.27 
9 *490:50 *6466:CLK 3.085 
10 *490:12 *6463:CLK 1.6 
11 *490:6 *6435:CLK 8.185 
*END

*D_NET *491 0.0100648
*CONN
*I *6478:CLK I *D sky130_fd_sc_hd__dfrtp_4
*I *6476:CLK I *D sky130_fd_sc_hd__dfrtp_1
*I *6487:CLK I *D sky130_fd_sc_hd__dfxtp_1
*I *6434:CLK I *D sky130_fd_sc_hd__dfrtp_1
*I *6457:CLK I *D sky130_fd_sc_hd__dfrtp_1
*I *6462:CLK I *D sky130_fd_sc_hd__dfrtp_1
*I *6479:CLK I *D sky130_fd_sc_hd__dfrtp_4
*I *6477:CLK I *D sky130_fd_sc_hd__dfrtp_4
*I *6508:X O *D sky130_fd_sc_hd__clkbuf_8
*CAP
1 *6478:CLK 0
2 *6476:CLK 0.000119942
3 *6487:CLK 0.00053889
4 *6434:CLK 0
5 *6457:CLK 0.000244138
6 *6462:CLK 0.000257355
7 *6479:CLK 0.00064117
8 *6477:CLK 0
9 *6508:X 0.00025339
10 *491:81 0.000746532
11 *491:52 0.000620297
12 *491:39 0.00079372
13 *491:35 0.000765095
14 *491:22 0.000916483
15 *491:20 0.000573436
16 *491:12 0.000553991
17 *6457:CLK *6457:D 7.27003e-05
18 *6457:CLK *6457:RESET_B 0
19 *6457:CLK *710:8 0
20 *6462:CLK *6479:RESET_B 0.000658594
21 *6462:CLK *647:16 9.13949e-06
22 *6476:CLK *810:12 9.70988e-05
23 *6476:CLK *810:75 1.83756e-05
24 *6479:CLK *710:8 0
25 *6479:CLK *710:10 0
26 *491:20 *710:185 3.18219e-05
27 *491:20 *810:12 0
28 *491:20 *810:14 0
29 *491:22 *6477:RESET_B 0.000170014
30 *491:22 *810:12 4.61932e-05
31 *491:35 *5885:B 8.65905e-05
32 *491:35 *6434:RESET_B 4.70477e-05
33 *491:35 *6477:RESET_B 8.74498e-05
34 *491:35 *6558:A 4.82919e-05
35 *491:35 *710:149 0.000404839
36 *491:52 *710:8 0
37 *491:81 *810:12 7.94673e-05
38 *5879:A *491:20 0.000163204
39 *5897:C *6479:CLK 0.00052404
40 *6222:A1 *491:20 2.05056e-05
41 *6279:A1 *491:20 0.000180675
42 *6283:A *491:12 0
43 *6303:A *6487:CLK 0
44 *6434:D *6479:CLK 0
45 *6487:D *6487:CLK 0
46 *192:12 *491:12 0
47 *192:12 *491:20 9.50342e-06
48 *420:39 *491:12 8.65905e-05
49 *420:85 *491:12 0.000198204
*RES
1 *6508:X *491:12 10.925 
2 *491:12 *491:20 10.015 
3 *491:20 *491:22 3.9 
4 *491:22 *6477:CLK 1.6 
5 *491:22 *491:35 14.04 
6 *491:35 *491:39 2.45 
7 *491:39 *6479:CLK 15.45 
8 *491:39 *491:52 1.89 
9 *491:52 *6462:CLK 9.93 
10 *491:52 *6457:CLK 7.485 
11 *491:35 *6434:CLK 1.6 
12 *491:20 *491:81 1.83 
13 *491:81 *6487:CLK 14.405 
14 *491:81 *6476:CLK 4.12 
15 *491:12 *6478:CLK 1.6 
*END

*D_NET *492 0.00780627
*CONN
*I *6351:CLK I *D sky130_fd_sc_hd__dfxtp_1
*I *6423:CLK I *D sky130_fd_sc_hd__dfxtp_1
*I *6399:CLK I *D sky130_fd_sc_hd__dfxtp_1
*I *6415:CLK I *D sky130_fd_sc_hd__dfxtp_1
*I *6407:CLK I *D sky130_fd_sc_hd__dfxtp_1
*I *6493:CLK I *D sky130_fd_sc_hd__dfxtp_1
*I *6375:CLK I *D sky130_fd_sc_hd__dfxtp_1
*I *6383:CLK I *D sky130_fd_sc_hd__dfxtp_1
*I *6509:X O *D sky130_fd_sc_hd__clkbuf_8
*CAP
1 *6351:CLK 0.000356001
2 *6423:CLK 0
3 *6399:CLK 5.10773e-05
4 *6415:CLK 0.000502309
5 *6407:CLK 2.08101e-05
6 *6493:CLK 0.000193182
7 *6375:CLK 0
8 *6383:CLK 0.000208457
9 *6509:X 0
10 *492:90 0.000356001
11 *492:68 0.0010393
12 *492:64 0.000753134
13 *492:49 0.000347546
14 *492:16 0.00054808
15 *492:8 0.000857243
16 *492:4 0.000383951
17 *6351:CLK *573:8 3.00381e-05
18 *6493:CLK *5979:A1 0.000146353
19 *6493:CLK *493:10 0
20 *492:8 *5979:A1 1.52184e-05
21 *492:8 *509:12 0
22 *492:16 *5979:A0 2.2381e-05
23 *492:16 *5979:A1 4.82863e-05
24 *492:16 *517:6 0.000160635
25 *6058:A1 *492:68 0
26 *6087:S *492:8 0
27 *6087:S *492:64 0
28 *6088:A *492:8 0
29 *6088:A *492:16 0.000235366
30 *6151:A2 *6415:CLK 0.000116158
31 *6305:A1 *6415:CLK 2.66765e-05
32 *6375:D *492:16 0.000109424
33 *6383:D *6383:CLK 0.000177033
34 *6407:D *492:64 9.71067e-05
35 *6423:D *6351:CLK 0.000164377
36 *6493:D *6493:CLK 3.59997e-05
37 *6509:A *492:8 0
38 *190:109 *6415:CLK 0
39 *190:120 *6415:CLK 4.82919e-05
40 *190:120 *492:68 0
41 *190:131 *492:68 0
42 *190:144 *492:68 0
43 *215:10 *6415:CLK 4.18603e-06
44 *215:109 *6415:CLK 7.66727e-05
45 *215:118 *6415:CLK 6.05917e-05
46 *215:133 *6415:CLK 8.09325e-05
47 *232:278 *492:8 0
48 *232:289 *6493:CLK 0
49 *309:16 *6415:CLK 0
50 *309:16 *492:68 0.000219593
51 *319:12 *6383:CLK 0
52 *339:31 *492:64 0
53 *339:31 *492:68 0
54 *351:31 *492:8 0
55 *372:16 *6399:CLK 0.000112349
56 *372:16 *6415:CLK 0.000201508
57 *470:100 *492:68 0
*RES
1 *6509:X *492:4 1.6 
2 *492:4 *492:8 6.695 
3 *492:8 *492:16 9.125 
4 *492:16 *6383:CLK 9.185 
5 *492:16 *6375:CLK 1.6 
6 *492:8 *6493:CLK 7.53 
7 *492:4 *492:49 0.795 
8 *492:49 *6407:CLK 1.96 
9 *492:49 *492:64 6.83 
10 *492:64 *492:68 10.265 
11 *492:68 *6415:CLK 15.44 
12 *492:68 *6399:CLK 2.74 
13 *492:64 *492:90 2 
14 *492:90 *6423:CLK 1.6 
15 *492:90 *6351:CLK 7.225 
*END

*D_NET *493 0.0136951
*CONN
*I *6485:CLK I *D sky130_fd_sc_hd__dfxtp_1
*I *6484:CLK I *D sky130_fd_sc_hd__dfxtp_1
*I *6342:CLK I *D sky130_fd_sc_hd__dfxtp_1
*I *6367:CLK I *D sky130_fd_sc_hd__dfxtp_1
*I *6382:CLK I *D sky130_fd_sc_hd__dfxtp_1
*I *6359:CLK I *D sky130_fd_sc_hd__dfxtp_1
*I *6343:CLK I *D sky130_fd_sc_hd__dfxtp_1
*I *6369:CLK I *D sky130_fd_sc_hd__dfxtp_1
*I *6345:CLK I *D sky130_fd_sc_hd__dfxtp_1
*I *6361:CLK I *D sky130_fd_sc_hd__dfxtp_1
*I *6510:X O *D sky130_fd_sc_hd__clkbuf_8
*CAP
1 *6485:CLK 0.000448046
2 *6484:CLK 0.000132924
3 *6342:CLK 0
4 *6367:CLK 0.000240265
5 *6382:CLK 0.000255561
6 *6359:CLK 0
7 *6343:CLK 0
8 *6369:CLK 1.51124e-05
9 *6345:CLK 0.000912448
10 *6361:CLK 0.000398749
11 *6510:X 0.000780069
12 *493:73 0.000573514
13 *493:71 0.000298092
14 *493:69 0.00069817
15 *493:60 0.000474789
16 *493:56 0.000827289
17 *493:27 0.00107843
18 *493:16 0.000578865
19 *493:14 0.000236232
20 *493:10 0.00123635
21 *6345:CLK *5996:A1 9.59868e-05
22 *6345:CLK *5996:A2 0.000166666
23 *6361:CLK *535:8 5.05437e-05
24 *6369:CLK *5996:A0 1.83756e-05
25 *6484:CLK *6622:A 0
26 *493:10 *5979:A1 0
27 *493:10 *6555:A 0.000116853
28 *493:10 *509:12 0.000186546
29 *493:27 *5996:A1 0.000164995
30 *493:27 *6055:A0 4.49498e-05
31 *493:27 *6583:A 2.86623e-05
32 *493:69 *5978:A1 0.000109377
33 *493:71 *6616:A 0.00016163
34 *493:71 *6622:A 0
35 *493:71 *779:33 0
36 *493:73 *6616:A 2.30797e-05
37 *493:73 *525:10 0.000117832
38 *493:73 *779:33 0
39 *5980:A0 *6382:CLK 0.0005422
40 *5980:A0 *493:73 0.000108329
41 *5996:S1 *6345:CLK 4.9253e-06
42 *6013:A *493:71 0
43 *6014:S *493:10 0
44 *6014:S *493:56 0
45 *6019:A *6345:CLK 5.58436e-05
46 *6070:A *6367:CLK 0.000106833
47 *6074:A *6345:CLK 0.000114492
48 *6074:A *493:27 0.000139245
49 *6106:A *6382:CLK 0
50 *6299:A *6485:CLK 0
51 *6299:A *493:60 0.000278117
52 *6343:D *493:14 9.03376e-05
53 *6345:D *6345:CLK 6.99173e-05
54 *6359:D *493:69 0.000238421
55 *6361:D *6361:CLK 0.000166946
56 *6367:D *6367:CLK 0.000111386
57 *6382:D *6382:CLK 0
58 *6484:D *6484:CLK 0
59 *6485:D *6485:CLK 4.82319e-06
60 *6493:CLK *493:10 0
61 *298:33 *6369:CLK 2.75145e-05
62 *298:33 *493:10 0
63 *298:37 *6367:CLK 9.47668e-05
64 *319:59 *493:69 0.000155436
65 *329:10 *493:10 0.000236989
66 *329:10 *493:27 0
67 *329:29 *493:10 9.50036e-05
68 *329:29 *493:27 0
69 *329:29 *493:56 0.000102435
70 *351:31 *493:10 0.000172004
71 *479:188 *493:10 0.000308719
*RES
1 *6510:X *493:10 20.685 
2 *493:10 *493:14 5.21 
3 *493:14 *493:16 0.45 
4 *493:16 *6361:CLK 8.26 
5 *493:16 *493:27 6.185 
6 *493:27 *6345:CLK 15.705 
7 *493:27 *6369:CLK 4.05 
8 *493:14 *6343:CLK 1.6 
9 *493:10 *493:56 4.185 
10 *493:56 *493:60 4.865 
11 *493:60 *6359:CLK 1.6 
12 *493:60 *493:69 9.005 
13 *493:69 *493:71 3.93 
14 *493:71 *493:73 2.145 
15 *493:73 *6382:CLK 9.825 
16 *493:73 *6367:CLK 8.22 
17 *493:71 *6342:CLK 3.6 
18 *493:69 *6484:CLK 5.745 
19 *493:56 *6485:CLK 9.27 
*END

*D_NET *494 0.0126407
*CONN
*I *6419:CLK I *D sky130_fd_sc_hd__dfxtp_1
*I *6395:CLK I *D sky130_fd_sc_hd__dfxtp_1
*I *6392:CLK I *D sky130_fd_sc_hd__dfxtp_1
*I *6390:CLK I *D sky130_fd_sc_hd__dfxtp_1
*I *6426:CLK I *D sky130_fd_sc_hd__dfxtp_1
*I *6410:CLK I *D sky130_fd_sc_hd__dfxtp_1
*I *6445:CLK I *D sky130_fd_sc_hd__dfxtp_1
*I *6411:CLK I *D sky130_fd_sc_hd__dfxtp_1
*I *6328:CLK I *D sky130_fd_sc_hd__dfxtp_1
*I *6427:CLK I *D sky130_fd_sc_hd__dfxtp_1
*I *6511:X O *D sky130_fd_sc_hd__clkbuf_8
*CAP
1 *6419:CLK 0
2 *6395:CLK 3.77548e-05
3 *6392:CLK 0.000367582
4 *6390:CLK 3.77548e-05
5 *6426:CLK 1.83028e-05
6 *6410:CLK 0
7 *6445:CLK 0.000381956
8 *6411:CLK 0
9 *6328:CLK 0.000273029
10 *6427:CLK 0.00016268
11 *6511:X 0.000292664
12 *494:86 0.00123825
13 *494:84 0.000961001
14 *494:53 0.000408538
15 *494:35 0.000273029
16 *494:22 0.000490634
17 *494:20 0.000426965
18 *494:18 0.000504485
19 *494:16 0.00063039
20 *494:10 0.000418967
21 *6328:CLK *735:20 0.000619397
22 *6328:CLK *735:27 0.000163199
23 *6392:CLK *6124:A1 0
24 *6392:CLK *625:51 5.56022e-05
25 *6392:CLK *768:44 0
26 *6427:CLK *5918:A0 0
27 *6427:CLK *6207:A0 0
28 *6445:CLK *5984:A0 2.24342e-05
29 *494:18 *735:46 0
30 *494:20 *735:46 0
31 *494:22 *735:35 0
32 *494:22 *735:46 0
33 *494:86 *500:12 3.06738e-05
34 *494:86 *712:53 0.000110612
35 *5968:A0 *6392:CLK 1.34361e-05
36 *5968:A1 *6392:CLK 0.000113828
37 *5986:A0 *494:10 0
38 *5986:A0 *494:18 0
39 *5990:A1 *494:10 0.000226024
40 *6031:S *6392:CLK 0.000162325
41 *6125:A *6392:CLK 0
42 *6137:A *494:16 6.44813e-05
43 *6137:A *494:18 6.5181e-05
44 *6190:A *494:10 3.90266e-05
45 *6206:A *6445:CLK 0.000162311
46 *6208:A *6328:CLK 1.34503e-05
47 *6208:A *494:22 3.29969e-05
48 *6217:S *6328:CLK 0.000682396
49 *6248:A *6445:CLK 3.72916e-05
50 *6328:D *6328:CLK 8.77684e-05
51 *6390:D *6392:CLK 2.3051e-05
52 *6390:D *494:86 4.82319e-06
53 *6395:D *494:84 4.17611e-05
54 *6395:D *494:86 3.1835e-05
55 *6410:D *6426:CLK 1.56428e-05
56 *6410:D *494:20 7.70938e-05
57 *6410:D *494:22 4.43871e-06
58 *6426:D *6426:CLK 4.66108e-05
59 *6427:D *6427:CLK 8.44437e-05
60 *6427:D *494:22 6.28687e-05
61 *6445:D *6445:CLK 0.000113663
62 *216:79 *6427:CLK 4.82863e-05
63 *225:108 *6445:CLK 0.000860597
64 *225:108 *494:53 1.91597e-05
65 *309:52 *6392:CLK 0.000179987
66 *372:36 *494:10 0.000312182
67 *411:111 *494:10 0
68 *411:111 *494:16 0
69 *411:111 *494:18 0
70 *411:125 *6328:CLK 7.66083e-05
71 *411:125 *6427:CLK 8.53113e-06
72 *411:125 *494:18 0.000126679
73 *411:125 *494:20 0.000198286
74 *411:125 *494:22 0.000677733
*RES
1 *6511:X *494:10 10.395 
2 *494:10 *494:16 2.19 
3 *494:16 *494:18 6.735 
4 *494:18 *494:20 2.4 
5 *494:20 *494:22 8.01 
6 *494:22 *6427:CLK 6.195 
7 *494:22 *494:35 2 
8 *494:35 *6328:CLK 11.725 
9 *494:35 *6411:CLK 1.6 
10 *494:20 *494:53 2.45 
11 *494:53 *6445:CLK 11.845 
12 *494:53 *6410:CLK 1.6 
13 *494:18 *6426:CLK 4.05 
14 *494:16 *494:84 3.14 
15 *494:84 *494:86 9.075 
16 *494:86 *6390:CLK 2.215 
17 *494:86 *6392:CLK 13.1 
18 *494:84 *6395:CLK 2.215 
19 *494:10 *6419:CLK 3.6 
*END

*D_NET *495 0.0102786
*CONN
*I *6325:CLK I *D sky130_fd_sc_hd__dfxtp_1
*I *6444:CLK I *D sky130_fd_sc_hd__dfxtp_1
*I *6429:CLK I *D sky130_fd_sc_hd__dfxtp_1
*I *6420:CLK I *D sky130_fd_sc_hd__dfxtp_1
*I *6396:CLK I *D sky130_fd_sc_hd__dfxtp_1
*I *6388:CLK I *D sky130_fd_sc_hd__dfxtp_1
*I *6348:CLK I *D sky130_fd_sc_hd__dfxtp_1
*I *6394:CLK I *D sky130_fd_sc_hd__dfxtp_1
*I *6418:CLK I *D sky130_fd_sc_hd__dfxtp_1
*I *6512:X O *D sky130_fd_sc_hd__clkbuf_8
*CAP
1 *6325:CLK 5.65347e-05
2 *6444:CLK 0.000278612
3 *6429:CLK 0
4 *6420:CLK 0
5 *6396:CLK 0.00027666
6 *6388:CLK 0.0002268
7 *6348:CLK 0
8 *6394:CLK 2.32169e-05
9 *6418:CLK 0.000162521
10 *6512:X 6.81246e-05
11 *495:90 0.000391929
12 *495:88 0.000515416
13 *495:58 0.000636519
14 *495:56 0.000845934
15 *495:41 0.000456222
16 *495:32 0.000303053
17 *495:10 0.000313721
18 *495:8 0.000410249
19 *6325:CLK *5957:A2 1.83847e-05
20 *6388:CLK *5949:A2 5.9074e-05
21 *6388:CLK *6027:A0 0.000111909
22 *6388:CLK *6027:A1 7.67345e-05
23 *6396:CLK *6199:A0 0.000122325
24 *6396:CLK *6604:A 0.000120186
25 *6396:CLK *768:44 6.74079e-05
26 *6444:CLK *6615:A 2.50049e-05
27 *6444:CLK *589:8 3.86529e-05
28 *495:56 *5949:A0 3.59531e-06
29 *495:56 *6603:A 0
30 *495:88 *5949:A0 4.66108e-05
31 *495:88 *5949:A1 3.9953e-05
32 *495:88 *6027:A1 0.00022282
33 *495:88 *6211:A0 0.000136877
34 *495:88 *570:10 8.88631e-05
35 *5949:S0 *495:88 0
36 *5972:A1 *6418:CLK 0
37 *5972:A1 *495:10 0
38 *5972:A1 *495:32 0
39 *5972:A1 *495:41 0
40 *5972:A1 *495:56 0
41 *5975:S1 *6325:CLK 8.30487e-05
42 *5975:S1 *6444:CLK 0.000604823
43 *5975:S1 *495:90 0.00026153
44 *6028:A *6388:CLK 0.000347922
45 *6029:S *495:88 0
46 *6135:A *495:8 0.000312182
47 *6175:S *6325:CLK 3.03775e-05
48 *6175:S *6444:CLK 0.000715648
49 *6175:S *495:90 0.000183093
50 *6188:A *6418:CLK 5.53249e-06
51 *6188:A *495:8 0.000121103
52 *6188:A *495:10 5.73362e-05
53 *6246:A *6444:CLK 0.000206817
54 *6394:D *6394:CLK 2.75229e-05
55 *6418:D *6418:CLK 4.99619e-05
56 *6420:D *495:58 1.43717e-05
57 *6429:D *495:90 1.43717e-05
58 *6496:A *6444:CLK 5.33085e-05
59 *6512:A *495:8 5.83121e-06
60 *225:164 *6444:CLK 2.11084e-05
61 *230:66 *6444:CLK 0
62 *362:37 *6396:CLK 1.47347e-05
63 *401:87 *495:88 0.00052872
64 *401:93 *495:32 0.000121712
65 *401:93 *495:41 4.72278e-05
66 *401:93 *495:56 7.6154e-05
67 *401:93 *495:88 0.000157602
68 *411:111 *6418:CLK 0
69 *411:111 *495:10 0
70 *411:111 *495:32 0
71 *411:111 *495:88 7.26551e-05
*RES
1 *6512:X *495:8 6.465 
2 *495:8 *495:10 2.145 
3 *495:10 *6418:CLK 6.45 
4 *495:10 *6394:CLK 4.05 
5 *495:8 *495:32 4.185 
6 *495:32 *6348:CLK 3.6 
7 *495:32 *495:41 1.635 
8 *495:41 *6388:CLK 9.24 
9 *495:41 *495:56 4.4 
10 *495:56 *495:58 5.28 
11 *495:58 *6396:CLK 10.805 
12 *495:58 *6420:CLK 1.6 
13 *495:56 *495:88 13.855 
14 *495:88 *495:90 4.245 
15 *495:90 *6429:CLK 1.6 
16 *495:90 *6444:CLK 15.725 
17 *495:88 *6325:CLK 3.085 
*END

*D_NET *496 0.00394295
*CONN
*I *6547:A I *D sky130_fd_sc_hd__dlygate4sd3_1
*I *5925:A0 I *D sky130_fd_sc_hd__mux4_1
*I *6386:Q O *D sky130_fd_sc_hd__dfxtp_1
*CAP
1 *6547:A 0.00025489
2 *5925:A0 0.000724365
3 *6386:Q 0.000376052
4 *496:6 0.00135531
5 *5925:A0 *5925:A2 0.000184103
6 *5925:S0 *5925:A0 4.82863e-05
7 *5925:S1 *5925:A0 4.41506e-05
8 *5928:A0 *5925:A0 7.06865e-05
9 *5928:A0 *6547:A 3.47754e-05
10 *5928:A1 *5925:A0 5.83121e-06
11 *5955:A0 *5925:A0 6.8613e-07
12 *5955:A0 *496:6 5.4372e-05
13 *5990:A1 *6547:A 0.000141253
14 *6386:CLK *6547:A 0.000121943
15 *6386:D *5925:A0 7.62325e-05
16 *6499:A *6547:A 0.000252755
17 *226:183 *5925:A0 0
18 *481:6 *6547:A 0.000197264
*RES
1 *6386:Q *496:6 5.845 
2 *496:6 *5925:A0 14.885 
3 *496:6 *6547:A 12.275 
*END

*D_NET *497 0.00334229
*CONN
*I *5940:A0 I *D sky130_fd_sc_hd__mux4_1
*I *6568:A I *D sky130_fd_sc_hd__dlygate4sd3_1
*I *6387:Q O *D sky130_fd_sc_hd__dfxtp_1
*CAP
1 *5940:A0 0.00100333
2 *6568:A 6.696e-05
3 *6387:Q 0
4 *497:4 0.00107029
5 *5940:A0 *6025:A1 0.000210411
6 *5940:A0 *6116:A0 0.000535969
7 *5940:A0 *6116:A1 0.000119756
8 *5940:A0 *735:117 0.000263269
9 *5925:S0 *5940:A0 0
10 *6026:A *5940:A0 4.61744e-05
11 *6117:A *5940:A0 2.61299e-05
*RES
1 *6387:Q *497:4 1.6 
2 *497:4 *6568:A 2.665 
3 *497:4 *5940:A0 27.375 
*END

*D_NET *498 0.00308478
*CONN
*I *6551:A I *D sky130_fd_sc_hd__dlygate4sd3_1
*I *5949:A0 I *D sky130_fd_sc_hd__mux4_1
*I *6388:Q O *D sky130_fd_sc_hd__dfxtp_1
*CAP
1 *6551:A 5.77644e-05
2 *5949:A0 0.000697468
3 *6388:Q 0.000192392
4 *498:10 0.000947625
5 *5949:A0 *5949:A1 2.75145e-05
6 *5949:A0 *6191:A0 0.000287231
7 *5949:A0 *746:64 0.000121103
8 *5949:A0 *746:85 7.6426e-06
9 *6551:A *6120:A0 5.83121e-06
10 *498:10 *6120:A0 2.25611e-05
11 *498:10 *6120:A1 0
12 *5954:A1 *498:10 4.11902e-05
13 *6120:S *498:10 0.000139238
14 *6191:S *5949:A0 0.000118081
15 *6348:D *5949:A0 0.00023468
16 *6388:D *498:10 0
17 *401:93 *5949:A0 0.000134249
18 *495:56 *5949:A0 3.59531e-06
19 *495:88 *5949:A0 4.66108e-05
*RES
1 *6388:Q *498:10 9.02 
2 *498:10 *5949:A0 18.17 
3 *498:10 *6551:A 2.395 
*END

*D_NET *499 0.00361113
*CONN
*I *6537:A I *D sky130_fd_sc_hd__dlygate4sd3_1
*I *5958:A0 I *D sky130_fd_sc_hd__mux4_1
*I *6389:Q O *D sky130_fd_sc_hd__dfxtp_1
*CAP
1 *6537:A 7.1088e-05
2 *5958:A0 0.000683658
3 *6389:Q 0.000422741
4 *499:12 0.00117749
5 *5958:A0 *5958:A1 0.000176633
6 *5958:A0 *5958:A2 3.39944e-05
7 *5958:A0 *5958:A3 0.000151873
8 *5958:A0 *6122:A0 6.97034e-05
9 *5958:A0 *6122:A1 0.00013236
10 *5958:A0 *6564:A 0.000155909
11 *5958:A0 *757:87 7.30547e-05
12 *6537:A *6122:A0 4.41506e-05
13 *499:12 *746:45 0
14 *5954:A1 *499:12 0.000160658
15 *5958:S0 *5958:A0 6.10643e-05
16 *6122:S *499:12 3.09233e-05
17 *6123:A *499:12 0
18 *6389:CLK *499:12 0.000105508
19 *483:63 *5958:A0 6.03272e-05
*RES
1 *6389:Q *499:12 11.39 
2 *499:12 *5958:A0 17.81 
3 *499:12 *6537:A 2.755 
*END

*D_NET *500 0.00307525
*CONN
*I *6601:A I *D sky130_fd_sc_hd__dlygate4sd3_1
*I *5967:A0 I *D sky130_fd_sc_hd__mux4_1
*I *6390:Q O *D sky130_fd_sc_hd__dfxtp_1
*CAP
1 *6601:A 0
2 *5967:A0 0.000645397
3 *6390:Q 0.000274903
4 *500:12 0.0009203
5 *5967:A0 *5967:A1 0.00025652
6 *5967:A0 *5967:A3 5.92191e-05
7 *5967:A0 *6124:A0 8.82557e-05
8 *5967:A0 *6124:A1 4.99619e-05
9 *5967:A0 *6195:A0 4.41363e-05
10 *5967:A0 *6573:A 2.97561e-05
11 *5967:S0 *5967:A0 0.000183359
12 *226:114 *5967:A0 0
13 *295:20 *5967:A0 5.05437e-05
14 *295:28 *5967:A0 0.000274553
15 *362:51 *500:12 7.55391e-05
16 *362:61 *5967:A0 8.65961e-05
17 *362:61 *500:12 5.53249e-06
18 *494:86 *500:12 3.06738e-05
*RES
1 *6390:Q *500:12 9.41 
2 *500:12 *5967:A0 19.55 
3 *500:12 *6601:A 1.6 
*END

*D_NET *501 0.00303185
*CONN
*I *6590:A I *D sky130_fd_sc_hd__dlygate4sd3_1
*I *5976:A0 I *D sky130_fd_sc_hd__mux4_1
*I *6391:Q O *D sky130_fd_sc_hd__dfxtp_1
*CAP
1 *6590:A 2.08101e-05
2 *5976:A0 0.000484793
3 *6391:Q 0.000449862
4 *501:14 0.000955465
5 *5976:A0 *5976:A1 0.000139245
6 *501:14 *6126:A0 0
7 *6033:S *5976:A0 0.0002526
8 *6391:CLK *501:14 0.000386309
9 *6391:D *5976:A0 0.000270415
10 *6391:D *501:14 7.23533e-05
11 *232:69 *5976:A0 0
12 *270:12 *501:14 0
*RES
1 *6391:Q *501:14 11.765 
2 *501:14 *5976:A0 14.6 
3 *501:14 *6590:A 1.96 
*END

*D_NET *502 0.00177857
*CONN
*I *6592:A I *D sky130_fd_sc_hd__dlygate4sd3_1
*I *5985:A0 I *D sky130_fd_sc_hd__mux4_1
*I *6392:Q O *D sky130_fd_sc_hd__dfxtp_1
*CAP
1 *6592:A 0
2 *5985:A0 0.00055517
3 *6392:Q 6.08483e-05
4 *502:12 0.000616018
5 *5985:A0 *5985:A2 0.000125345
6 *502:12 *6128:A0 1.08758e-05
7 *5985:S0 *5985:A0 0.000129119
8 *5985:S1 *5985:A0 4.41506e-05
9 *6392:D *502:12 0.00011852
10 *479:116 *502:12 0.00011852
*RES
1 *6392:Q *502:12 7.43 
2 *502:12 *5985:A0 10.165 
3 *502:12 *6592:A 1.6 
*END

*D_NET *503 0.00277372
*CONN
*I *6542:A I *D sky130_fd_sc_hd__dlygate4sd3_1
*I *5994:A0 I *D sky130_fd_sc_hd__mux4_1
*I *6393:Q O *D sky130_fd_sc_hd__dfxtp_1
*CAP
1 *6542:A 0.000140161
2 *5994:A0 0.000411876
3 *6393:Q 0.000197691
4 *503:6 0.000749729
5 *5994:A0 *6201:A0 3.72916e-05
6 *5994:A0 *6201:A1 0
7 *5994:A0 *636:107 5.062e-06
8 *6542:A *6130:A1 0.00024036
9 *6542:A *636:90 0.000116853
10 *5994:S0 *5994:A0 8.53113e-06
11 *5995:A1 *6542:A 0
12 *6130:S *6542:A 2.30292e-05
13 *6131:A *6542:A 0.000136884
14 *6131:A *503:6 9.2741e-05
15 *6195:S *5994:A0 9.66021e-05
16 *6393:CLK *5994:A0 0.000106525
17 *6393:CLK *503:6 3.79854e-05
18 *237:80 *6542:A 4.43682e-05
19 *239:168 *6542:A 0.000275553
20 *428:75 *5994:A0 5.24801e-05
*RES
1 *6393:Q *503:6 4.12 
2 *503:6 *5994:A0 11.675 
3 *503:6 *6542:A 10.775 
*END

*D_NET *504 0.00163774
*CONN
*I *5932:A2 I *D sky130_fd_sc_hd__mux4_1
*I *6527:A I *D sky130_fd_sc_hd__dlygate4sd3_1
*I *6378:Q O *D sky130_fd_sc_hd__dfxtp_1
*CAP
1 *5932:A2 0.000278259
2 *6527:A 0.000101917
3 *6378:Q 0
4 *504:4 0.000380176
5 *5932:A2 *5932:A1 1.10377e-05
6 *5932:A2 *6306:A1 4.82919e-05
7 *6527:A *5932:A0 9.54399e-05
8 *6527:A *6097:A0 8.65905e-05
9 *5932:S0 *6527:A 0
10 *5943:S1 *5932:A2 0
11 *6306:S *5932:A2 8.43862e-05
12 *6306:S *6527:A 3.31282e-05
13 *6307:A *5932:A2 6.77681e-05
14 *6402:CLK *6527:A 8.8266e-05
15 *6488:CLK *5932:A2 0.000362479
16 *339:81 *5932:A2 0
*RES
1 *6378:Q *504:4 1.6 
2 *504:4 *6527:A 8.285 
3 *504:4 *5932:A2 11.9637 
*END

*D_NET *505 0.00132404
*CONN
*I *5943:A2 I *D sky130_fd_sc_hd__mux4_1
*I *6633:A I *D sky130_fd_sc_hd__dlygate4sd3_1
*I *6379:Q O *D sky130_fd_sc_hd__dfxtp_1
*CAP
1 *5943:A2 0.000304045
2 *6633:A 2.08101e-05
3 *6379:Q 4.10134e-05
4 *505:6 0.000365868
5 *5943:A2 *5943:A0 4.78351e-05
6 *5943:A2 *735:162 0.000105597
7 *5944:A1 *5943:A2 1.59999e-05
8 *6309:A *5943:A2 5.4003e-05
9 *6489:CLK *5943:A2 0.000100729
10 *6489:D *5943:A2 0.000122337
11 *482:104 *5943:A2 9.27326e-05
12 *482:104 *505:6 5.30673e-05
*RES
1 *6379:Q *505:6 2.395 
2 *505:6 *6633:A 1.96 
3 *505:6 *5943:A2 12.1775 
*END

*D_NET *506 0.00232426
*CONN
*I *6576:A I *D sky130_fd_sc_hd__dlygate4sd3_1
*I *5952:A2 I *D sky130_fd_sc_hd__mux4_1
*I *6380:Q O *D sky130_fd_sc_hd__dfxtp_1
*CAP
1 *6576:A 7.36737e-05
2 *5952:A2 0.000184485
3 *6380:Q 0.000211937
4 *506:10 0.000470096
5 *5952:A2 *5952:A1 0.000188653
6 *5952:A2 *6101:A0 7.68414e-06
7 *5952:A2 *746:31 6.0011e-05
8 *6576:A *746:20 5.12942e-05
9 *6576:A *757:56 0.000172846
10 *506:10 *757:56 0.000293719
11 *5952:S0 *5952:A2 8.65961e-05
12 *351:101 *5952:A2 0.000474977
13 *484:6 *506:10 4.82863e-05
14 *484:19 *506:10 0
15 *484:34 *6576:A 0
16 *484:34 *506:10 0
*RES
1 *6380:Q *506:10 7.47 
2 *506:10 *5952:A2 10.1438 
3 *506:10 *6576:A 5.745 
*END

*D_NET *507 0.0021479
*CONN
*I *5961:A2 I *D sky130_fd_sc_hd__mux4_1
*I *6556:A I *D sky130_fd_sc_hd__dlygate4sd3_1
*I *6381:Q O *D sky130_fd_sc_hd__dfxtp_1
*CAP
1 *5961:A2 0.00038703
2 *6556:A 0.000146983
3 *6381:Q 3.46704e-05
4 *507:6 0.000568683
5 *5961:A2 *5961:A0 0.000347922
6 *5961:A2 *5961:A1 5.85952e-05
7 *5961:A2 *6083:A0 0.000157968
8 *5961:A2 *6531:A 4.92096e-05
9 *5961:A2 *515:10 2.97004e-06
10 *5962:A0 *6556:A 8.77073e-05
11 *5962:A1 *5961:A2 9.3229e-06
12 *5962:S *6556:A 0.000231571
13 *6103:S *6556:A 0
14 *486:106 *6556:A 6.5265e-05
*RES
1 *6381:Q *507:6 2.05 
2 *507:6 *6556:A 10.04 
3 *507:6 *5961:A2 13.4038 
*END

*D_NET *508 0.00246403
*CONN
*I *5970:A2 I *D sky130_fd_sc_hd__mux4_1
*I *6609:A I *D sky130_fd_sc_hd__dlygate4sd3_1
*I *6382:Q O *D sky130_fd_sc_hd__dfxtp_1
*CAP
1 *5970:A2 0.000297721
2 *6609:A 6.08407e-05
3 *6382:Q 0.000202654
4 *508:14 0.000561215
5 *5970:A2 *5970:A0 9.3229e-06
6 *5970:A2 *6314:A0 8.40213e-05
7 *5970:A2 *6589:A 9.58622e-05
8 *5970:A2 *768:26 4.01778e-05
9 *5970:A2 *768:32 0.000273396
10 *508:14 *5970:A1 5.83121e-06
11 *6106:A *508:14 0
12 *6315:A *5970:A2 2.11084e-05
13 *6492:CLK *508:14 3.6943e-05
14 *6492:D *508:14 0.000181376
15 *233:66 *5970:A2 4.43871e-06
16 *233:81 *5970:A2 4.46758e-05
17 *351:79 *5970:A2 1.10377e-05
18 *470:109 *5970:A2 0.000370206
19 *470:109 *6609:A 0.000163199
*RES
1 *6382:Q *508:14 9.5 
2 *508:14 *6609:A 3.085 
3 *508:14 *5970:A2 13.8387 
*END

*D_NET *509 0.00270028
*CONN
*I *5979:A2 I *D sky130_fd_sc_hd__mux4_1
*I *6580:A I *D sky130_fd_sc_hd__dlygate4sd3_1
*I *6383:Q O *D sky130_fd_sc_hd__dfxtp_1
*CAP
1 *5979:A2 0.000380224
2 *6580:A 0
3 *6383:Q 0.000231798
4 *509:12 0.000612023
5 *5979:A2 *5979:A0 5.73851e-05
6 *5979:A2 *6107:A0 0.00027299
7 *5979:A2 *6107:A1 0.000127297
8 *5979:A2 *6524:A 8.06376e-05
9 *5979:A2 *779:43 1.91597e-05
10 *5979:A2 *779:54 0.000155348
11 *509:12 *5979:A1 0
12 *5981:A1 *5979:A2 4.66742e-05
13 *6088:A *509:12 0.000136877
14 *6317:A *5979:A2 0.000160641
15 *6509:A *509:12 5.23362e-05
16 *351:31 *509:12 0
17 *470:100 *5979:A2 0.000155348
18 *479:188 *509:12 2.49909e-05
19 *492:8 *509:12 0
20 *493:10 *509:12 0.000186546
*RES
1 *6383:Q *509:12 10.835 
2 *509:12 *6580:A 1.6 
3 *509:12 *5979:A2 15.1175 
*END

*D_NET *510 0.0018373
*CONN
*I *5988:A2 I *D sky130_fd_sc_hd__mux4_1
*I *6617:A I *D sky130_fd_sc_hd__dlygate4sd3_1
*I *6384:Q O *D sky130_fd_sc_hd__dfxtp_1
*CAP
1 *5988:A2 0.000419574
2 *6617:A 0.000171606
3 *6384:Q 0
4 *510:4 0.00059118
5 *5988:A2 *5988:A0 8.05695e-05
6 *5988:A2 *5988:A1 1.83756e-05
7 *6617:A *5988:A1 0
8 *6617:A *6109:A0 4.82863e-05
9 *6617:A *625:116 0.000131799
10 *6617:A *724:124 3.48129e-05
11 *6110:A *6617:A 6.72196e-05
12 *237:150 *6617:A 0.000273878
*RES
1 *6384:Q *510:4 1.6 
2 *510:4 *6617:A 9.95 
3 *510:4 *5988:A2 7.00375 
*END

*D_NET *511 0.00219401
*CONN
*I *6628:A I *D sky130_fd_sc_hd__dlygate4sd3_1
*I *5997:A2 I *D sky130_fd_sc_hd__mux4_1
*I *6385:Q O *D sky130_fd_sc_hd__dfxtp_1
*CAP
1 *6628:A 1.36534e-05
2 *5997:A2 0.000273647
3 *6385:Q 0.000198807
4 *511:10 0.000486108
5 *5997:A2 *5997:A1 7.49183e-05
6 *5997:A2 *5997:A3 0.000347884
7 *5997:A2 *636:73 3.05877e-05
8 *5997:A2 *636:84 0.000139933
9 *6628:A *6111:A0 4.66108e-05
10 *511:10 *5997:A3 0.000131881
11 *511:10 *636:57 4.39911e-06
12 *5998:A0 *5997:A2 0
13 *6091:S *511:10 5.83121e-06
14 *6092:A *511:10 5.35969e-06
15 *6166:S *5997:A2 0.000305714
16 *6166:S *511:10 4.10429e-05
17 *6199:S *6628:A 4.66108e-05
18 *292:12 *511:10 4.24292e-06
19 *362:12 *511:10 3.67779e-05
*RES
1 *6385:Q *511:10 6.72 
2 *511:10 *5997:A2 11.0588 
3 *511:10 *6628:A 4.05 
*END

*D_NET *512 0.000721805
*CONN
*I *6636:A I *D sky130_fd_sc_hd__dlygate4sd3_1
*I *5932:A3 I *D sky130_fd_sc_hd__mux4_1
*I *6370:Q O *D sky130_fd_sc_hd__dfxtp_1
*CAP
1 *6636:A 5.15536e-05
2 *5932:A3 0.000282494
3 *6370:Q 0
4 *512:4 0.000334048
5 *5937:A0 *5932:A3 2.36716e-05
6 *5937:A0 *6636:A 3.00381e-05
7 *5943:S1 *5932:A3 0
8 *6078:A *5932:A3 0
9 *233:264 *5932:A3 0
10 *339:71 *5932:A3 0
11 *339:81 *5932:A3 0
*RES
1 *6370:Q *512:4 1.6 
2 *512:4 *5932:A3 9.815 
3 *512:4 *6636:A 2.665 
*END

*D_NET *513 0.0012974
*CONN
*I *6640:A I *D sky130_fd_sc_hd__dlygate4sd3_1
*I *5943:A3 I *D sky130_fd_sc_hd__mux4_1
*I *6371:Q O *D sky130_fd_sc_hd__dfxtp_1
*CAP
1 *6640:A 0
2 *5943:A3 0.000276515
3 *6371:Q 0.000265973
4 *513:10 0.000542489
5 *5943:A3 *735:162 4.96534e-05
6 *513:10 *735:162 0.000162769
7 *6371:CLK *5943:A3 0
8 *6371:CLK *513:10 0
9 *6371:D *513:10 0
*RES
1 *6371:Q *513:10 7.155 
2 *513:10 *5943:A3 7.335 
3 *513:10 *6640:A 3.6 
*END

*D_NET *514 0.0014337
*CONN
*I *5952:A3 I *D sky130_fd_sc_hd__mux4_1
*I *6538:A I *D sky130_fd_sc_hd__dlygate4sd3_1
*I *6372:Q O *D sky130_fd_sc_hd__dfxtp_1
*CAP
1 *5952:A3 0.000168229
2 *6538:A 0.000288751
3 *6372:Q 0.000117899
4 *514:8 0.000574879
5 *5952:A3 *746:31 0
6 *6538:A *746:31 0
7 *6538:A *746:37 0
8 *514:8 *5952:A0 0.000278111
9 *5952:S0 *5952:A3 0
10 *5952:S1 *5952:A3 0
11 *5954:A1 *5952:A3 0
12 *5954:A1 *6538:A 0
13 *6404:CLK *514:8 5.83121e-06
14 *339:50 *6538:A 0
15 *339:65 *6538:A 0
*RES
1 *6372:Q *514:8 6.465 
2 *514:8 *6538:A 8.04 
3 *514:8 *5952:A3 5.94 
*END

*D_NET *515 0.00130587
*CONN
*I *6531:A I *D sky130_fd_sc_hd__dlygate4sd3_1
*I *5961:A3 I *D sky130_fd_sc_hd__mux4_1
*I *6373:Q O *D sky130_fd_sc_hd__dfxtp_1
*CAP
1 *6531:A 0.000304947
2 *5961:A3 2.20475e-05
3 *6373:Q 0.000111536
4 *515:10 0.000438531
5 *5961:A3 *5961:A1 5.05521e-05
6 *6531:A *5961:A1 0
7 *6531:A *6083:A0 0
8 *5961:A2 *6531:A 4.92096e-05
9 *5961:A2 *515:10 2.97004e-06
10 *5961:S1 *515:10 0
11 *5962:A1 *5961:A3 3.45679e-05
12 *5962:A1 *6531:A 0
13 *6083:S *6531:A 8.0005e-05
14 *6083:S *515:10 7.63125e-05
15 *6405:CLK *6531:A 8.5225e-05
16 *6491:D *6531:A 0
17 *233:247 *515:10 4.99619e-05
*RES
1 *6373:Q *515:10 5.685 
2 *515:10 *5961:A3 4.395 
3 *515:10 *6531:A 9.57 
*END

*D_NET *516 0.00130691
*CONN
*I *6600:A I *D sky130_fd_sc_hd__dlygate4sd3_1
*I *5970:A3 I *D sky130_fd_sc_hd__mux4_1
*I *6374:Q O *D sky130_fd_sc_hd__dfxtp_1
*CAP
1 *6600:A 5.68629e-05
2 *5970:A3 0.000358431
3 *6374:Q 0
4 *516:4 0.000415294
5 *5970:A3 *768:32 0.000157595
6 *5970:A3 *768:38 0
7 *6160:S *5970:A3 0.000106412
8 *6161:A *5970:A3 7.23602e-05
9 *6374:CLK *5970:A3 4.70919e-05
10 *6374:CLK *6600:A 3.18973e-05
11 *232:81 *5970:A3 0
12 *233:66 *5970:A3 5.12942e-05
13 *382:24 *5970:A3 2.97004e-06
14 *382:53 *6600:A 6.69608e-06
*RES
1 *6374:Q *516:4 1.6 
2 *516:4 *5970:A3 12.755 
3 *516:4 *6600:A 2.665 
*END

*D_NET *517 0.0016368
*CONN
*I *6524:A I *D sky130_fd_sc_hd__dlygate4sd3_1
*I *5979:A3 I *D sky130_fd_sc_hd__mux4_1
*I *6375:Q O *D sky130_fd_sc_hd__dfxtp_1
*CAP
1 *6524:A 0.00037608
2 *5979:A3 4.02813e-05
3 *6375:Q 0.000175677
4 *517:6 0.000592039
5 *5979:A3 *5979:A0 3.72916e-05
6 *6524:A *5979:A0 6.00853e-05
7 *517:6 *5979:A0 6.10013e-05
8 *5979:A2 *6524:A 8.06376e-05
9 *5980:A1 *6524:A 5.30673e-05
10 *492:16 *517:6 0.000160635
*RES
1 *6375:Q *517:6 4.81 
2 *517:6 *5979:A3 2.755 
3 *517:6 *6524:A 7.27 
*END

*D_NET *518 0.00175978
*CONN
*I *5988:A3 I *D sky130_fd_sc_hd__mux4_1
*I *6607:A I *D sky130_fd_sc_hd__dlygate4sd3_1
*I *6376:Q O *D sky130_fd_sc_hd__dfxtp_1
*CAP
1 *5988:A3 0.000217811
2 *6607:A 0
3 *6376:Q 0.000190234
4 *518:12 0.000408044
5 *5988:A3 *6089:A0 3.66286e-05
6 *518:12 *6089:A0 0.000178331
7 *5988:S0 *5988:A3 2.13472e-05
8 *5989:A0 *5988:A3 0
9 *6089:S *5988:A3 2.75145e-05
10 *6089:S *518:12 9.97659e-05
11 *6481:CLK *518:12 0.000234674
12 *230:140 *5988:A3 0.000345429
*RES
1 *6376:Q *518:12 6.325 
2 *518:12 *6607:A 1.6 
3 *518:12 *5988:A3 10.235 
*END

*D_NET *519 0.00291335
*CONN
*I *6635:A I *D sky130_fd_sc_hd__dlygate4sd3_1
*I *5997:A3 I *D sky130_fd_sc_hd__mux4_1
*I *6377:Q O *D sky130_fd_sc_hd__dfxtp_1
*CAP
1 *6635:A 0.000125483
2 *5997:A3 0.000341177
3 *6377:Q 0.00021614
4 *519:10 0.0006828
5 *5997:A3 *6166:A0 7.4027e-05
6 *5997:A3 *636:65 0.00019463
7 *5997:A3 *636:84 0.000118513
8 *6635:A *6091:A0 7.72844e-05
9 *519:10 *636:65 9.37731e-05
10 *5997:A2 *5997:A3 0.000347884
11 *6091:S *6635:A 8.23457e-05
12 *6091:S *519:10 0.000139245
13 *6166:S *519:10 3.23391e-05
14 *6167:A *5997:A3 3.23981e-05
15 *6409:D *5997:A3 0
16 *6495:CLK *5997:A3 6.934e-05
17 *6495:D *5997:A3 0
18 *362:12 *5997:A3 9.3062e-06
19 *362:12 *519:10 5.98004e-06
20 *411:77 *519:10 0.000138808
21 *511:10 *5997:A3 0.000131881
*RES
1 *6377:Q *519:10 7.665 
2 *519:10 *5997:A3 11.91 
3 *519:10 *6635:A 5.79 
*END

*D_NET *520 0.00277914
*CONN
*I *6549:A I *D sky130_fd_sc_hd__dlygate4sd3_1
*I *5931:A0 I *D sky130_fd_sc_hd__mux4_1
*I *6362:Q O *D sky130_fd_sc_hd__dfxtp_1
*CAP
1 *6549:A 0.000226173
2 *5931:A0 0.000757636
3 *6362:Q 0
4 *520:4 0.00098381
5 *5931:A0 *5931:A2 1.10377e-05
6 *5931:A0 *5931:A3 0.000121716
7 *5931:S1 *5931:A0 3.31103e-05
8 *5933:A0 *5931:A0 0.000100366
9 *5933:A1 *6549:A 3.23663e-05
10 *5962:S *6549:A 3.74161e-05
11 *5963:A0 *5931:A0 7.26692e-05
12 *230:211 *5931:A0 8.49205e-05
13 *230:211 *6549:A 0.000312176
14 *232:151 *5931:A0 5.74121e-06
*RES
1 *6362:Q *520:4 1.6 
2 *520:4 *5931:A0 16.22 
3 *520:4 *6549:A 5.86 
*END

*D_NET *521 0.00340253
*CONN
*I *6644:A I *D sky130_fd_sc_hd__dlygate4sd3_1
*I *5942:A0 I *D sky130_fd_sc_hd__mux4_1
*I *6363:Q O *D sky130_fd_sc_hd__dfxtp_1
*CAP
1 *6644:A 0.00010745
2 *5942:A0 0.000808653
3 *6363:Q 0.000235407
4 *521:6 0.00115151
5 *5942:A0 *6006:A0 4.56696e-05
6 *5932:S0 *6644:A 0.000231571
7 *6306:S *6644:A 0
8 *6355:D *5942:A0 8.23457e-05
9 *6363:CLK *5942:A0 0.000284182
10 *6363:D *5942:A0 3.09111e-05
11 *230:128 *5942:A0 0.000291372
12 *232:167 *5942:A0 4.51961e-05
13 *233:191 *5942:A0 8.8266e-05
*RES
1 *6363:Q *521:6 4.12 
2 *521:6 *5942:A0 18.68 
3 *521:6 *6644:A 8.255 
*END

*D_NET *522 0.00260095
*CONN
*I *6591:A I *D sky130_fd_sc_hd__dlygate4sd3_1
*I *5951:A0 I *D sky130_fd_sc_hd__mux4_1
*I *6364:Q O *D sky130_fd_sc_hd__dfxtp_1
*CAP
1 *6591:A 0.000116515
2 *5951:A0 0.000624699
3 *6364:Q 0.000163706
4 *522:6 0.00090492
5 *5951:A0 *5951:A1 0.000120655
6 *5951:A0 *5951:A2 3.02489e-05
7 *5951:S0 *5951:A0 6.68538e-05
8 *5953:A0 *5951:A0 8.53113e-06
9 *16:5 *5951:A0 6.95335e-05
10 *16:5 *6591:A 0.000130072
11 *232:141 *5951:A0 0.00019568
12 *233:139 *5951:A0 4.91189e-05
13 *233:150 *5951:A0 2.9664e-05
14 *484:96 *5951:A0 8.49205e-05
15 *486:72 *6591:A 0
16 *486:72 *522:6 5.83121e-06
*RES
1 *6364:Q *522:6 3.43 
2 *522:6 *5951:A0 15.575 
3 *522:6 *6591:A 8.255 
*END

*D_NET *523 0.00271388
*CONN
*I *6532:A I *D sky130_fd_sc_hd__dlygate4sd3_1
*I *5960:A0 I *D sky130_fd_sc_hd__mux4_1
*I *6365:Q O *D sky130_fd_sc_hd__dfxtp_1
*CAP
1 *6532:A 2.08101e-05
2 *5960:A0 0.000658112
3 *6365:Q 0.000432265
4 *523:12 0.00111119
5 *5960:A0 *5960:A1 3.00381e-05
6 *5960:A0 *5960:A3 4.82919e-05
7 *523:12 *6065:A0 0
8 *6357:D *5960:A0 7.36892e-05
9 *6365:D *5960:A0 0.000198939
10 *232:141 *5960:A0 3.50599e-05
11 *319:105 *5960:A0 3.31282e-05
12 *486:93 *5960:A0 7.23602e-05
*RES
1 *6365:Q *523:12 11.66 
2 *523:12 *5960:A0 15.5 
3 *523:12 *6532:A 1.96 
*END

*D_NET *524 0.00238362
*CONN
*I *5969:A0 I *D sky130_fd_sc_hd__mux4_1
*I *6553:A I *D sky130_fd_sc_hd__dlygate4sd3_1
*I *6366:Q O *D sky130_fd_sc_hd__dfxtp_1
*CAP
1 *5969:A0 0.000515292
2 *6553:A 0.0002176
3 *6366:Q 0.000186063
4 *524:8 0.000918955
5 *5969:A0 *5969:A2 0.000115605
6 *5971:A0 *6553:A 0
7 *233:81 *5969:A0 3.31204e-05
8 *233:81 *6553:A 0.000102411
9 *233:98 *5969:A0 6.70179e-06
10 *233:139 *5969:A0 1.20414e-05
11 *329:50 *6553:A 2.53906e-05
12 *329:62 *6553:A 5.25548e-05
13 *484:44 *524:8 0.000197881
*RES
1 *6366:Q *524:8 6.12 
2 *524:8 *6553:A 7.5 
3 *524:8 *5969:A0 10.02 
*END

*D_NET *525 0.00235782
*CONN
*I *6616:A I *D sky130_fd_sc_hd__dlygate4sd3_1
*I *5978:A0 I *D sky130_fd_sc_hd__mux4_1
*I *6367:Q O *D sky130_fd_sc_hd__dfxtp_1
*CAP
1 *6616:A 9.13562e-05
2 *5978:A0 0.000618245
3 *6367:Q 0.000172268
4 *525:10 0.000881869
5 *5978:A0 *5978:A2 0.00012461
6 *5978:A0 *541:6 4.05674e-06
7 *6013:A *6616:A 0
8 *6013:A *525:10 0
9 *6342:D *6616:A 0
10 *6342:D *525:10 0
11 *233:98 *5978:A0 0.000146144
12 *298:37 *525:10 1.67266e-05
13 *493:71 *6616:A 0.00016163
14 *493:73 *6616:A 2.30797e-05
15 *493:73 *525:10 0.000117832
*RES
1 *6367:Q *525:10 6.12 
2 *525:10 *5978:A0 12.045 
3 *525:10 *6616:A 5.745 
*END

*D_NET *526 0.00377823
*CONN
*I *6539:A I *D sky130_fd_sc_hd__dlygate4sd3_1
*I *5987:A0 I *D sky130_fd_sc_hd__mux4_1
*I *6368:Q O *D sky130_fd_sc_hd__dfxtp_1
*CAP
1 *6539:A 0.000280559
2 *5987:A0 0.000627922
3 *6368:Q 0.000238793
4 *526:6 0.00114727
5 *5987:A0 *5987:A2 0.000160641
6 *5987:A0 *5987:A3 0.000144583
7 *5987:A0 *6053:A0 8.22234e-06
8 *5987:A0 *6651:A 0.000245206
9 *5987:A0 *542:6 1.08758e-05
10 *6043:S *5987:A0 8.47501e-05
11 *6043:S *6539:A 7.70828e-05
12 *6043:S *526:6 1.1392e-05
13 *6368:CLK *5987:A0 5.05521e-05
14 *6368:D *5987:A0 4.82319e-06
15 *230:128 *6539:A 0.000231571
16 *232:157 *5987:A0 0.000321727
17 *232:167 *5987:A0 4.43871e-06
18 *329:87 *6539:A 0
19 *460:80 *5987:A0 3.50657e-05
20 *485:118 *526:6 9.27495e-05
*RES
1 *6368:Q *526:6 4.465 
2 *526:6 *5987:A0 16.865 
3 *526:6 *6539:A 10.775 
*END

*D_NET *527 0.00260507
*CONN
*I *6555:A I *D sky130_fd_sc_hd__dlygate4sd3_1
*I *5996:A0 I *D sky130_fd_sc_hd__mux4_1
*I *6369:Q O *D sky130_fd_sc_hd__dfxtp_1
*CAP
1 *6555:A 6.31637e-05
2 *5996:A0 0.000731554
3 *6369:Q 0.000158963
4 *527:6 0.000953681
5 *5996:A0 *5996:A3 0.000313857
6 *5996:A0 *6018:A1 0
7 *5996:A0 *6606:A 6.35535e-05
8 *6555:A *6073:A0 4.66108e-05
9 *6369:CLK *5996:A0 1.83756e-05
10 *6369:D *5996:A0 3.51254e-06
11 *298:18 *5996:A0 0
12 *298:33 *5996:A0 4.20297e-05
13 *298:33 *527:6 2.34083e-05
14 *319:12 *5996:A0 0
15 *329:10 *6555:A 6.00003e-05
16 *329:29 *6555:A 9.50342e-06
17 *493:10 *6555:A 0.000116853
*RES
1 *6369:Q *527:6 3.43 
2 *527:6 *5996:A0 15.26 
3 *527:6 *6555:A 7.43 
*END

*D_NET *528 0.00206088
*CONN
*I *6523:A I *D sky130_fd_sc_hd__dlygate4sd3_1
*I *5931:A1 I *D sky130_fd_sc_hd__mux4_1
*I *6354:Q O *D sky130_fd_sc_hd__dfxtp_1
*CAP
1 *6523:A 0
2 *5931:A1 0.000369709
3 *6354:Q 9.4145e-05
4 *528:12 0.000463854
5 *5931:A1 *5931:A3 0.0001676
6 *5931:A1 *6288:A0 5.2124e-05
7 *5931:A1 *724:151 8.37792e-05
8 *6042:A *5931:A1 0.000364101
9 *6354:D *5931:A1 7.60965e-05
10 *232:143 *528:12 0.000108322
11 *232:151 *5931:A1 0
12 *232:151 *528:12 8.53113e-06
13 *232:157 *5931:A1 8.53113e-06
14 *351:101 *528:12 8.40269e-05
15 *460:78 *5931:A1 6.15308e-05
16 *486:34 *528:12 0.000118527
*RES
1 *6354:Q *528:12 7.775 
2 *528:12 *5931:A1 14 
3 *528:12 *6523:A 1.6 
*END

*D_NET *529 0.00248713
*CONN
*I *6642:A I *D sky130_fd_sc_hd__dlygate4sd3_1
*I *5942:A1 I *D sky130_fd_sc_hd__mux4_1
*I *6355:Q O *D sky130_fd_sc_hd__dfxtp_1
*CAP
1 *6642:A 0
2 *5942:A1 0.00064525
3 *6355:Q 0.000285071
4 *529:16 0.000930321
5 *5942:A1 *6043:A0 6.48746e-05
6 *529:16 *6043:A0 4.66108e-05
7 *529:16 *6061:A1 9.14049e-05
8 *5942:S1 *5942:A1 0.000194868
9 *233:191 *5942:A1 0.000135648
10 *351:119 *529:16 9.30787e-05
*RES
1 *6355:Q *529:16 9.71 
2 *529:16 *5942:A1 10.645 
3 *529:16 *6642:A 1.6 
*END

*D_NET *530 0.00293526
*CONN
*I *6653:A I *D sky130_fd_sc_hd__dlygate4sd3_1
*I *5951:A1 I *D sky130_fd_sc_hd__mux4_1
*I *6356:Q O *D sky130_fd_sc_hd__dfxtp_1
*CAP
1 *6653:A 0.000242014
2 *5951:A1 0.000870311
3 *6356:Q 0
4 *530:4 0.00111233
5 *5951:A1 *5951:A3 0
6 *5951:A1 *6045:A1 7.75054e-05
7 *5951:A1 *6292:A0 4.94404e-05
8 *5951:A1 *746:14 0
9 *5951:A0 *5951:A1 0.000120655
10 *6046:A *6653:A 8.33066e-06
11 *6063:S *5951:A1 0
12 *6356:D *5951:A1 7.21468e-05
13 *6364:CLK *5951:A1 0.000181376
14 *6490:CLK *5951:A1 4.9968e-05
15 *232:118 *5951:A1 1.0183e-05
16 *298:52 *5951:A1 4.82863e-05
17 *319:84 *5951:A1 2.49909e-05
18 *319:84 *6653:A 2.98644e-05
19 *460:66 *5951:A1 0
20 *484:96 *5951:A1 3.78664e-05
*RES
1 *6356:Q *530:4 1.6 
2 *530:4 *5951:A1 19.7 
3 *530:4 *6653:A 9.395 
*END

*D_NET *531 0.00194817
*CONN
*I *6521:A I *D sky130_fd_sc_hd__dlygate4sd3_1
*I *5960:A1 I *D sky130_fd_sc_hd__mux4_1
*I *6357:Q O *D sky130_fd_sc_hd__dfxtp_1
*CAP
1 *6521:A 0.000168908
2 *5960:A1 0.000609401
3 *6357:Q 0
4 *531:6 0.000778309
5 *5960:A1 *5960:A2 1.32668e-05
6 *5960:A1 *5960:A3 0.000135914
7 *5960:A0 *5960:A1 3.00381e-05
8 *5960:S0 *5960:A1 0.000163204
9 *5960:S1 *5960:A1 3.05373e-05
10 *6066:A *5960:A1 0
11 *6066:A *6521:A 0
12 *6294:S *5960:A1 0
13 *486:93 *5960:A1 1.85905e-05
*RES
1 *6357:Q *531:6 3.6 
2 *531:6 *5960:A1 12.435 
3 *531:6 *6521:A 6.255 
*END

*D_NET *532 0.0026697
*CONN
*I *6627:A I *D sky130_fd_sc_hd__dlygate4sd3_1
*I *5969:A1 I *D sky130_fd_sc_hd__mux4_1
*I *6358:Q O *D sky130_fd_sc_hd__dfxtp_1
*CAP
1 *6627:A 6.31638e-05
2 *5969:A1 0.000444541
3 *6358:Q 0.000129931
4 *532:6 0.000637636
5 *5969:A1 *6612:A 7.3664e-05
6 *5969:A1 *548:8 1.72854e-05
7 *5969:A1 *768:18 0
8 *6627:A *768:14 1.10435e-05
9 *6627:A *768:16 2.88689e-05
10 *6013:A *5969:A1 0
11 *6297:A *5969:A1 0.000244877
12 *6358:D *5969:A1 0.000272835
13 *6358:D *532:6 0.000185823
14 *329:50 *5969:A1 0.000136877
15 *460:43 *5969:A1 0.000354126
16 *460:66 *6627:A 6.90254e-05
*RES
1 *6358:Q *532:6 3.43 
2 *532:6 *5969:A1 15.2 
3 *532:6 *6627:A 6.98 
*END

*D_NET *533 0.00292795
*CONN
*I *6622:A I *D sky130_fd_sc_hd__dlygate4sd3_1
*I *5978:A1 I *D sky130_fd_sc_hd__mux4_1
*I *6359:Q O *D sky130_fd_sc_hd__dfxtp_1
*CAP
1 *6622:A 0.000248228
2 *5978:A1 0.000675257
3 *6359:Q 0
4 *533:4 0.000923486
5 *5978:A1 *5978:A2 0.000302476
6 *5978:A1 *5978:A3 8.89019e-05
7 *5978:A1 *541:6 0.000171517
8 *5978:A1 *779:33 0
9 *6622:A *779:181 0.000224254
10 *6070:A *5978:A1 7.23602e-05
11 *6484:CLK *6622:A 0
12 *319:51 *5978:A1 0.00011209
13 *493:69 *5978:A1 0.000109377
14 *493:71 *6622:A 0
*RES
1 *6359:Q *533:4 1.6 
2 *533:4 *5978:A1 16.34 
3 *533:4 *6622:A 10.295 
*END

*D_NET *534 0.00268569
*CONN
*I *6651:A I *D sky130_fd_sc_hd__dlygate4sd3_1
*I *5987:A1 I *D sky130_fd_sc_hd__mux4_1
*I *6360:Q O *D sky130_fd_sc_hd__dfxtp_1
*CAP
1 *6651:A 0.000135459
2 *5987:A1 0.000207151
3 *6360:Q 0.000395202
4 *534:16 0.000737813
5 *5987:A1 *5987:A3 0.00011151
6 *5987:A1 *542:6 4.39911e-06
7 *534:16 *5987:A2 9.10451e-06
8 *534:16 *5987:A3 5.36281e-05
9 *534:16 *6053:A1 0
10 *5987:A0 *6651:A 0.000245206
11 *5989:A0 *534:16 8.52003e-06
12 *6054:A *6651:A 7.23602e-05
13 *6054:A *534:16 0.000102613
14 *232:157 *6651:A 0.000129056
15 *233:181 *534:16 7.17811e-05
16 *460:80 *6651:A 0.000226716
17 *485:14 *534:16 1.71013e-05
18 *485:86 *534:16 0.000158072
*RES
1 *6360:Q *534:16 11.945 
2 *534:16 *5987:A1 4.39 
3 *534:16 *6651:A 11.06 
*END

*D_NET *535 0.00284347
*CONN
*I *6583:A I *D sky130_fd_sc_hd__dlygate4sd3_1
*I *5996:A1 I *D sky130_fd_sc_hd__mux4_1
*I *6361:Q O *D sky130_fd_sc_hd__dfxtp_1
*CAP
1 *6583:A 0.000177264
2 *5996:A1 0.000689022
3 *6361:Q 6.04177e-05
4 *535:8 0.000926703
5 *5996:A1 *5996:A2 0.00035964
6 *5996:A1 *5996:A3 0.000138544
7 *6583:A *6055:A0 0
8 *5996:S0 *5996:A1 5.84694e-05
9 *6074:A *5996:A1 4.49415e-05
10 *6345:CLK *5996:A1 9.59868e-05
11 *6361:CLK *535:8 5.05437e-05
12 *319:12 *5996:A1 0
13 *319:51 *5996:A1 0
14 *319:51 *6583:A 4.82863e-05
15 *493:27 *5996:A1 0.000164995
16 *493:27 *6583:A 2.86623e-05
*RES
1 *6361:Q *535:8 4.395 
2 *535:8 *5996:A1 15.825 
3 *535:8 *6583:A 6.705 
*END

*D_NET *536 0.00169777
*CONN
*I *5931:A2 I *D sky130_fd_sc_hd__mux4_1
*I *6618:A I *D sky130_fd_sc_hd__dlygate4sd3_1
*I *6338:Q O *D sky130_fd_sc_hd__dfxtp_1
*CAP
1 *5931:A2 0.000432422
2 *6618:A 0
3 *6338:Q 7.69789e-05
4 *536:8 0.0005094
5 *5931:A2 *6004:A0 0.000135652
6 *536:8 *6004:A0 1.16578e-05
7 *5931:A0 *5931:A2 1.10377e-05
8 *232:151 *5931:A2 6.90889e-06
9 *233:181 *5931:A2 0.000137769
10 *486:10 *5931:A2 0.000213622
11 *486:34 *5931:A2 0.000162325
*RES
1 *6338:Q *536:8 2.755 
2 *536:8 *6618:A 1.6 
3 *536:8 *5931:A2 15.0087 
*END

*D_NET *537 0.00240736
*CONN
*I *5942:A2 I *D sky130_fd_sc_hd__mux4_1
*I *6536:A I *D sky130_fd_sc_hd__dlygate4sd3_1
*I *6339:Q O *D sky130_fd_sc_hd__dfxtp_1
*CAP
1 *5942:A2 0.000318826
2 *6536:A 0
3 *6339:Q 0.000278554
4 *537:12 0.00059738
5 *5942:A2 *5942:A3 9.50342e-06
6 *5942:A2 *6043:A0 1.10377e-05
7 *5942:A2 *6043:A1 0.000447708
8 *537:12 *6043:A1 0.000110703
9 *537:12 *6290:A0 8.65905e-05
10 *537:12 *625:122 0
11 *537:12 *724:124 0.000120186
12 *5942:S1 *5942:A2 2.20665e-05
13 *6043:S *5942:A2 8.57024e-05
14 *6044:A *5942:A2 6.76188e-05
15 *6290:S *537:12 0.00012657
16 *6291:A *537:12 2.87867e-05
17 *6355:CLK *5942:A2 4.99619e-05
18 *232:167 *5942:A2 4.10827e-05
19 *232:184 *5942:A2 5.08304e-06
20 *237:169 *5942:A2 0
*RES
1 *6339:Q *537:12 11.57 
2 *537:12 *6536:A 1.6 
3 *537:12 *5942:A2 13.0737 
*END

*D_NET *538 0.00135565
*CONN
*I *5951:A2 I *D sky130_fd_sc_hd__mux4_1
*I *6605:A I *D sky130_fd_sc_hd__dlygate4sd3_1
*I *6340:Q O *D sky130_fd_sc_hd__dfxtp_1
*CAP
1 *5951:A2 0.000352985
2 *6605:A 9.75425e-05
3 *6340:Q 0
4 *538:4 0.000450527
5 *5951:A2 *5951:A3 5.39961e-05
6 *6605:A *6008:A0 0
7 *6605:A *746:14 4.91189e-05
8 *5951:A0 *5951:A2 3.02489e-05
9 *5951:S0 *5951:A2 1.17309e-05
10 *6063:S *5951:A2 5.23362e-05
11 *6364:CLK *6605:A 0
12 *232:141 *5951:A2 6.78922e-05
13 *484:96 *5951:A2 0.000139311
14 *484:96 *6605:A 4.99619e-05
*RES
1 *6340:Q *538:4 1.6 
2 *538:4 *6605:A 7.43 
3 *538:4 *5951:A2 10.6587 
*END

*D_NET *539 0.00147556
*CONN
*I *5960:A2 I *D sky130_fd_sc_hd__mux4_1
*I *6634:A I *D sky130_fd_sc_hd__dlygate4sd3_1
*I *6341:Q O *D sky130_fd_sc_hd__dfxtp_1
*CAP
1 *5960:A2 0.000292846
2 *6634:A 0
3 *6341:Q 3.27232e-05
4 *539:8 0.000325569
5 *5960:A1 *5960:A2 1.32668e-05
6 *5960:S1 *5960:A2 6.25753e-05
7 *6312:S *5960:A2 0.000344725
8 *6312:S *539:8 1.34594e-05
9 *232:143 *5960:A2 0
10 *329:81 *5960:A2 0.000335192
11 *329:81 *539:8 4.82919e-05
12 *486:93 *5960:A2 6.90889e-06
*RES
1 *6341:Q *539:8 2.41 
2 *539:8 *6634:A 1.6 
3 *539:8 *5960:A2 13.5238 
*END

*D_NET *540 0.0012615
*CONN
*I *5969:A2 I *D sky130_fd_sc_hd__mux4_1
*I *6612:A I *D sky130_fd_sc_hd__dlygate4sd3_1
*I *6342:Q O *D sky130_fd_sc_hd__dfxtp_1
*CAP
1 *5969:A2 0.000186769
2 *6612:A 8.29948e-05
3 *6342:Q 1.81623e-05
4 *540:6 0.000287926
5 *5969:A0 *5969:A2 0.000115605
6 *5969:A1 *6612:A 7.3664e-05
7 *6013:A *6612:A 0
8 *233:98 *5969:A2 0.000448095
9 *233:98 *540:6 4.82863e-05
*RES
1 *6342:Q *540:6 2.05 
2 *540:6 *6612:A 7.235 
3 *540:6 *5969:A2 6.74875 
*END

*D_NET *541 0.00112324
*CONN
*I *5978:A2 I *D sky130_fd_sc_hd__mux4_1
*I *6571:A I *D sky130_fd_sc_hd__dlygate4sd3_1
*I *6343:Q O *D sky130_fd_sc_hd__dfxtp_1
*CAP
1 *5978:A2 0.000106422
2 *6571:A 9.49618e-05
3 *6343:Q 3.47336e-05
4 *541:6 0.000236118
5 *5978:A0 *5978:A2 0.00012461
6 *5978:A0 *541:6 4.05674e-06
7 *5978:A1 *5978:A2 0.000302476
8 *5978:A1 *541:6 0.000171517
9 *6014:S *6571:A 4.83411e-05
10 *460:31 *6571:A 0
*RES
1 *6343:Q *541:6 2.74 
2 *541:6 *6571:A 7.235 
3 *541:6 *5978:A2 5.36875 
*END

*D_NET *542 0.00170897
*CONN
*I *5987:A2 I *D sky130_fd_sc_hd__mux4_1
*I *6520:A I *D sky130_fd_sc_hd__dlygate4sd3_1
*I *6344:Q O *D sky130_fd_sc_hd__dfxtp_1
*CAP
1 *5987:A2 0.000265688
2 *6520:A 5.01804e-05
3 *6344:Q 0.000239044
4 *542:6 0.000554912
5 *5987:A2 *5987:A3 5.82176e-05
6 *5987:A2 *625:142 5.23362e-05
7 *6520:A *6650:A 0.000136877
8 *542:6 *5987:A3 1.19928e-05
9 *5987:A0 *5987:A2 0.000160641
10 *5987:A0 *542:6 1.08758e-05
11 *5987:A1 *542:6 4.39911e-06
12 *5987:S0 *5987:A2 4.82863e-05
13 *5987:S1 *5987:A2 2.42236e-05
14 *5989:A0 *5987:A2 8.53113e-06
15 *6290:S *6520:A 4.13171e-05
16 *460:80 *6520:A 3.23391e-05
17 *534:16 *5987:A2 9.10451e-06
*RES
1 *6344:Q *542:6 4.12 
2 *542:6 *6520:A 7.235 
3 *542:6 *5987:A2 9.62375 
*END

*D_NET *543 0.00117945
*CONN
*I *5996:A2 I *D sky130_fd_sc_hd__mux4_1
*I *6606:A I *D sky130_fd_sc_hd__dlygate4sd3_1
*I *6345:Q O *D sky130_fd_sc_hd__dfxtp_1
*CAP
1 *5996:A2 0.00012753
2 *6606:A 8.51981e-05
3 *6345:Q 0
4 *543:4 0.000212728
5 *5996:A0 *6606:A 6.35535e-05
6 *5996:A1 *5996:A2 0.00035964
7 *5996:S0 *5996:A2 4.82863e-05
8 *6345:CLK *5996:A2 0.000166666
9 *298:18 *6606:A 0.000115847
10 *319:12 *6606:A 0
*RES
1 *6345:Q *543:4 1.6 
2 *543:4 *6606:A 8 
3 *543:4 *5996:A2 6.40375 
*END

*D_NET *544 0.00219304
*CONN
*I *6522:A I *D sky130_fd_sc_hd__dlygate4sd3_1
*I *5931:A3 I *D sky130_fd_sc_hd__mux4_1
*I *6480:Q O *D sky130_fd_sc_hd__dfxtp_1
*CAP
1 *6522:A 0.000199344
2 *5931:A3 0.000140136
3 *6480:Q 0.000219022
4 *544:10 0.000558502
5 *544:10 *6004:A0 0
6 *544:10 *724:143 0.000117116
7 *5931:A0 *5931:A3 0.000121716
8 *5931:A1 *5931:A3 0.0001676
9 *6289:A *544:10 0
10 *232:151 *5931:A3 6.1357e-05
11 *232:157 *5931:A3 4.66108e-05
12 *460:78 *6522:A 0.000358448
13 *460:78 *544:10 0.000174649
14 *460:80 *544:10 2.85364e-05
*RES
1 *6480:Q *544:10 7.83 
2 *544:10 *5931:A3 7.17 
3 *544:10 *6522:A 7.785 
*END

*D_NET *545 0.00273922
*CONN
*I *5942:A3 I *D sky130_fd_sc_hd__mux4_1
*I *6646:A I *D sky130_fd_sc_hd__dlygate4sd3_1
*I *6481:Q O *D sky130_fd_sc_hd__dfxtp_1
*CAP
1 *5942:A3 8.32591e-05
2 *6646:A 0.000610682
3 *6481:Q 0.000405088
4 *545:8 0.00109903
5 *6646:A *6290:A0 3.72916e-05
6 *5935:A0 *6646:A 0
7 *5942:A2 *5942:A3 9.50342e-06
8 *5945:A0 *6646:A 9.50342e-06
9 *5945:S *6646:A 3.26889e-05
10 *5946:A0 *6646:A 0.000191232
11 *232:184 *5942:A3 6.65612e-05
12 *232:184 *6646:A 0.000124532
13 *237:150 *6646:A 6.98477e-05
14 *237:169 *5942:A3 0
15 *237:169 *6646:A 0
*RES
1 *6481:Q *545:8 7.845 
2 *545:8 *6646:A 14.31 
3 *545:8 *5942:A3 5.235 
*END

*D_NET *546 0.00171601
*CONN
*I *5951:A3 I *D sky130_fd_sc_hd__mux4_1
*I *6593:A I *D sky130_fd_sc_hd__dlygate4sd3_1
*I *6482:Q O *D sky130_fd_sc_hd__dfxtp_1
*CAP
1 *5951:A3 0.000478414
2 *6593:A 1.85694e-05
3 *6482:Q 7.75044e-05
4 *546:8 0.000574487
5 *5951:A3 *6292:A0 3.39151e-05
6 *5951:A1 *5951:A3 0
7 *5951:A2 *5951:A3 5.39961e-05
8 *6046:A *5951:A3 1.16578e-05
9 *6063:S *5951:A3 7.63476e-05
10 *6064:A *5951:A3 0.000136884
11 *16:5 *5951:A3 0
12 *319:84 *5951:A3 0.000203402
13 *319:84 *6593:A 9.53428e-06
14 *319:84 *546:8 4.12959e-05
*RES
1 *6482:Q *546:8 2.755 
2 *546:8 *6593:A 1.96 
3 *546:8 *5951:A3 14.63 
*END

*D_NET *547 0.00181318
*CONN
*I *6602:A I *D sky130_fd_sc_hd__dlygate4sd3_1
*I *5960:A3 I *D sky130_fd_sc_hd__mux4_1
*I *6483:Q O *D sky130_fd_sc_hd__dfxtp_1
*CAP
1 *6602:A 8.31484e-05
2 *5960:A3 0.000207007
3 *6483:Q 0
4 *547:6 0.000290155
5 *5960:A3 *6047:A1 6.02202e-05
6 *5960:A3 *6294:A0 7.23602e-05
7 *6602:A *6047:A1 0.000153922
8 *6602:A *6294:A0 0.000187071
9 *5960:A0 *5960:A3 4.82919e-05
10 *5960:A1 *5960:A3 0.000135914
11 *5960:S0 *5960:A3 0.000163204
12 *232:141 *5960:A3 0.000234685
13 *319:105 *5960:A3 1.44259e-05
14 *319:105 *6602:A 3.04396e-05
15 *486:93 *5960:A3 0.000132339
*RES
1 *6483:Q *547:6 3.6 
2 *547:6 *5960:A3 10.38 
3 *547:6 *6602:A 6.705 
*END

*D_NET *548 0.00278977
*CONN
*I *5969:A3 I *D sky130_fd_sc_hd__mux4_1
*I *6552:A I *D sky130_fd_sc_hd__dlygate4sd3_1
*I *6484:Q O *D sky130_fd_sc_hd__dfxtp_1
*CAP
1 *5969:A3 0.000455597
2 *6552:A 0.000226911
3 *6484:Q 0.000136216
4 *548:8 0.000818723
5 *5969:A3 *6049:A0 0
6 *6552:A *768:14 0.000191355
7 *6552:A *768:16 0.00012972
8 *5969:A1 *548:8 1.72854e-05
9 *5969:S0 *5969:A3 1.43521e-05
10 *6068:A *5969:A3 3.95347e-05
11 *6358:CLK *5969:A3 2.51954e-05
12 *6358:CLK *548:8 0.000118387
13 *6358:D *5969:A3 0.000230649
14 *6358:D *548:8 0.000125154
15 *6366:D *5969:A3 0.000136877
16 *460:43 *6552:A 3.54125e-05
17 *460:66 *5969:A3 8.84015e-05
*RES
1 *6484:Q *548:8 4.735 
2 *548:8 *6552:A 10.325 
3 *548:8 *5969:A3 14.255 
*END

*D_NET *549 0.00196742
*CONN
*I *5978:A3 I *D sky130_fd_sc_hd__mux4_1
*I *6526:A I *D sky130_fd_sc_hd__dlygate4sd3_1
*I *6485:Q O *D sky130_fd_sc_hd__dfxtp_1
*CAP
1 *5978:A3 0.000406922
2 *6526:A 0.000138263
3 *6485:Q 0.000110353
4 *549:6 0.000655538
5 *5978:A3 *6298:A0 1.19028e-05
6 *5978:A3 *6298:A1 9.22206e-05
7 *5978:A1 *5978:A3 8.89019e-05
8 *5978:S0 *5978:A3 1.89685e-05
9 *6070:A *5978:A3 2.66852e-05
10 *6298:S *5978:A3 9.48147e-05
11 *6298:S *6526:A 1.10435e-05
12 *6359:D *5978:A3 0.00016113
13 *319:51 *5978:A3 7.47215e-05
14 *460:31 *5978:A3 7.596e-05
*RES
1 *6485:Q *549:6 3.085 
2 *549:6 *6526:A 8 
3 *549:6 *5978:A3 14.3 
*END

*D_NET *550 0.00167469
*CONN
*I *5987:A3 I *D sky130_fd_sc_hd__mux4_1
*I *6650:A I *D sky130_fd_sc_hd__dlygate4sd3_1
*I *6486:Q O *D sky130_fd_sc_hd__dfxtp_1
*CAP
1 *5987:A3 0.00012226
2 *6650:A 0.000175504
3 *6486:Q 0.000141835
4 *550:10 0.000439599
5 *6650:A *625:122 6.5525e-05
6 *6650:A *724:124 0
7 *550:10 *724:124 0
8 *5987:A0 *5987:A3 0.000144583
9 *5987:A1 *5987:A3 0.00011151
10 *5987:A2 *5987:A3 5.82176e-05
11 *5987:S0 *5987:A3 4.82863e-05
12 *6290:S *6650:A 1.23331e-05
13 *6301:A *6650:A 4.40812e-05
14 *6301:A *550:10 1.01661e-05
15 *6520:A *6650:A 0.000136877
16 *460:80 *6650:A 1.94723e-05
17 *460:80 *550:10 5.12942e-05
18 *485:20 *550:10 2.75229e-05
19 *534:16 *5987:A3 5.36281e-05
20 *542:6 *5987:A3 1.19928e-05
*RES
1 *6486:Q *550:10 5.685 
2 *550:10 *6650:A 7.53 
3 *550:10 *5987:A3 7.635 
*END

*D_NET *551 0.00219627
*CONN
*I *5996:A3 I *D sky130_fd_sc_hd__mux4_1
*I *6641:A I *D sky130_fd_sc_hd__dlygate4sd3_1
*I *6487:Q O *D sky130_fd_sc_hd__dfxtp_1
*CAP
1 *5996:A3 0.00034061
2 *6641:A 9.35452e-05
3 *6487:Q 0.00010017
4 *551:6 0.000534325
5 *5996:A3 *6018:A0 4.70919e-05
6 *6641:A *6018:A1 5.21046e-05
7 *6641:A *636:23 2.42236e-05
8 *5996:A0 *5996:A3 0.000313857
9 *5996:A1 *5996:A3 0.000138544
10 *6019:A *551:6 2.11084e-05
11 *298:33 *5996:A3 0.000530686
12 *319:12 *5996:A3 0
13 *460:14 *6641:A 0
*RES
1 *6487:Q *551:6 3.085 
2 *551:6 *6641:A 7.235 
3 *551:6 *5996:A3 14.075 
*END

*D_NET *552 0.0032564
*CONN
*I *5925:A1 I *D sky130_fd_sc_hd__mux4_1
*I *6545:A I *D sky130_fd_sc_hd__dlygate4sd3_1
*I *6346:Q O *D sky130_fd_sc_hd__dfxtp_1
*CAP
1 *5925:A1 0
2 *6545:A 0.000296763
3 *6346:Q 0.000623622
4 *552:10 0.000920384
5 *6545:A *6134:A0 0.000201508
6 *6545:A *6548:A 0.000125143
7 *552:10 *6187:A0 0
8 *552:10 *6548:A 1.1561e-05
9 *5925:S0 *6545:A 0
10 *5955:A0 *6545:A 0
11 *5955:A0 *552:10 0
12 *5990:A1 *6545:A 8.82557e-05
13 *6024:A *6545:A 0.000141599
14 *6346:CLK *552:10 0.000267354
15 *6346:D *552:10 0.000369795
16 *237:124 *6545:A 0.000210411
*RES
1 *6346:Q *552:10 12.33 
2 *552:10 *6545:A 11.25 
3 *552:10 *5925:A1 3.6 
*END

*D_NET *553 0.0036653
*CONN
*I *6579:A I *D sky130_fd_sc_hd__dlygate4sd3_1
*I *5940:A1 I *D sky130_fd_sc_hd__mux4_1
*I *6347:Q O *D sky130_fd_sc_hd__dfxtp_1
*CAP
1 *6579:A 0.00031314
2 *5940:A1 0.000683264
3 *6347:Q 3.39785e-05
4 *553:6 0.00103038
5 *5940:A1 *6136:A0 5.53249e-06
6 *6579:A *6025:A0 0.000535086
7 *5928:A0 *6579:A 0.000222595
8 *5941:A1 *6579:A 0.000134938
9 *6347:D *5940:A1 0.00034463
10 *225:136 *5940:A1 0
11 *226:133 *6579:A 0
12 *226:170 *6579:A 0
13 *239:180 *6579:A 8.73389e-06
14 *239:184 *6579:A 0.00010492
15 *481:35 *5940:A1 0.000232461
16 *481:35 *553:6 1.56428e-05
17 *481:41 *5940:A1 0
*RES
1 *6347:Q *553:6 2.05 
2 *553:6 *5940:A1 14.915 
3 *553:6 *6579:A 14.165 
*END

*D_NET *554 0.00220409
*CONN
*I *5949:A1 I *D sky130_fd_sc_hd__mux4_1
*I *6525:A I *D sky130_fd_sc_hd__dlygate4sd3_1
*I *6348:Q O *D sky130_fd_sc_hd__dfxtp_1
*CAP
1 *5949:A1 0.000601762
2 *6525:A 0.00015127
3 *6348:Q 0
4 *554:6 0.000753033
5 *5949:A1 *5949:A2 1.10377e-05
6 *5949:A1 *5949:A3 2.96334e-05
7 *5949:A1 *570:10 5.67657e-05
8 *6525:A *625:116 7.13792e-05
9 *5949:A0 *5949:A1 2.75145e-05
10 *5949:S1 *5949:A1 1.83756e-05
11 *5954:A0 *5949:A1 0.000131344
12 *5954:A0 *6525:A 8.7152e-06
13 *6029:S *5949:A1 7.63125e-05
14 *226:204 *5949:A1 5.65627e-05
15 *226:204 *6525:A 7.98631e-05
16 *309:69 *5949:A1 4.97036e-05
17 *309:69 *6525:A 4.08641e-05
18 *411:111 *6525:A 0
19 *495:88 *5949:A1 3.9953e-05
*RES
1 *6348:Q *554:6 3.6 
2 *554:6 *6525:A 6.705 
3 *554:6 *5949:A1 12.06 
*END

*D_NET *555 0.00217163
*CONN
*I *6560:A I *D sky130_fd_sc_hd__dlygate4sd3_1
*I *5958:A1 I *D sky130_fd_sc_hd__mux4_1
*I *6349:Q O *D sky130_fd_sc_hd__dfxtp_1
*CAP
1 *6560:A 0.000438329
2 *5958:A1 0.000390982
3 *6349:Q 0
4 *555:4 0.000829311
5 *5958:A1 *5958:A2 8.33909e-05
6 *5958:A1 *5958:A3 0.000117898
7 *6560:A *746:45 0
8 *5954:A1 *6560:A 0
9 *5958:A0 *5958:A1 0.000176633
10 *5958:S1 *5958:A1 7.06865e-05
11 *6193:S *5958:A1 1.37328e-05
12 *6389:CLK *6560:A 4.9253e-06
13 *6389:D *6560:A 4.57447e-05
*RES
1 *6349:Q *555:4 1.6 
2 *555:4 *5958:A1 11.33 
3 *555:4 *6560:A 11.54 
*END

*D_NET *556 0.00247779
*CONN
*I *6595:A I *D sky130_fd_sc_hd__dlygate4sd3_1
*I *5967:A1 I *D sky130_fd_sc_hd__mux4_1
*I *6350:Q O *D sky130_fd_sc_hd__dfxtp_1
*CAP
1 *6595:A 0.000134792
2 *5967:A1 0.000586343
3 *6350:Q 0
4 *556:6 0.000721136
5 *5967:A1 *5967:A2 1.0284e-05
6 *5967:A1 *6195:A0 1.13785e-05
7 *5967:A1 *625:51 0
8 *5967:A1 *712:53 0.000116624
9 *6595:A *6031:A0 0.000271308
10 *5967:A0 *5967:A1 0.00025652
11 *6031:S *6595:A 0.00023468
12 *226:131 *5967:A1 7.96104e-06
13 *230:41 *5967:A1 3.983e-05
14 *230:41 *6595:A 4.11194e-05
15 *237:97 *6595:A 1.34503e-05
16 *295:20 *5967:A1 3.23663e-05
*RES
1 *6350:Q *556:6 3.6 
2 *556:6 *5967:A1 11.64 
3 *556:6 *6595:A 7.5 
*END

*D_NET *557 0.00204475
*CONN
*I *6540:A I *D sky130_fd_sc_hd__dlygate4sd3_1
*I *5976:A1 I *D sky130_fd_sc_hd__mux4_1
*I *6351:Q O *D sky130_fd_sc_hd__dfxtp_1
*CAP
1 *6540:A 9.0643e-05
2 *5976:A1 0.000626975
3 *6351:Q 0
4 *557:4 0.000717618
5 *5976:A1 *5976:A3 0.000265034
6 *5976:A1 *6197:A0 7.23602e-05
7 *5976:A0 *5976:A1 0.000139245
8 *5981:A0 *5976:A1 9.29751e-06
9 *6351:D *5976:A1 0.000123573
10 *232:69 *5976:A1 0
*RES
1 *6351:Q *557:4 1.6 
2 *557:4 *5976:A1 16.22 
3 *557:4 *6540:A 3.01 
*END

*D_NET *558 0.00233427
*CONN
*I *6630:A I *D sky130_fd_sc_hd__dlygate4sd3_1
*I *5985:A1 I *D sky130_fd_sc_hd__mux4_1
*I *6352:Q O *D sky130_fd_sc_hd__dfxtp_1
*CAP
1 *6630:A 0.000150365
2 *5985:A1 0.000301994
3 *6352:Q 0
4 *558:4 0.000452359
5 *5985:A1 *6587:A 7.23602e-05
6 *6630:A *6035:A0 0.000200615
7 *6630:A *6199:A1 3.96737e-05
8 *5988:S0 *5985:A1 3.52139e-06
9 *5988:S0 *6630:A 6.77417e-05
10 *6352:D *5985:A1 8.88799e-05
11 *6352:D *6630:A 9.03508e-06
12 *232:25 *5985:A1 0.000472736
13 *233:45 *5985:A1 0.000166269
14 *309:52 *6630:A 0.000232111
15 *309:65 *6630:A 7.66083e-05
*RES
1 *6352:Q *558:4 1.6 
2 *558:4 *5985:A1 12.89 
3 *558:4 *6630:A 6.115 
*END

*D_NET *559 0.00334501
*CONN
*I *6619:A I *D sky130_fd_sc_hd__dlygate4sd3_1
*I *5994:A1 I *D sky130_fd_sc_hd__mux4_1
*I *6353:Q O *D sky130_fd_sc_hd__dfxtp_1
*CAP
1 *6619:A 5.03608e-05
2 *5994:A1 0.00112129
3 *6353:Q 0
4 *559:4 0.00117165
5 *5994:A1 *5997:S1 0.000209624
6 *5994:A1 *6201:A0 0
7 *5994:A1 *791:35 0.000309612
8 *5948:S1 *5994:A1 2.97096e-05
9 *5994:S0 *5994:A1 0
10 *6353:CLK *5994:A1 8.46654e-05
11 *6353:D *5994:A1 0.000166946
12 *226:85 *5994:A1 1.0183e-05
13 *233:31 *5994:A1 9.93698e-05
14 *372:74 *5994:A1 4.16353e-05
15 *372:74 *6619:A 4.99619e-05
*RES
1 *6353:Q *559:4 1.6 
2 *559:4 *5994:A1 20.195 
3 *559:4 *6619:A 2.665 
*END

*D_NET *560 0.00188349
*CONN
*I *5925:A2 I *D sky130_fd_sc_hd__mux4_1
*I *6548:A I *D sky130_fd_sc_hd__dlygate4sd3_1
*I *6394:Q O *D sky130_fd_sc_hd__dfxtp_1
*CAP
1 *5925:A2 0.000296876
2 *6548:A 0.000201367
3 *6394:Q 0.000141121
4 *560:8 0.000639365
5 *6548:A *6187:A0 9.24049e-05
6 *6548:A *6187:A1 0
7 *6548:A *724:68 0
8 *5925:A0 *5925:A2 0.000184103
9 *5925:S0 *5925:A2 4.82863e-05
10 *6024:A *6548:A 0.000143266
11 *6545:A *6548:A 0.000125143
12 *552:10 *6548:A 1.1561e-05
*RES
1 *6394:Q *560:8 3.445 
2 *560:8 *6548:A 10.295 
3 *560:8 *5925:A2 7.21375 
*END

*D_NET *561 0.00187235
*CONN
*I *5940:A2 I *D sky130_fd_sc_hd__mux4_1
*I *6544:A I *D sky130_fd_sc_hd__dlygate4sd3_1
*I *6395:Q O *D sky130_fd_sc_hd__dfxtp_1
*CAP
1 *5940:A2 0.000679076
2 *6544:A 2.21004e-05
3 *6395:Q 5.3481e-05
4 *561:6 0.000754658
5 *5940:A2 *6025:A0 1.0284e-05
6 *6347:D *5940:A2 0.00010045
7 *225:136 *5940:A2 0
8 *226:131 *5940:A2 1.7635e-05
9 *226:170 *5940:A2 0.000111543
10 *239:180 *5940:A2 1.59999e-05
11 *481:35 *5940:A2 0.000107121
*RES
1 *6395:Q *561:6 2.395 
2 *561:6 *6544:A 1.96 
3 *561:6 *5940:A2 14.6225 
*END

*D_NET *562 0.00242093
*CONN
*I *5949:A2 I *D sky130_fd_sc_hd__mux4_1
*I *6603:A I *D sky130_fd_sc_hd__dlygate4sd3_1
*I *6396:Q O *D sky130_fd_sc_hd__dfxtp_1
*CAP
1 *5949:A2 0.000667582
2 *6603:A 0.00015283
3 *6396:Q 0
4 *562:4 0.000820412
5 *5949:A2 *6027:A0 2.16917e-05
6 *5949:A2 *6027:A1 0.000235568
7 *5949:A1 *5949:A2 1.10377e-05
8 *5972:A1 *6603:A 0.000142314
9 *6029:S *5949:A2 0.000111543
10 *6348:D *5949:A2 0.000112893
11 *6388:CLK *5949:A2 5.9074e-05
12 *270:12 *6603:A 8.59813e-05
13 *495:56 *6603:A 0
*RES
1 *6396:Q *562:4 1.6 
2 *562:4 *6603:A 9.02 
3 *562:4 *5949:A2 14.5288 
*END

*D_NET *563 0.00272861
*CONN
*I *5958:A2 I *D sky130_fd_sc_hd__mux4_1
*I *6564:A I *D sky130_fd_sc_hd__dlygate4sd3_1
*I *6397:Q O *D sky130_fd_sc_hd__dfxtp_1
*CAP
1 *5958:A2 6.4411e-05
2 *6564:A 0.0002576
3 *6397:Q 0.000450074
4 *563:10 0.000772086
5 *6564:A *6122:A1 2.16917e-05
6 *6564:A *6140:A0 0.000236355
7 *6564:A *757:83 6.26945e-05
8 *6564:A *757:87 3.09164e-05
9 *5958:A0 *5958:A2 3.39944e-05
10 *5958:A0 *6564:A 0.000155909
11 *5958:A1 *5958:A2 8.33909e-05
12 *5958:S1 *5958:A2 6.45317e-05
13 *5958:S1 *6564:A 8.89751e-05
14 *6349:D *563:10 1.54049e-05
15 *6389:D *563:10 0
16 *483:63 *5958:A2 0.000114492
17 *483:63 *563:10 0.000248565
18 *483:65 *563:10 2.75229e-05
*RES
1 *6397:Q *563:10 9.495 
2 *563:10 *6564:A 9.405 
3 *563:10 *5958:A2 5.94375 
*END

*D_NET *564 0.00270797
*CONN
*I *5967:A2 I *D sky130_fd_sc_hd__mux4_1
*I *6648:A I *D sky130_fd_sc_hd__dlygate4sd3_1
*I *6398:Q O *D sky130_fd_sc_hd__dfxtp_1
*CAP
1 *5967:A2 0.000509769
2 *6648:A 0.000377398
3 *6398:Q 0
4 *564:4 0.000887167
5 *5967:A2 *5967:A3 2.60986e-05
6 *5967:A2 *6195:A0 7.06865e-05
7 *5967:A2 *6573:A 2.34345e-05
8 *5967:A2 *658:24 0.000182025
9 *6648:A *5904:A 6.47516e-05
10 *6648:A *658:24 0.000149093
11 *6648:A *768:93 0.000116158
12 *5967:A1 *5967:A2 1.0284e-05
13 *5967:S0 *5967:A2 0
14 *6398:D *6648:A 1.40723e-06
15 *226:114 *5967:A2 0.000289698
*RES
1 *6398:Q *564:4 1.6 
2 *564:4 *6648:A 11.225 
3 *564:4 *5967:A2 14.2325 
*END

*D_NET *565 0.00140652
*CONN
*I *5976:A2 I *D sky130_fd_sc_hd__mux4_1
*I *6518:A I *D sky130_fd_sc_hd__dlygate4sd3_1
*I *6399:Q O *D sky130_fd_sc_hd__dfxtp_1
*CAP
1 *5976:A2 0.000352313
2 *6518:A 0.000131677
3 *6399:Q 0
4 *565:4 0.00048399
5 *6518:A *779:79 0
6 *5977:A1 *5976:A2 4.99619e-05
7 *5977:S *5976:A2 1.34594e-05
8 *5981:A0 *5976:A2 0.000199833
9 *230:81 *5976:A2 6.10014e-05
10 *233:45 *5976:A2 3.96999e-05
11 *233:45 *6518:A 0
12 *372:16 *6518:A 7.45881e-05
*RES
1 *6399:Q *565:4 1.6 
2 *565:4 *6518:A 8.255 
3 *565:4 *5976:A2 11.5437 
*END

*D_NET *566 0.00126041
*CONN
*I *5985:A2 I *D sky130_fd_sc_hd__mux4_1
*I *6587:A I *D sky130_fd_sc_hd__dlygate4sd3_1
*I *6400:Q O *D sky130_fd_sc_hd__dfxtp_1
*CAP
1 *5985:A2 0.000400609
2 *6587:A 6.55702e-05
3 *6400:Q 0
4 *566:4 0.000466179
5 *5985:A2 *5985:A3 5.07362e-05
6 *5985:A2 *768:44 2.48249e-05
7 *5985:A0 *5985:A2 0.000125345
8 *5985:A1 *6587:A 7.23602e-05
9 *5985:S0 *5985:A2 3.82323e-06
10 *232:21 *5985:A2 1.04217e-05
11 *233:45 *6587:A 4.05358e-05
*RES
1 *6400:Q *566:4 1.6 
2 *566:4 *6587:A 7.085 
3 *566:4 *5985:A2 10.6587 
*END

*D_NET *567 0.00280425
*CONN
*I *5994:A2 I *D sky130_fd_sc_hd__mux4_1
*I *6543:A I *D sky130_fd_sc_hd__dlygate4sd3_1
*I *6401:Q O *D sky130_fd_sc_hd__dfxtp_1
*CAP
1 *5994:A2 0.00021201
2 *6543:A 0.000232929
3 *6401:Q 0.00025798
4 *567:8 0.000702919
5 *5995:S *6543:A 0
6 *5999:A0 *5994:A2 2.32719e-05
7 *5999:A0 *6543:A 9.37731e-05
8 *5999:A1 *5994:A2 0.000154891
9 *6130:S *5994:A2 0.00036357
10 *6130:S *6543:A 2.97004e-06
11 *6148:S *6543:A 0.00023468
12 *6195:S *5994:A2 1.10377e-05
13 *237:66 *567:8 0.000297193
14 *295:20 *6543:A 0.000198945
15 *428:75 *5994:A2 0
16 *428:75 *6543:A 1.80792e-05
*RES
1 *6401:Q *567:8 7.845 
2 *567:8 *6543:A 8.79 
3 *567:8 *5994:A2 9.13875 
*END

*D_NET *568 0.00158372
*CONN
*I *5925:A3 I *D sky130_fd_sc_hd__mux4_1
*I *6649:A I *D sky130_fd_sc_hd__dlygate4sd3_1
*I *6418:Q O *D sky130_fd_sc_hd__dfxtp_1
*CAP
1 *5925:A3 0.000265422
2 *6649:A 0
3 *6418:Q 7.65698e-05
4 *568:8 0.000341992
5 *5925:A3 *6023:A1 0.00033134
6 *5925:A3 *6187:A0 0.000160635
7 *568:8 *6187:A0 5.4155e-06
8 *5955:A0 *5925:A3 0.000186842
9 *6024:A *5925:A3 0.000136838
10 *309:101 *5925:A3 7.86654e-05
*RES
1 *6418:Q *568:8 2.755 
2 *568:8 *6649:A 1.6 
3 *568:8 *5925:A3 13.475 
*END

*D_NET *569 0.00176181
*CONN
*I *5940:A3 I *D sky130_fd_sc_hd__mux4_1
*I *6645:A I *D sky130_fd_sc_hd__dlygate4sd3_1
*I *6419:Q O *D sky130_fd_sc_hd__dfxtp_1
*CAP
1 *5940:A3 0.00039669
2 *6645:A 0.000113201
3 *6419:Q 0
4 *569:4 0.000509891
5 *5940:A3 *6025:A0 4.9253e-06
6 *6645:A *6025:A1 0.000124895
7 *6645:A *6189:A0 0.000124895
8 *6645:A *724:64 0
9 *6026:A *6645:A 0
10 *239:180 *5940:A3 0.00048731
*RES
1 *6419:Q *569:4 1.6 
2 *569:4 *6645:A 8.12 
3 *569:4 *5940:A3 9.1 
*END

*D_NET *570 0.00116388
*CONN
*I *5949:A3 I *D sky130_fd_sc_hd__mux4_1
*I *6565:A I *D sky130_fd_sc_hd__dlygate4sd3_1
*I *6420:Q O *D sky130_fd_sc_hd__dfxtp_1
*CAP
1 *5949:A3 4.2074e-05
2 *6565:A 5.56461e-05
3 *6420:Q 0.00027885
4 *570:10 0.000376571
5 *5949:A1 *5949:A3 2.96334e-05
6 *5949:A1 *570:10 5.67657e-05
7 *5949:S0 *6565:A 0.000140905
8 *6029:S *6565:A 1.01661e-05
9 *6348:D *6565:A 7.63204e-05
10 *411:111 *6565:A 8.09021e-06
11 *495:88 *570:10 8.88631e-05
*RES
1 *6420:Q *570:10 5.53 
2 *570:10 *6565:A 7.49 
3 *570:10 *5949:A3 2.395 
*END

*D_NET *571 0.00157491
*CONN
*I *6632:A I *D sky130_fd_sc_hd__dlygate4sd3_1
*I *5958:A3 I *D sky130_fd_sc_hd__mux4_1
*I *6421:Q O *D sky130_fd_sc_hd__dfxtp_1
*CAP
1 *6632:A 0.000165431
2 *5958:A3 0.000226825
3 *6421:Q 6.38574e-05
4 *571:8 0.000456113
5 *5958:A3 *6193:A0 0.000104952
6 *5958:A3 *757:75 3.59997e-05
7 *5958:A3 *757:79 1.43521e-05
8 *6632:A *6193:A0 0
9 *6632:A *757:56 0
10 *6632:A *757:75 3.85797e-05
11 *571:8 *757:75 2.77183e-05
12 *5958:A0 *5958:A3 0.000151873
13 *5958:A1 *5958:A3 0.000117898
14 *6029:S *6632:A 0
15 *6349:D *5958:A3 0.000114492
16 *6349:D *6632:A 8.53113e-06
17 *339:50 *6632:A 4.82863e-05
*RES
1 *6421:Q *571:8 4.395 
2 *571:8 *5958:A3 9.345 
3 *571:8 *6632:A 6.705 
*END

*D_NET *572 0.000449566
*CONN
*I *5967:A3 I *D sky130_fd_sc_hd__mux4_1
*I *6573:A I *D sky130_fd_sc_hd__dlygate4sd3_1
*I *6422:Q O *D sky130_fd_sc_hd__dfxtp_1
*CAP
1 *5967:A3 3.9294e-05
2 *6573:A 1.8608e-05
3 *6422:Q 3.38751e-05
4 *572:8 9.17771e-05
5 *5967:A3 *6195:A0 7.06865e-05
6 *6573:A *6195:A0 8.53113e-06
7 *5967:A0 *5967:A3 5.92191e-05
8 *5967:A0 *6573:A 2.97561e-05
9 *5967:A2 *5967:A3 2.60986e-05
10 *5967:A2 *6573:A 2.34345e-05
11 *295:28 *572:8 4.82863e-05
*RES
1 *6422:Q *572:8 4.05 
2 *572:8 *6573:A 4.215 
3 *572:8 *5967:A3 4.98 
*END

*D_NET *573 0.00215804
*CONN
*I *6572:A I *D sky130_fd_sc_hd__dlygate4sd3_1
*I *5976:A3 I *D sky130_fd_sc_hd__mux4_1
*I *6423:Q O *D sky130_fd_sc_hd__dfxtp_1
*CAP
1 *6572:A 0.000134396
2 *5976:A3 0.000462514
3 *6423:Q 6.67921e-05
4 *573:8 0.000663702
5 *5976:A3 *6197:A0 3.67779e-05
6 *5976:A3 *779:73 0
7 *5976:A3 *779:79 3.89899e-05
8 *6572:A *6197:A0 0.000105849
9 *6572:A *779:73 0
10 *5976:A1 *5976:A3 0.000265034
11 *5976:S0 *5976:A3 4.82863e-05
12 *5981:A0 *5976:A3 8.53113e-06
13 *6351:CLK *573:8 3.00381e-05
14 *232:69 *6572:A 0
15 *233:45 *5976:A3 8.43946e-05
16 *339:37 *6572:A 4.82863e-05
17 *382:24 *6572:A 4.82863e-05
18 *401:79 *5976:A3 0.000116158
*RES
1 *6423:Q *573:8 4.395 
2 *573:8 *5976:A3 13.425 
3 *573:8 *6572:A 6.705 
*END

*D_NET *574 0.00254552
*CONN
*I *6604:A I *D sky130_fd_sc_hd__dlygate4sd3_1
*I *5985:A3 I *D sky130_fd_sc_hd__mux4_1
*I *6424:Q O *D sky130_fd_sc_hd__dfxtp_1
*CAP
1 *6604:A 0.000138822
2 *5985:A3 0.000247749
3 *6424:Q 0.000195837
4 *574:10 0.000582408
5 *5985:A3 *6199:A1 0.000174586
6 *5985:A3 *625:72 0.000179277
7 *5985:A3 *768:44 7.4408e-05
8 *6604:A *6199:A0 0.000122331
9 *6604:A *6199:A1 0.000222568
10 *6604:A *746:99 2.03801e-05
11 *6604:A *768:44 4.13709e-05
12 *574:10 *746:99 6.31308e-05
13 *5985:A2 *5985:A3 5.07362e-05
14 *5988:S0 *5985:A3 4.39468e-05
15 *6396:CLK *6604:A 0.000120186
16 *309:52 *5985:A3 0.000267783
*RES
1 *6424:Q *574:10 6.48 
2 *574:10 *5985:A3 11.355 
3 *574:10 *6604:A 7.395 
*END

*D_NET *575 0.00311022
*CONN
*I *6569:A I *D sky130_fd_sc_hd__dlygate4sd3_1
*I *5994:A3 I *D sky130_fd_sc_hd__mux4_1
*I *6425:Q O *D sky130_fd_sc_hd__dfxtp_1
*CAP
1 *6569:A 8.46819e-05
2 *5994:A3 0.000489902
3 *6425:Q 0.000120737
4 *575:8 0.00069532
5 *5994:A3 *5997:S1 2.76356e-05
6 *5994:A3 *790:33 0.000383646
7 *5994:A3 *791:35 2.97373e-05
8 *5999:A1 *5994:A3 0.00022646
9 *6130:S *5994:A3 0.000123326
10 *6149:A *6569:A 0.000163464
11 *6149:A *575:8 0.000347435
12 *225:21 *575:8 4.40073e-05
13 *401:22 *6569:A 0.000110683
14 *401:22 *575:8 0.000263188
*RES
1 *6425:Q *575:8 7.785 
2 *575:8 *5994:A3 15.535 
3 *575:8 *6569:A 5.775 
*END

*D_NET *576 0.00269694
*CONN
*I *5924:A0 I *D sky130_fd_sc_hd__mux4_1
*I *6578:A I *D sky130_fd_sc_hd__dlygate4sd3_1
*I *6439:Q O *D sky130_fd_sc_hd__dfxtp_1
*CAP
1 *5924:A0 0.000937982
2 *6578:A 5.51768e-05
3 *6439:Q 0
4 *576:4 0.000993159
5 *5924:A0 *5924:A1 4.85021e-05
6 *5924:A0 *5924:A2 0.000216697
7 *5924:A0 *724:107 5.20968e-05
8 *6578:A *724:22 3.00381e-05
9 *5924:S0 *5924:A0 4.82863e-05
10 *6236:A *5924:A0 0.000315003
11 *6439:D *6578:A 0
*RES
1 *6439:Q *576:4 1.6 
2 *576:4 *6578:A 2.665 
3 *576:4 *5924:A0 18.605 
*END

*D_NET *577 0.00248092
*CONN
*I *6623:A I *D sky130_fd_sc_hd__dlygate4sd3_1
*I *5939:A0 I *D sky130_fd_sc_hd__mux4_1
*I *6440:Q O *D sky130_fd_sc_hd__dfxtp_1
*CAP
1 *6623:A 0.000114347
2 *5939:A0 0.000757566
3 *6440:Q 7.4327e-05
4 *577:10 0.00094624
5 *5939:A0 *5939:A2 1.10377e-05
6 *5939:A0 *5939:A3 0.000192721
7 *5939:A0 *6237:A0 0.00011577
8 *6623:A *6237:A0 0.00011964
9 *577:10 *735:92 0
10 *5939:S0 *5939:A0 4.99619e-05
11 *5941:A0 *5939:A0 8.09157e-05
12 *6238:A *5939:A0 1.83913e-05
*RES
1 *6440:Q *577:10 6.725 
2 *577:10 *5939:A0 12.445 
3 *577:10 *6623:A 3.79 
*END

*D_NET *578 0.00271475
*CONN
*I *6562:A I *D sky130_fd_sc_hd__dlygate4sd3_1
*I *5948:A0 I *D sky130_fd_sc_hd__mux4_1
*I *6441:Q O *D sky130_fd_sc_hd__dfxtp_1
*CAP
1 *6562:A 0.000142428
2 *5948:A0 0.000503241
3 *6441:Q 0.000176203
4 *578:10 0.000821872
5 *5948:A0 *5948:A1 6.40409e-06
6 *5948:A0 *5948:A2 0.00035264
7 *6562:A *746:109 0.00015212
8 *578:10 *746:109 0.000186092
9 *5948:S1 *5948:A0 8.63479e-05
10 *5948:S1 *578:10 5.03066e-05
11 *5950:A0 *578:10 2.10433e-05
12 *6240:A *6562:A 7.06865e-05
13 *6240:A *578:10 8.53113e-06
14 *6441:D *578:10 8.66724e-05
15 *216:14 *6562:A 5.01654e-05
16 *428:52 *6562:A 0
17 *428:75 *6562:A 0
18 *428:75 *578:10 0
*RES
1 *6441:Q *578:10 7.56 
2 *578:10 *5948:A0 10.185 
3 *578:10 *6562:A 7.02 
*END

*D_NET *579 0.00236128
*CONN
*I *6647:A I *D sky130_fd_sc_hd__dlygate4sd3_1
*I *5957:A0 I *D sky130_fd_sc_hd__mux4_1
*I *6442:Q O *D sky130_fd_sc_hd__dfxtp_1
*CAP
1 *6647:A 0
2 *5957:A0 0.000284659
3 *6442:Q 0.000299323
4 *579:14 0.000583982
5 *5957:A0 *5957:A1 0.000166249
6 *5957:A0 *5957:A2 2.87433e-05
7 *5957:A0 *757:110 0.000115795
8 *5957:S0 *5957:A0 0.0001249
9 *5959:A0 *5957:A0 4.82863e-05
10 *5959:A0 *579:14 0.000122337
11 *6006:S *579:14 0
12 *6242:A *5957:A0 0.000160635
13 *6242:A *579:14 0.000337046
14 *6442:D *579:14 7.4027e-05
15 *485:30 *579:14 1.52945e-05
*RES
1 *6442:Q *579:14 11.33 
2 *579:14 *5957:A0 8.26 
3 *579:14 *6647:A 1.6 
*END

*D_NET *580 0.00246047
*CONN
*I *6519:A I *D sky130_fd_sc_hd__dlygate4sd3_1
*I *5966:A0 I *D sky130_fd_sc_hd__mux4_1
*I *6443:Q O *D sky130_fd_sc_hd__dfxtp_1
*CAP
1 *6519:A 0.000102428
2 *5966:A0 0.00063727
3 *6443:Q 0.000158981
4 *580:12 0.000898679
5 *5966:A0 *5966:A1 9.26347e-05
6 *5966:A0 *5966:A2 9.64638e-06
7 *5966:A0 *5966:A3 0.000214926
8 *580:12 *6243:A1 3.86529e-05
9 *5968:A0 *5966:A0 6.52265e-05
10 *5968:A0 *6519:A 6.6564e-05
11 *6243:S *5966:A0 0.000120655
12 *6243:S *6519:A 3.74161e-05
13 *6416:CLK *580:12 0
14 *216:60 *580:12 1.7386e-05
*RES
1 *6443:Q *580:12 7.94 
2 *580:12 *5966:A0 11.275 
3 *580:12 *6519:A 3.445 
*END

*D_NET *581 0.00360035
*CONN
*I *6597:A I *D sky130_fd_sc_hd__dlygate4sd3_1
*I *5975:A0 I *D sky130_fd_sc_hd__mux4_1
*I *6444:Q O *D sky130_fd_sc_hd__dfxtp_1
*CAP
1 *6597:A 0
2 *5975:A0 0.000566603
3 *6444:Q 0.000336192
4 *581:12 0.000902795
5 *5975:A0 *5975:A1 6.27438e-05
6 *5975:A0 *6215:A1 4.11281e-05
7 *5975:A0 *6245:A0 8.43862e-05
8 *581:12 *768:44 0.000112746
9 *5917:A *5975:A0 0
10 *5975:S0 *5975:A0 0.00015896
11 *6175:S *5975:A0 0.000201503
12 *6241:S *581:12 0.000222244
13 *6246:A *5975:A0 0.000193801
14 *362:95 *581:12 0.000289004
15 *391:122 *5975:A0 0
16 *428:16 *5975:A0 0.000428248
*RES
1 *6444:Q *581:12 11.885 
2 *581:12 *5975:A0 17.225 
3 *581:12 *6597:A 1.6 
*END

*D_NET *582 0.00217384
*CONN
*I *6598:A I *D sky130_fd_sc_hd__dlygate4sd3_1
*I *5984:A0 I *D sky130_fd_sc_hd__mux4_1
*I *6445:Q O *D sky130_fd_sc_hd__dfxtp_1
*CAP
1 *6598:A 0.000137838
2 *5984:A0 0.000492009
3 *6445:Q 0
4 *582:4 0.000629847
5 *5984:A0 *5984:A2 7.30547e-05
6 *5968:A0 *5984:A0 3.50033e-05
7 *5984:S0 *5984:A0 0
8 *5986:A0 *6598:A 0
9 *6247:S *6598:A 1.37328e-05
10 *6445:CLK *5984:A0 2.24342e-05
11 *6445:D *5984:A0 0.000150298
12 *225:108 *5984:A0 0.000424525
13 *428:121 *6598:A 0.000195102
*RES
1 *6445:Q *582:4 1.6 
2 *582:4 *5984:A0 12.86 
3 *582:4 *6598:A 8.36 
*END

*D_NET *583 0.00268148
*CONN
*I *6554:A I *D sky130_fd_sc_hd__dlygate4sd3_1
*I *5993:A0 I *D sky130_fd_sc_hd__mux4_1
*I *6446:Q O *D sky130_fd_sc_hd__dfxtp_1
*CAP
1 *6554:A 5.15536e-05
2 *5993:A0 0.0010976
3 *6446:Q 0
4 *583:4 0.00114915
5 *5993:A0 *5993:A1 1.83756e-05
6 *5993:A0 *5993:A2 0.0001205
7 *5995:A0 *5993:A0 5.062e-06
8 *6446:CLK *5993:A0 1.83756e-05
9 *6446:D *5993:A0 4.82319e-06
10 *480:37 *5993:A0 4.00541e-06
11 *488:24 *5993:A0 0.000181994
12 *488:24 *6554:A 3.00381e-05
*RES
1 *6446:Q *583:4 1.6 
2 *583:4 *5993:A0 15.535 
3 *583:4 *6554:A 2.665 
*END

*D_NET *584 0.00195191
*CONN
*I *6567:A I *D sky130_fd_sc_hd__dlygate4sd3_1
*I *5924:A1 I *D sky130_fd_sc_hd__mux4_1
*I *6322:Q O *D sky130_fd_sc_hd__dfxtp_1
*CAP
1 *6567:A 0
2 *5924:A1 0.000643234
3 *6322:Q 0.000138592
4 *584:12 0.000781826
5 *5924:A1 *5924:A2 0.00019326
6 *584:12 *735:105 0
7 *5924:A0 *5924:A1 4.85021e-05
8 *5928:A0 *5924:A1 2.75145e-05
9 *5928:A0 *584:12 7.06865e-05
10 *6236:A *5924:A1 4.82919e-05
11 *481:52 *584:12 0
*RES
1 *6322:Q *584:12 7.43 
2 *584:12 *5924:A1 10.285 
3 *584:12 *6567:A 1.6 
*END

*D_NET *585 0.00181146
*CONN
*I *6621:A I *D sky130_fd_sc_hd__dlygate4sd3_1
*I *5939:A1 I *D sky130_fd_sc_hd__mux4_1
*I *6323:Q O *D sky130_fd_sc_hd__dfxtp_1
*CAP
1 *6621:A 0
2 *5939:A1 0.000230434
3 *6323:Q 0.00032012
4 *585:12 0.000550554
5 *5939:A1 *5908:A0 0.000275548
6 *5939:A1 *601:10 0
7 *5939:A1 *735:81 2.30292e-05
8 *585:12 *5939:A2 3.90349e-05
9 *5906:S *5939:A1 0.000199833
10 *5939:S0 *5939:A1 0
11 *6323:CLK *585:12 0.00016063
12 *6411:D *5939:A1 0
13 *216:79 *5939:A1 1.22762e-05
*RES
1 *6323:Q *585:12 9.845 
2 *585:12 *5939:A1 10.61 
3 *585:12 *6621:A 1.6 
*END

*D_NET *586 0.00227993
*CONN
*I *5948:A1 I *D sky130_fd_sc_hd__mux4_1
*I *6585:A I *D sky130_fd_sc_hd__dlygate4sd3_1
*I *6324:Q O *D sky130_fd_sc_hd__dfxtp_1
*CAP
1 *5948:A1 0.000404235
2 *6585:A 0.00013955
3 *6324:Q 0.000158765
4 *586:10 0.000702551
5 *5948:A1 *5948:A2 0.000180825
6 *6585:A *5910:A1 9.68709e-05
7 *5948:A0 *5948:A1 6.40409e-06
8 *5948:S1 *5948:A1 3.64998e-06
9 *216:29 *6585:A 7.30547e-05
10 *401:22 *6585:A 0.00028723
11 *401:22 *586:10 9.86611e-05
12 *411:20 *6585:A 3.20244e-05
13 *411:20 *586:10 9.61052e-05
*RES
1 *6324:Q *586:10 6.54 
2 *586:10 *6585:A 7.83 
3 *586:10 *5948:A1 8.805 
*END

*D_NET *587 0.00219565
*CONN
*I *6561:A I *D sky130_fd_sc_hd__dlygate4sd3_1
*I *5957:A1 I *D sky130_fd_sc_hd__mux4_1
*I *6325:Q O *D sky130_fd_sc_hd__dfxtp_1
*CAP
1 *6561:A 0.000348774
2 *5957:A1 0.000426864
3 *6325:Q 0
4 *587:4 0.000775638
5 *5957:A1 *5957:A2 7.06865e-05
6 *5957:A1 *6175:A1 0
7 *5957:A1 *746:45 7.06865e-05
8 *5957:A1 *757:110 2.67184e-05
9 *6561:A *746:45 0
10 *5957:A0 *5957:A1 0.000166249
11 *5957:S0 *5957:A1 0.0001249
12 *6120:S *6561:A 0.000107848
13 *6242:A *6561:A 7.23602e-05
14 *6442:CLK *6561:A 4.9253e-06
*RES
1 *6325:Q *587:4 1.6 
2 *587:4 *5957:A1 11.675 
3 *587:4 *6561:A 10.85 
*END

*D_NET *588 0.00242568
*CONN
*I *6541:A I *D sky130_fd_sc_hd__dlygate4sd3_1
*I *5966:A1 I *D sky130_fd_sc_hd__mux4_1
*I *6326:Q O *D sky130_fd_sc_hd__dfxtp_1
*CAP
1 *6541:A 0.000206091
2 *5966:A1 0.000441245
3 *6326:Q 0.000232444
4 *588:10 0.000879781
5 *5966:A1 *5966:A2 1.54111e-05
6 *5966:A1 *5966:A3 4.32343e-05
7 *6541:A *5966:A2 2.42236e-05
8 *588:10 *5966:A2 3.67779e-05
9 *5915:A *588:10 0
10 *5966:A0 *5966:A1 9.26347e-05
11 *5966:S1 *6541:A 0.000312083
12 *6443:CLK *588:10 3.05373e-05
13 *6443:D *6541:A 5.98004e-06
14 *6443:D *588:10 6.09866e-05
15 *216:44 *6541:A 0
16 *216:60 *6541:A 0
17 *216:60 *588:10 0
18 *226:114 *6541:A 3.09233e-05
19 *488:78 *588:10 1.33293e-05
20 *488:82 *588:10 0
*RES
1 *6326:Q *588:10 7.23 
2 *588:10 *5966:A1 9.15 
3 *588:10 *6541:A 8.295 
*END

*D_NET *589 0.00268331
*CONN
*I *6615:A I *D sky130_fd_sc_hd__dlygate4sd3_1
*I *5975:A1 I *D sky130_fd_sc_hd__mux4_1
*I *6327:Q O *D sky130_fd_sc_hd__dfxtp_1
*CAP
1 *6615:A 0.000191485
2 *5975:A1 0.000639869
3 *6327:Q 3.44611e-05
4 *589:8 0.000865816
5 *5975:A1 *5975:A2 1.10377e-05
6 *5975:A1 *5975:A3 3.80801e-05
7 *6615:A *768:44 0
8 *5912:S *6615:A 4.82919e-05
9 *5975:A0 *5975:A1 6.27438e-05
10 *5975:S0 *5975:A1 3.54025e-05
11 *5975:S1 *5975:A1 0.000123295
12 *5977:A0 *6615:A 0.000285948
13 *6175:S *5975:A1 5.16118e-06
14 *6444:CLK *6615:A 2.50049e-05
15 *6444:CLK *589:8 3.86529e-05
16 *6496:A *6615:A 0.000209391
17 *230:66 *6615:A 4.19715e-05
18 *230:66 *589:8 2.66935e-05
*RES
1 *6327:Q *589:8 4.47 
2 *589:8 *5975:A1 11.565 
3 *589:8 *6615:A 8.745 
*END

*D_NET *590 0.00224026
*CONN
*I *6614:A I *D sky130_fd_sc_hd__dlygate4sd3_1
*I *5984:A1 I *D sky130_fd_sc_hd__mux4_1
*I *6328:Q O *D sky130_fd_sc_hd__dfxtp_1
*CAP
1 *6614:A 0
2 *5984:A1 0.000378765
3 *6328:Q 0.000149468
4 *590:12 0.000528233
5 *5984:A1 *5984:A2 0
6 *5984:A1 *598:10 0
7 *5984:A1 *606:12 0.000197948
8 *5984:A1 *625:32 2.03321e-05
9 *5984:A1 *625:45 4.24292e-06
10 *590:12 *5918:A0 0
11 *5984:S0 *5984:A1 8.53113e-06
12 *6182:A *5984:A1 0
13 *6217:S *590:12 5.30673e-05
14 *216:60 *5984:A1 0.000311282
15 *216:60 *590:12 5.02217e-05
16 *391:59 *5984:A1 0.000252113
17 *391:73 *5984:A1 0.000286056
*RES
1 *6328:Q *590:12 7.775 
2 *590:12 *5984:A1 15.83 
3 *590:12 *6614:A 1.6 
*END

*D_NET *591 0.000914556
*CONN
*I *6563:A I *D sky130_fd_sc_hd__dlygate4sd3_1
*I *5993:A1 I *D sky130_fd_sc_hd__mux4_1
*I *6329:Q O *D sky130_fd_sc_hd__dfxtp_1
*CAP
1 *6563:A 5.77976e-05
2 *5993:A1 0.00027655
3 *6329:Q 0
4 *591:4 0.000334348
5 *5993:A1 *5993:A2 0.000124895
6 *5921:A *5993:A1 6.10014e-05
7 *5993:A0 *5993:A1 1.83756e-05
8 *6213:S *5993:A1 2.05461e-05
9 *6213:S *6563:A 1.83847e-05
10 *6329:CLK *5993:A1 0
11 *6329:D *5993:A1 2.65814e-06
*RES
1 *6329:Q *591:4 1.6 
2 *591:4 *5993:A1 9.95 
3 *591:4 *6563:A 2.665 
*END

*D_NET *592 0.0016181
*CONN
*I *5924:A2 I *D sky130_fd_sc_hd__mux4_1
*I *6637:A I *D sky130_fd_sc_hd__dlygate4sd3_1
*I *6426:Q O *D sky130_fd_sc_hd__dfxtp_1
*CAP
1 *5924:A2 0.000317142
2 *6637:A 0.000174967
3 *6426:Q 0
4 *592:4 0.000492109
5 *6637:A *6205:A0 0.000124895
6 *6637:A *658:24 5.07419e-05
7 *6637:A *724:47 0
8 *6637:A *724:64 0
9 *5924:A0 *5924:A2 0.000216697
10 *5924:A1 *5924:A2 0.00019326
11 *5924:S0 *5924:A2 4.82863e-05
12 *6322:D *6637:A 0
*RES
1 *6426:Q *592:4 1.6 
2 *592:4 *6637:A 9.14 
3 *592:4 *5924:A2 8.84875 
*END

*D_NET *593 0.00294503
*CONN
*I *5939:A2 I *D sky130_fd_sc_hd__mux4_1
*I *6550:A I *D sky130_fd_sc_hd__dlygate4sd3_1
*I *6427:Q O *D sky130_fd_sc_hd__dfxtp_1
*CAP
1 *5939:A2 0.000598684
2 *6550:A 0.000413952
3 *6427:Q 0.000135145
4 *593:6 0.00114778
5 *6550:A *6207:A0 8.40325e-05
6 *5906:S *5939:A2 8.78813e-05
7 *5909:A *6550:A 0.00012064
8 *5939:A0 *5939:A2 1.10377e-05
9 *6323:CLK *5939:A2 0.000221931
10 *6323:D *5939:A2 5.2325e-05
11 *6323:D *6550:A 0
12 *216:79 *5939:A2 1.39472e-05
13 *216:79 *593:6 1.86399e-05
14 *481:56 *5939:A2 0
15 *585:12 *5939:A2 3.90349e-05
*RES
1 *6427:Q *593:6 3.085 
2 *593:6 *6550:A 12.095 
3 *593:6 *5939:A2 15.0837 
*END

*D_NET *594 0.00170424
*CONN
*I *5948:A2 I *D sky130_fd_sc_hd__mux4_1
*I *6529:A I *D sky130_fd_sc_hd__dlygate4sd3_1
*I *6428:Q O *D sky130_fd_sc_hd__dfxtp_1
*CAP
1 *5948:A2 0.000239882
2 *6529:A 0.000179499
3 *6428:Q 0
4 *594:4 0.000419381
5 *6529:A *680:14 0.000215382
6 *5911:A *6529:A 0
7 *5948:A0 *5948:A2 0.00035264
8 *5948:A1 *5948:A2 0.000180825
9 *5948:S1 *5948:A2 0
10 *6324:CLK *6529:A 0.000116629
11 *480:79 *6529:A 0
*RES
1 *6428:Q *594:4 1.6 
2 *594:4 *6529:A 10.04 
3 *594:4 *5948:A2 8.18875 
*END

*D_NET *595 0.00224385
*CONN
*I *5957:A2 I *D sky130_fd_sc_hd__mux4_1
*I *6611:A I *D sky130_fd_sc_hd__dlygate4sd3_1
*I *6429:Q O *D sky130_fd_sc_hd__dfxtp_1
*CAP
1 *5957:A2 0.000545981
2 *6611:A 0.000271854
3 *6429:Q 0
4 *595:4 0.000817835
5 *5957:A2 *746:45 2.997e-05
6 *6611:A *6211:A0 0.000180818
7 *5957:A0 *5957:A2 2.87433e-05
8 *5957:A1 *5957:A2 7.06865e-05
9 *5957:S1 *5957:A2 7.9642e-06
10 *5975:S1 *5957:A2 3.3414e-05
11 *6029:S *6611:A 0
12 *6175:S *6611:A 8.53113e-06
13 *6241:S *6611:A 6.68426e-05
14 *6325:CLK *5957:A2 1.83847e-05
15 *6325:D *5957:A2 4.82319e-06
16 *6325:D *6611:A 0
17 *226:240 *5957:A2 0.000158
*RES
1 *6429:Q *595:4 1.6 
2 *595:4 *6611:A 10.295 
3 *595:4 *5957:A2 12.7925 
*END

*D_NET *596 0.00262739
*CONN
*I *5966:A2 I *D sky130_fd_sc_hd__mux4_1
*I *6638:A I *D sky130_fd_sc_hd__dlygate4sd3_1
*I *6430:Q O *D sky130_fd_sc_hd__dfxtp_1
*CAP
1 *5966:A2 0.000538207
2 *6638:A 0.000252384
3 *6430:Q 0
4 *596:4 0.000790592
5 *6638:A *6213:A0 0.000142661
6 *5966:A0 *5966:A2 9.64638e-06
7 *5966:A1 *5966:A2 1.54111e-05
8 *6326:D *6638:A 0
9 *6430:CLK *5966:A2 4.80285e-05
10 *6443:D *5966:A2 0.000116158
11 *6541:A *5966:A2 2.42236e-05
12 *488:52 *6638:A 2.86623e-05
13 *488:78 *5966:A2 0.000624636
14 *588:10 *5966:A2 3.67779e-05
*RES
1 *6430:Q *596:4 1.6 
2 *596:4 *6638:A 10.43 
3 *596:4 *5966:A2 13.9175 
*END

*D_NET *597 0.00197871
*CONN
*I *5975:A2 I *D sky130_fd_sc_hd__mux4_1
*I *6626:A I *D sky130_fd_sc_hd__dlygate4sd3_1
*I *6431:Q O *D sky130_fd_sc_hd__dfxtp_1
*CAP
1 *5975:A2 8.90355e-05
2 *6626:A 0.000365027
3 *6431:Q 6.64165e-05
4 *597:8 0.000520479
5 *6626:A *6215:A0 0
6 *5917:A *5975:A2 0.000282834
7 *5917:A *6626:A 7.30547e-05
8 *5975:A1 *5975:A2 1.10377e-05
9 *5981:S *6626:A 0
10 *6175:S *5975:A2 6.90889e-06
11 *233:45 *5975:A2 0.000289698
12 *233:45 *6626:A 0.000227543
13 *411:92 *597:8 4.66742e-05
*RES
1 *6431:Q *597:8 4.395 
2 *597:8 *6626:A 10.155 
3 *597:8 *5975:A2 7.21875 
*END

*D_NET *598 0.0020103
*CONN
*I *5984:A2 I *D sky130_fd_sc_hd__mux4_1
*I *6535:A I *D sky130_fd_sc_hd__dlygate4sd3_1
*I *6432:Q O *D sky130_fd_sc_hd__dfxtp_1
*CAP
1 *5984:A2 0.000558661
2 *6535:A 0
3 *6432:Q 0.000149037
4 *598:10 0.000707698
5 *5984:A2 *606:12 0.000155706
6 *5984:A2 *625:45 3.05295e-05
7 *598:10 *6217:A0 0
8 *598:10 *625:32 0
9 *5968:A0 *5984:A2 0.000249928
10 *5984:A0 *5984:A2 7.30547e-05
11 *5984:A1 *5984:A2 0
12 *5984:A1 *598:10 0
13 *6182:A *5984:A2 7.4027e-05
14 *6217:S *598:10 1.16578e-05
15 *6218:A *598:10 0
16 *6416:D *5984:A2 0
17 *428:121 *5984:A2 0
*RES
1 *6432:Q *598:10 5.685 
2 *598:10 *6535:A 3.6 
3 *598:10 *5984:A2 16.6637 
*END

*D_NET *599 0.0019188
*CONN
*I *5993:A2 I *D sky130_fd_sc_hd__mux4_1
*I *6581:A I *D sky130_fd_sc_hd__dlygate4sd3_1
*I *6433:Q O *D sky130_fd_sc_hd__dfxtp_1
*CAP
1 *5993:A2 0.000298606
2 *6581:A 0.000174875
3 *6433:Q 6.46151e-05
4 *599:6 0.000538096
5 *6581:A *6219:A0 4.82863e-05
6 *5993:A0 *5993:A2 0.0001205
7 *5993:A1 *5993:A2 0.000124895
8 *5993:S0 *5993:A2 4.82863e-05
9 *6329:CLK *6581:A 6.52906e-05
10 *391:47 *6581:A 0.000189793
11 *480:37 *5993:A2 0.000123225
12 *480:37 *599:6 0.000122331
*RES
1 *6433:Q *599:6 2.74 
2 *599:6 *6581:A 9.83 
3 *599:6 *5993:A2 7.43875 
*END

*D_NET *600 0.00133041
*CONN
*I *5924:A3 I *D sky130_fd_sc_hd__mux4_1
*I *6546:A I *D sky130_fd_sc_hd__dlygate4sd3_1
*I *6410:Q O *D sky130_fd_sc_hd__dfxtp_1
*CAP
1 *5924:A3 0.000322375
2 *6546:A 0
3 *6410:Q 6.22104e-05
4 *600:8 0.000384586
5 *5924:A3 *5906:A0 5.58436e-05
6 *5906:S *5924:A3 2.75229e-05
7 *5907:A *5924:A3 8.8266e-05
8 *225:108 *5924:A3 0.000207263
9 *225:108 *600:8 3.23663e-05
10 *225:121 *5924:A3 4.94326e-05
11 *225:136 *5924:A3 4.71585e-05
12 *226:133 *5924:A3 9.3062e-06
13 *226:135 *5924:A3 4.40812e-05
*RES
1 *6410:Q *600:8 2.755 
2 *600:8 *6546:A 1.6 
3 *600:8 *5924:A3 12.785 
*END

*D_NET *601 0.00129939
*CONN
*I *5939:A3 I *D sky130_fd_sc_hd__mux4_1
*I *6625:A I *D sky130_fd_sc_hd__dlygate4sd3_1
*I *6411:Q O *D sky130_fd_sc_hd__dfxtp_1
*CAP
1 *5939:A3 0.000314081
2 *6625:A 6.61403e-05
3 *6411:Q 5.59163e-05
4 *601:10 0.000436138
5 *5939:A3 *6171:A0 9.66106e-05
6 *6625:A *6171:A0 5.05437e-05
7 *5939:A0 *5939:A3 0.000192721
8 *5939:A1 *601:10 0
9 *5939:S0 *5939:A3 4.82863e-05
10 *6411:D *601:10 3.89528e-05
11 *391:73 *6625:A 0
*RES
1 *6411:Q *601:10 6.725 
2 *601:10 *6625:A 2.755 
3 *601:10 *5939:A3 8.065 
*END

*D_NET *602 0.00268497
*CONN
*I *5948:A3 I *D sky130_fd_sc_hd__mux4_1
*I *6534:A I *D sky130_fd_sc_hd__dlygate4sd3_1
*I *6412:Q O *D sky130_fd_sc_hd__dfxtp_1
*CAP
1 *5948:A3 0.00075297
2 *6534:A 1.99025e-05
3 *6412:Q 0.00019248
4 *602:10 0.000965353
5 *5948:A3 *6173:A0 9.07793e-05
6 *5948:A3 *6454:D 2.12451e-05
7 *6534:A *6173:A0 4.80285e-05
8 *602:10 *6173:A0 3.67779e-05
9 *5948:S0 *5948:A3 1.43521e-05
10 *6324:D *5948:A3 3.10498e-05
11 *6428:D *602:10 5.13155e-05
12 *391:22 *5948:A3 0.000237249
13 *391:22 *6534:A 8.65905e-05
14 *391:22 *602:10 0
15 *391:30 *602:10 0
16 *411:20 *5948:A3 0.000136877
17 *487:25 *602:10 0
18 *487:40 *602:10 0
*RES
1 *6412:Q *602:10 9.02 
2 *602:10 *6534:A 2.395 
3 *602:10 *5948:A3 16.685 
*END

*D_NET *603 0.00172498
*CONN
*I *5957:A3 I *D sky130_fd_sc_hd__mux4_1
*I *6582:A I *D sky130_fd_sc_hd__dlygate4sd3_1
*I *6413:Q O *D sky130_fd_sc_hd__dfxtp_1
*CAP
1 *5957:A3 0.000441292
2 *6582:A 7.74789e-05
3 *6413:Q 0
4 *603:4 0.000518771
5 *5957:A3 *6241:A1 5.07362e-05
6 *5957:A3 *757:87 7.47215e-05
7 *5957:A3 *757:89 0.000116165
8 *6582:A *6175:A0 7.23602e-05
9 *5912:S *5957:A3 0.000194251
10 *5913:A *5957:A3 1.83756e-05
11 *5958:S1 *5957:A3 8.88403e-05
12 *6140:S *6582:A 8.53113e-06
13 *226:240 *5957:A3 6.34568e-05
14 *401:87 *6582:A 0
*RES
1 *6413:Q *603:4 1.6 
2 *603:4 *6582:A 7.085 
3 *603:4 *5957:A3 12.845 
*END

*D_NET *604 0.001361
*CONN
*I *5966:A3 I *D sky130_fd_sc_hd__mux4_1
*I *6596:A I *D sky130_fd_sc_hd__dlygate4sd3_1
*I *6414:Q O *D sky130_fd_sc_hd__dfxtp_1
*CAP
1 *5966:A3 0.000332945
2 *6596:A 0.000166678
3 *6414:Q 0
4 *604:4 0.000499623
5 *6596:A *6213:A1 0
6 *5915:A *5966:A3 4.24562e-05
7 *5966:A0 *5966:A3 0.000214926
8 *5966:A1 *5966:A3 4.32343e-05
9 *5966:S0 *5966:A3 6.11382e-05
10 *225:58 *6596:A 0
*RES
1 *6414:Q *604:4 1.6 
2 *604:4 *6596:A 7.775 
3 *604:4 *5966:A3 11.195 
*END

*D_NET *605 0.00160616
*CONN
*I *5975:A3 I *D sky130_fd_sc_hd__mux4_1
*I *6533:A I *D sky130_fd_sc_hd__dlygate4sd3_1
*I *6415:Q O *D sky130_fd_sc_hd__dfxtp_1
*CAP
1 *5975:A3 0.000316994
2 *6533:A 0.000136162
3 *6415:Q 0
4 *605:4 0.000453156
5 *5975:A1 *5975:A3 3.80801e-05
6 *5975:S0 *5975:A3 0.000307831
7 *5975:S1 *5975:A3 0
8 *5981:S *6533:A 6.15084e-05
9 *382:16 *6533:A 5.4003e-05
10 *391:122 *6533:A 7.23602e-05
11 *470:18 *6533:A 6.28765e-05
12 *470:100 *6533:A 0.000103192
*RES
1 *6415:Q *605:4 1.6 
2 *605:4 *6533:A 9.02 
3 *605:4 *5975:A3 6.22 
*END

*D_NET *606 0.0012113
*CONN
*I *5984:A3 I *D sky130_fd_sc_hd__mux4_1
*I *6594:A I *D sky130_fd_sc_hd__dlygate4sd3_1
*I *6416:Q O *D sky130_fd_sc_hd__dfxtp_1
*CAP
1 *5984:A3 0
2 *6594:A 9.9923e-05
3 *6416:Q 0.000203082
4 *606:12 0.000303005
5 *6594:A *6181:A0 3.00381e-05
6 *6594:A *625:45 0.000164679
7 *5984:A1 *606:12 0.000197948
8 *5984:A2 *606:12 0.000155706
9 *391:59 *606:12 5.6923e-05
10 *428:121 *6594:A 0
*RES
1 *6416:Q *606:12 6.58 
2 *606:12 *6594:A 7.94 
3 *606:12 *5984:A3 1.6 
*END

*D_NET *607 0.00183333
*CONN
*I *5993:A3 I *D sky130_fd_sc_hd__mux4_1
*I *6528:A I *D sky130_fd_sc_hd__dlygate4sd3_1
*I *6417:Q O *D sky130_fd_sc_hd__dfxtp_1
*CAP
1 *5993:A3 0.000450096
2 *6528:A 7.94847e-05
3 *6417:Q 7.24836e-05
4 *607:6 0.000602064
5 *5993:A3 *5920:A0 0.000197269
6 *5921:A *5993:A3 5.17188e-05
7 *6417:D *6528:A 2.92496e-05
8 *6417:D *607:6 4.66108e-05
9 *225:27 *5993:A3 6.28687e-05
10 *226:85 *5993:A3 3.98865e-05
11 *226:95 *5993:A3 4.18603e-06
12 *391:47 *6528:A 9.9535e-05
13 *480:16 *6528:A 9.78734e-05
*RES
1 *6417:Q *607:6 2.395 
2 *607:6 *6528:A 8.255 
3 *607:6 *5993:A3 11.915 
*END

*D_NET *608 0.00215823
*CONN
*I *6629:A I *D sky130_fd_sc_hd__dlygate4sd3_1
*I *5932:A0 I *D sky130_fd_sc_hd__mux4_1
*I *6402:Q O *D sky130_fd_sc_hd__dfxtp_1
*CAP
1 *6629:A 6.27366e-05
2 *5932:A0 0.000739873
3 *6402:Q 0
4 *608:4 0.00080261
5 *5932:A0 *6152:A1 0.000101212
6 *5932:A0 *724:188 0.000158066
7 *5932:S0 *5932:A0 0
8 *6306:S *5932:A0 9.14049e-05
9 *6527:A *5932:A0 9.54399e-05
10 *339:81 *5932:A0 0.000106885
*RES
1 *6402:Q *608:4 1.6 
2 *608:4 *5932:A0 15.68 
3 *608:4 *6629:A 2.665 
*END

*D_NET *609 0.00261146
*CONN
*I *6586:A I *D sky130_fd_sc_hd__dlygate4sd3_1
*I *5943:A0 I *D sky130_fd_sc_hd__mux4_1
*I *6403:Q O *D sky130_fd_sc_hd__dfxtp_1
*CAP
1 *6586:A 0.000107485
2 *5943:A0 0.000755911
3 *6403:Q 5.06588e-05
4 *609:10 0.000914055
5 *5943:A0 *6099:A0 4.05358e-05
6 *5943:A0 *6154:A0 2.75145e-05
7 *5943:A0 *6154:A1 3.99879e-05
8 *5943:A0 *735:162 0
9 *6586:A *6154:A0 9.02174e-05
10 *5943:A2 *5943:A0 4.78351e-05
11 *5943:S0 *5943:A0 0.000167595
12 *5944:A1 *5943:A0 6.12863e-05
13 *6155:A *5943:A0 9.91257e-05
14 *6164:S *5943:A0 0
15 *6164:S *609:10 9.54399e-05
16 *6309:A *5943:A0 7.36562e-05
17 *6371:CLK *5943:A0 4.01535e-05
18 *6403:CLK *5943:A0 0
19 *382:80 *5943:A0 0
*RES
1 *6403:Q *609:10 6.725 
2 *609:10 *5943:A0 18.74 
3 *609:10 *6586:A 3.445 
*END

*D_NET *610 0.00203929
*CONN
*I *6530:A I *D sky130_fd_sc_hd__dlygate4sd3_1
*I *5952:A0 I *D sky130_fd_sc_hd__mux4_1
*I *6404:Q O *D sky130_fd_sc_hd__dfxtp_1
*CAP
1 *6530:A 7.41722e-05
2 *5952:A0 0.000663234
3 *6404:Q 0
4 *610:4 0.000737407
5 *5952:A0 *746:31 4.32126e-05
6 *6530:A *6156:A0 9.60582e-07
7 *5952:S0 *5952:A0 1.22762e-05
8 *6404:CLK *5952:A0 0.000220383
9 *6404:CLK *6530:A 9.53428e-06
10 *514:8 *5952:A0 0.000278111
*RES
1 *6404:Q *610:4 1.6 
2 *610:4 *5952:A0 14.675 
3 *610:4 *6530:A 2.665 
*END

*D_NET *611 0.00248358
*CONN
*I *6652:A I *D sky130_fd_sc_hd__dlygate4sd3_1
*I *5961:A0 I *D sky130_fd_sc_hd__mux4_1
*I *6405:Q O *D sky130_fd_sc_hd__dfxtp_1
*CAP
1 *6652:A 6.17804e-05
2 *5961:A0 0.000902828
3 *6405:Q 0
4 *611:4 0.000964609
5 *5961:A0 *6083:A0 1.47347e-05
6 *5961:A2 *5961:A0 0.000347922
7 *5962:A1 *5961:A0 0.000117825
8 *6083:S *5961:A0 0
9 *6405:CLK *5961:A0 4.41363e-05
10 *6405:D *5961:A0 2.97453e-05
*RES
1 *6405:Q *611:4 1.6 
2 *611:4 *5961:A0 17.09 
3 *611:4 *6652:A 2.665 
*END

*D_NET *612 0.00197482
*CONN
*I *5970:A0 I *D sky130_fd_sc_hd__mux4_1
*I *6631:A I *D sky130_fd_sc_hd__dlygate4sd3_1
*I *6406:Q O *D sky130_fd_sc_hd__dfxtp_1
*CAP
1 *5970:A0 0.000614508
2 *6631:A 0
3 *6406:Q 0.000160183
4 *612:10 0.000774691
5 *5970:A0 *6105:A1 2.79099e-05
6 *5970:A2 *5970:A0 9.3229e-06
7 *6406:CLK *612:10 0.00012657
8 *230:91 *5970:A0 3.67779e-05
9 *232:81 *5970:A0 7.35813e-05
10 *270:12 *5970:A0 3.69334e-05
11 *270:12 *612:10 5.63405e-05
12 *351:79 *5970:A0 5.80035e-05
*RES
1 *6406:Q *612:10 6.375 
2 *612:10 *6631:A 3.6 
3 *612:10 *5970:A0 11.565 
*END

*D_NET *613 0.00185681
*CONN
*I *5979:A0 I *D sky130_fd_sc_hd__mux4_1
*I *6643:A I *D sky130_fd_sc_hd__dlygate4sd3_1
*I *6407:Q O *D sky130_fd_sc_hd__dfxtp_1
*CAP
1 *5979:A0 0.000699816
2 *6643:A 6.54036e-05
3 *6407:Q 0
4 *613:4 0.000765219
5 *5979:A0 *6087:A0 0
6 *5979:A2 *5979:A0 5.73851e-05
7 *5979:A3 *5979:A0 3.72916e-05
8 *5981:A1 *5979:A0 8.82263e-05
9 *6524:A *5979:A0 6.00853e-05
10 *492:16 *5979:A0 2.2381e-05
11 *517:6 *5979:A0 6.10013e-05
*RES
1 *6407:Q *613:4 1.6 
2 *613:4 *6643:A 2.665 
3 *613:4 *5979:A0 15.44 
*END

*D_NET *614 0.00309646
*CONN
*I *5988:A0 I *D sky130_fd_sc_hd__mux4_1
*I *6574:A I *D sky130_fd_sc_hd__dlygate4sd3_1
*I *6408:Q O *D sky130_fd_sc_hd__dfxtp_1
*CAP
1 *5988:A0 0.000835055
2 *6574:A 3.31465e-05
3 *6408:Q 0.000117075
4 *614:10 0.000985276
5 *5988:A0 *6164:A1 0
6 *6574:A *6164:A0 0.000122331
7 *5945:A0 *5988:A0 0.000383227
8 *5945:A0 *614:10 0.000112123
9 *5988:A2 *5988:A0 8.05695e-05
10 *5988:S1 *5988:A0 0.000104575
11 *5989:A1 *5988:A0 0.000177722
12 *6319:A *5988:A0 7.44685e-05
13 *6494:D *5988:A0 1.26548e-05
14 *231:18 *6574:A 4.65607e-05
15 *482:93 *5988:A0 1.16729e-05
*RES
1 *6408:Q *614:10 5.43 
2 *614:10 *6574:A 4.74 
3 *614:10 *5988:A0 17.19 
*END

*D_NET *615 0.00266404
*CONN
*I *6620:A I *D sky130_fd_sc_hd__dlygate4sd3_1
*I *5997:A0 I *D sky130_fd_sc_hd__mux4_1
*I *6409:Q O *D sky130_fd_sc_hd__dfxtp_1
*CAP
1 *6620:A 0
2 *5997:A0 0.000125776
3 *6409:Q 0.000598233
4 *615:10 0.000724009
5 *6130:S *5997:A0 0.000340778
6 *6377:CLK *5997:A0 8.23457e-05
7 *6377:CLK *615:10 0.00026617
8 *6409:D *615:10 4.81438e-05
9 *428:75 *5997:A0 0.000340778
10 *489:40 *615:10 0.000131973
11 *489:75 *615:10 5.83121e-06
*RES
1 *6409:Q *615:10 10.015 
2 *615:10 *5997:A0 10.325 
3 *615:10 *6620:A 1.6 
*END

*D_NET *616 0.00321068
*CONN
*I *6639:A I *D sky130_fd_sc_hd__dlygate4sd3_1
*I *5932:A1 I *D sky130_fd_sc_hd__mux4_1
*I *6488:Q O *D sky130_fd_sc_hd__dfxtp_1
*CAP
1 *6639:A 0.00019358
2 *5932:A1 0.000633018
3 *6488:Q 0.000212833
4 *616:10 0.00103943
5 *6639:A *6077:A0 0.000107112
6 *6639:A *6306:A0 0.00017688
7 *616:10 *6306:A0 7.06865e-05
8 *5932:A2 *5932:A1 1.10377e-05
9 *5932:S0 *5932:A1 0.000109845
10 *5932:S1 *5932:A1 3.45588e-05
11 *5933:A1 *5932:A1 2.31229e-05
12 *5933:A1 *6639:A 2.4997e-05
13 *6488:D *616:10 0.000272984
14 *382:74 *6639:A 0.000229904
15 *382:74 *616:10 7.06865e-05
*RES
1 *6488:Q *616:10 6.99 
2 *616:10 *5932:A1 11.22 
3 *616:10 *6639:A 8.775 
*END

*D_NET *617 0.00244563
*CONN
*I *6584:A I *D sky130_fd_sc_hd__dlygate4sd3_1
*I *5943:A1 I *D sky130_fd_sc_hd__mux4_1
*I *6489:Q O *D sky130_fd_sc_hd__dfxtp_1
*CAP
1 *6584:A 6.59222e-05
2 *5943:A1 0.000903377
3 *6489:Q 0
4 *617:4 0.000969299
5 *5944:A1 *5943:A1 0
6 *6306:S *5943:A1 0
7 *6489:CLK *5943:A1 0.000311294
8 *6489:D *5943:A1 8.58122e-05
9 *351:119 *5943:A1 0
10 *482:104 *5943:A1 0.000109931
*RES
1 *6489:Q *617:4 1.6 
2 *617:4 *5943:A1 16.745 
3 *617:4 *6584:A 2.665 
*END

*D_NET *618 0.00261786
*CONN
*I *6613:A I *D sky130_fd_sc_hd__dlygate4sd3_1
*I *5952:A1 I *D sky130_fd_sc_hd__mux4_1
*I *6490:Q O *D sky130_fd_sc_hd__dfxtp_1
*CAP
1 *6613:A 0.000139263
2 *5952:A1 0.000491638
3 *6490:Q 6.64034e-05
4 *618:8 0.000697305
5 *5952:A1 *6101:A0 3.00381e-05
6 *6613:A *6310:A0 0.000155497
7 *618:8 *757:56 4.66826e-05
8 *5952:A2 *5952:A1 0.000188653
9 *5952:S1 *5952:A1 6.36578e-05
10 *5953:A0 *5952:A1 7.46615e-05
11 *5953:A0 *6613:A 0.000222813
12 *5954:A1 *5952:A1 0.00015829
13 *6312:S *6613:A 8.40269e-05
14 *233:150 *5952:A1 6.28643e-05
15 *233:150 *6613:A 8.89971e-05
16 *298:67 *6613:A 3.83194e-05
17 *351:101 *5952:A1 8.74845e-06
*RES
1 *6490:Q *618:8 4.395 
2 *618:8 *5952:A1 12.375 
3 *618:8 *6613:A 7.74 
*END

*D_NET *619 0.00309547
*CONN
*I *6608:A I *D sky130_fd_sc_hd__dlygate4sd3_1
*I *5961:A1 I *D sky130_fd_sc_hd__mux4_1
*I *6491:Q O *D sky130_fd_sc_hd__dfxtp_1
*CAP
1 *6608:A 0.000202746
2 *5961:A1 0.000728815
3 *6491:Q 0
4 *619:4 0.000931562
5 *5961:A1 *6083:A0 0.000113797
6 *5961:A1 *6083:A1 0.000316421
7 *6608:A *6083:A1 0.000163199
8 *6608:A *6158:A1 2.92496e-05
9 *6608:A *757:196 0.000202314
10 *5961:A2 *5961:A1 5.85952e-05
11 *5961:A3 *5961:A1 5.05521e-05
12 *5961:S0 *5961:A1 0.000140905
13 *5962:A1 *5961:A1 1.38854e-05
14 *6159:A *5961:A1 0.000139238
15 *6312:S *6608:A 4.18603e-06
16 *6531:A *5961:A1 0
*RES
1 *6491:Q *619:4 1.6 
2 *619:4 *5961:A1 16.58 
3 *619:4 *6608:A 9.74 
*END

*D_NET *620 0.00184015
*CONN
*I *6589:A I *D sky130_fd_sc_hd__dlygate4sd3_1
*I *5970:A1 I *D sky130_fd_sc_hd__mux4_1
*I *6492:Q O *D sky130_fd_sc_hd__dfxtp_1
*CAP
1 *6589:A 7.33507e-05
2 *5970:A1 0.000448098
3 *6492:Q 2.93291e-05
4 *620:6 0.000550778
5 *5970:A1 *6105:A0 3.67779e-05
6 *5970:A2 *6589:A 9.58622e-05
7 *6106:A *5970:A1 0
8 *6492:CLK *5970:A1 2.24519e-05
9 *6492:D *5970:A1 4.82863e-05
10 *232:103 *5970:A1 0.00023301
11 *232:103 *620:6 4.66108e-05
12 *233:81 *6589:A 0.00022921
13 *351:79 *5970:A1 2.05571e-05
14 *508:14 *5970:A1 5.83121e-06
*RES
1 *6492:Q *620:6 2.05 
2 *620:6 *5970:A1 11.57 
3 *620:6 *6589:A 8.255 
*END

*D_NET *621 0.0024234
*CONN
*I *6575:A I *D sky130_fd_sc_hd__dlygate4sd3_1
*I *5979:A1 I *D sky130_fd_sc_hd__mux4_1
*I *6493:Q O *D sky130_fd_sc_hd__dfxtp_1
*CAP
1 *6575:A 0.00016702
2 *5979:A1 0.000861681
3 *6493:Q 0
4 *621:4 0.0010287
5 *6575:A *779:43 0
6 *5980:A0 *6575:A 0.000116165
7 *5996:S0 *5979:A1 2.56012e-05
8 *6493:CLK *5979:A1 0.000146353
9 *6493:D *5979:A1 1.43717e-05
10 *492:8 *5979:A1 1.52184e-05
11 *492:16 *5979:A1 4.82863e-05
12 *493:10 *5979:A1 0
13 *509:12 *5979:A1 0
*RES
1 *6493:Q *621:4 1.6 
2 *621:4 *5979:A1 17.075 
3 *621:4 *6575:A 8.12 
*END

*D_NET *622 0.00350573
*CONN
*I *6570:A I *D sky130_fd_sc_hd__dlygate4sd3_1
*I *5988:A1 I *D sky130_fd_sc_hd__mux4_1
*I *6494:Q O *D sky130_fd_sc_hd__dfxtp_1
*CAP
1 *6570:A 0.000137317
2 *5988:A1 0.000406202
3 *6494:Q 0.0002304
4 *622:12 0.000773919
5 *5988:A1 *6109:A0 2.75229e-05
6 *5988:A1 *6318:A0 8.99614e-05
7 *5988:A1 *625:166 1.34503e-05
8 *5988:A1 *625:173 1.19928e-05
9 *5988:A1 *625:186 0.00050748
10 *5988:A1 *735:192 7.7038e-05
11 *6570:A *6318:A0 3.86607e-05
12 *622:12 *6318:A0 8.65961e-05
13 *622:12 *735:129 1.79536e-05
14 *5945:A0 *6570:A 7.21296e-06
15 *5945:A0 *622:12 0.000169736
16 *5988:A2 *5988:A1 1.83756e-05
17 *5988:S1 *6570:A 4.49939e-05
18 *6089:S *6570:A 8.43862e-05
19 *6110:A *5988:A1 4.78194e-05
20 *6379:D *622:12 4.43871e-06
21 *6617:A *5988:A1 0
22 *231:18 *622:12 0.000122248
23 *232:184 *6570:A 1.16578e-05
24 *237:150 *5988:A1 0.000251868
25 *237:150 *6570:A 7.82345e-05
26 *470:40 *5988:A1 9.02174e-05
27 *470:52 *5988:A1 7.7052e-06
28 *482:93 *5988:A1 2.75229e-05
29 *482:93 *622:12 8.82557e-05
30 *482:104 *5988:A1 0
31 *482:104 *622:12 3.25591e-05
*RES
1 *6494:Q *622:12 11.36 
2 *622:12 *5988:A1 16.13 
3 *622:12 *6570:A 8.825 
*END

*D_NET *623 0.00268525
*CONN
*I *6624:A I *D sky130_fd_sc_hd__dlygate4sd3_1
*I *5997:A1 I *D sky130_fd_sc_hd__mux4_1
*I *6495:Q O *D sky130_fd_sc_hd__dfxtp_1
*CAP
1 *6624:A 0.000140253
2 *5997:A1 0.000875413
3 *6495:Q 4.76306e-05
4 *623:10 0.0010633
5 *5997:A2 *5997:A1 7.49183e-05
6 *6167:A *5997:A1 3.0372e-05
7 *6409:D *5997:A1 0.000159747
8 *225:160 *623:10 0.000105849
9 *489:34 *623:10 0.000187766
*RES
1 *6495:Q *623:10 7.745 
2 *623:10 *5997:A1 11.635 
3 *623:10 *6624:A 3.355 
*END

*D_NET *624 0.0146137
*CONN
*I *6516:A I *D sky130_fd_sc_hd__clkbuf_4
*I *6654:X O *D sky130_fd_sc_hd__dlymetal6s2s_1
*CAP
1 *6516:A 0
2 *6654:X 2.08101e-05
3 *624:12 0.00352244
4 *624:10 0.00352244
5 *624:8 0.00275195
6 *624:6 0.00277276
7 *624:8 *746:6 0.0018884
8 *6654:A *624:8 8.65905e-05
9 *6663:A *624:8 4.82919e-05
*RES
1 *6654:X *624:6 1.96 
2 *624:6 *624:8 51.165 
3 *624:8 *624:10 2 
4 *624:10 *624:12 59.01 
5 *624:12 *6516:A 3.6 
*END

*D_NET *625 0.0336755
*CONN
*I *6247:A1 I *D sky130_fd_sc_hd__mux2_1
*I *6128:A1 I *D sky130_fd_sc_hd__mux2_1
*I *6318:A1 I *D sky130_fd_sc_hd__mux2_1
*I *6164:A1 I *D sky130_fd_sc_hd__mux2_1
*I *6089:A1 I *D sky130_fd_sc_hd__mux2_1
*I *6109:A1 I *D sky130_fd_sc_hd__mux2_1
*I *6071:A1 I *D sky130_fd_sc_hd__mux2_1
*I *6053:A1 I *D sky130_fd_sc_hd__mux2_1
*I *6300:A1 I *D sky130_fd_sc_hd__mux2_1
*I *6016:A1 I *D sky130_fd_sc_hd__mux2_1
*I *6035:A1 I *D sky130_fd_sc_hd__mux2_1
*I *6199:A1 I *D sky130_fd_sc_hd__mux2_1
*I *6146:A1 I *D sky130_fd_sc_hd__mux2_1
*I *6181:A1 I *D sky130_fd_sc_hd__mux2_1
*I *6217:A1 I *D sky130_fd_sc_hd__mux2_1
*I *5918:A1 I *D sky130_fd_sc_hd__mux2_1
*I *6655:X O *D sky130_fd_sc_hd__buf_4
*CAP
1 *6247:A1 6.10246e-05
2 *6128:A1 6.26944e-05
3 *6318:A1 0
4 *6164:A1 0.000350152
5 *6089:A1 3.17162e-05
6 *6109:A1 0
7 *6071:A1 0.000396752
8 *6053:A1 0.000161794
9 *6300:A1 0
10 *6016:A1 0.000238107
11 *6035:A1 0
12 *6199:A1 0.000479916
13 *6146:A1 0.000186173
14 *6181:A1 6.22102e-05
15 *6217:A1 0.000158694
16 *5918:A1 0
17 *6655:X 0.0011563
18 *625:186 0.000604415
19 *625:173 0.00031695
20 *625:166 7.70857e-05
21 *625:142 0.000851104
22 *625:124 0.00036462
23 *625:122 0.000986395
24 *625:116 0.00260493
25 *625:72 0.00255932
26 *625:66 0.000504993
27 *625:51 0.00116087
28 *625:45 0.000955513
29 *625:32 0.000536141
30 *625:21 0.00045467
31 *625:12 0.00158502
32 *625:8 0.0026451
33 *6016:A1 *6016:A0 0.000179027
34 *6016:A1 *6300:A0 4.82919e-05
35 *6071:A1 *6071:A0 1.83847e-05
36 *6089:A1 *735:192 9.54469e-05
37 *6128:A1 *6128:A0 4.99619e-05
38 *6146:A1 *6146:A0 0.000136829
39 *6181:A1 *6181:A0 8.40213e-05
40 *6199:A1 *6035:A0 4.82863e-05
41 *6199:A1 *6199:A0 0.00014872
42 *6199:A1 *746:99 7.06865e-05
43 *6217:A1 *6217:A0 0.000187381
44 *6247:A1 *6247:A0 4.99619e-05
45 *625:12 *735:12 0.000582844
46 *625:12 *735:20 0.000898708
47 *625:21 *5918:A0 3.00381e-05
48 *625:32 *6217:A0 4.5783e-05
49 *625:32 *735:20 2.42236e-05
50 *625:66 *6146:A0 0.000304025
51 *625:72 *768:44 0.0003175
52 *625:116 *6027:A0 0.000197754
53 *625:116 *6035:A0 0.000422329
54 *625:116 *6109:A0 0.000203178
55 *625:122 *6290:A0 0
56 *625:122 *724:124 0
57 *625:122 *735:192 0.000367837
58 *625:122 *735:207 5.44642e-05
59 *625:124 *6300:A0 0.000198939
60 *625:142 *6016:A0 2.67275e-05
61 *625:142 *6300:A0 0.00015896
62 *625:166 *6109:A0 3.83041e-05
63 *625:186 *6318:A0 4.82863e-05
64 *5919:A *6217:A1 2.75145e-05
65 *5919:A *625:21 2.75229e-05
66 *5919:A *625:32 0.00031209
67 *5950:A1 *625:116 0.000176897
68 *5954:A0 *625:116 0.000395678
69 *5954:A1 *625:116 0.00012657
70 *5967:A1 *625:51 0
71 *5968:A0 *625:51 0.000731663
72 *5984:A1 *625:32 2.03321e-05
73 *5984:A1 *625:45 4.24292e-06
74 *5984:A2 *625:45 3.05295e-05
75 *5984:S0 *625:45 9.7872e-05
76 *5985:A3 *6199:A1 0.000174586
77 *5985:A3 *625:72 0.000179277
78 *5986:S *6146:A1 4.66108e-05
79 *5987:A2 *625:142 5.23362e-05
80 *5987:S1 *6071:A1 5.53249e-06
81 *5988:A0 *6164:A1 0
82 *5988:A1 *625:166 1.34503e-05
83 *5988:A1 *625:173 1.19928e-05
84 *5988:A1 *625:186 0.00050748
85 *5988:S1 *6164:A1 0.000199158
86 *5989:A0 *6071:A1 0.000111901
87 *5989:A0 *6089:A1 5.21046e-05
88 *5989:A0 *625:122 0
89 *5989:A0 *625:142 9.95272e-05
90 *6007:A *625:122 2.67022e-05
91 *6031:S *625:51 8.97564e-05
92 *6036:A *6199:A1 5.4256e-05
93 *6129:A *6128:A1 3.83194e-05
94 *6129:A *625:66 2.75145e-05
95 *6217:S *625:32 0
96 *6290:S *625:122 0.000298435
97 *6291:A *625:122 4.05358e-05
98 *6328:D *625:32 0.000159964
99 *6352:D *6199:A1 0
100 *6388:D *625:116 8.23457e-05
101 *6392:CLK *625:51 5.56022e-05
102 *6525:A *625:116 7.13792e-05
103 *6594:A *625:45 0.000164679
104 *6604:A *6199:A1 0.000222568
105 *6617:A *625:116 0.000131799
106 *6630:A *6199:A1 3.96737e-05
107 *6650:A *625:122 6.5525e-05
108 *216:60 *625:12 9.50342e-06
109 *216:79 *625:21 3.26889e-05
110 *225:79 *625:45 0.000109433
111 *225:79 *625:51 0.000312176
112 *226:114 *625:51 0
113 *226:204 *625:116 7.13792e-05
114 *230:41 *625:51 0.000501612
115 *230:41 *625:66 2.07184e-05
116 *230:66 *6199:A1 0
117 *230:66 *625:66 0.000373258
118 *230:140 *6164:A1 0
119 *232:157 *6053:A1 0.000170939
120 *232:157 *625:142 3.4599e-05
121 *232:167 *625:142 0.000112097
122 *233:181 *6053:A1 0
123 *233:181 *6071:A1 6.52963e-05
124 *237:124 *625:116 2.75229e-05
125 *237:150 *6164:A1 0
126 *237:150 *625:116 0.000171632
127 *309:52 *6199:A1 7.03893e-05
128 *309:52 *625:51 6.81237e-05
129 *309:52 *625:66 2.15594e-05
130 *309:65 *625:116 0.000708805
131 *309:101 *625:116 0.000149042
132 *362:51 *6128:A1 8.65961e-05
133 *391:59 *625:45 7.23533e-05
134 *391:73 *625:32 7.23533e-05
135 *391:73 *625:45 0.00011235
136 *428:105 *6247:A1 0.000190633
137 *428:105 *625:51 0.000333137
138 *428:121 *625:45 0
139 *470:40 *6164:A1 3.79068e-05
140 *482:93 *6164:A1 7.54134e-05
141 *485:14 *6053:A1 0.000100536
142 *534:16 *6053:A1 0
143 *537:12 *625:122 0
144 *598:10 *625:32 0
*RES
1 *6655:X *625:8 20.955 
2 *625:8 *625:12 36.53 
3 *625:12 *5918:A1 1.6 
4 *625:12 *625:21 1.845 
5 *625:21 *6217:A1 5.155 
6 *625:21 *625:32 7.46 
7 *625:32 *6181:A1 4.395 
8 *625:32 *625:45 8.735 
9 *625:45 *625:51 19.43 
10 *625:51 *6146:A1 6.12 
11 *625:51 *625:66 9.56 
12 *625:66 *625:72 7.675 
13 *625:72 *6199:A1 14.135 
14 *625:72 *6035:A1 1.6 
15 *625:72 *625:116 40.7 
16 *625:116 *625:122 17.365 
17 *625:122 *625:124 1.83 
18 *625:124 *6016:A1 4.81 
19 *625:124 *6300:A1 1.6 
20 *625:122 *625:142 7.5575 
21 *625:142 *6053:A1 7.4025 
22 *625:142 *6071:A1 9.8175 
23 *625:116 *625:166 0.795 
24 *625:166 *6109:A1 1.6 
25 *625:166 *625:173 0.45 
26 *625:173 *6089:A1 6.725 
27 *625:173 *625:186 4.935 
28 *625:186 *6164:A1 12.08 
29 *625:186 *6318:A1 1.6 
30 *625:66 *6128:A1 3.085 
31 *625:45 *6247:A1 3.43 
*END

*D_NET *626 0.000940382
*CONN
*I *6237:A0 I *D sky130_fd_sc_hd__mux2_1
*I *6623:X O *D sky130_fd_sc_hd__dlygate4sd3_1
*CAP
1 *6237:A0 0.000309635
2 *6623:X 0.000309635
3 *5939:A0 *6237:A0 0.00011577
4 *5941:A0 *6237:A0 8.57024e-05
5 *6623:A *6237:A0 0.00011964
*RES
1 *6623:X *6237:A0 9.17 
*END

*D_NET *627 0.000466597
*CONN
*I *6320:A0 I *D sky130_fd_sc_hd__mux2_1
*I *6624:X O *D sky130_fd_sc_hd__dlygate4sd3_1
*CAP
1 *6320:A0 0.000218905
2 *6624:X 0.000218905
3 *5981:S *6320:A0 0
4 *225:160 *6320:A0 2.87867e-05
*RES
1 *6624:X *6320:A0 9.9 
*END

*D_NET *628 0.000714772
*CONN
*I *6171:A0 I *D sky130_fd_sc_hd__mux2_1
*I *6625:X O *D sky130_fd_sc_hd__dlygate4sd3_1
*CAP
1 *6171:A0 0.000167068
2 *6625:X 0.000167068
3 *6171:A0 *6171:A1 4.99619e-05
4 *5939:A3 *6171:A0 9.66106e-05
5 *6172:A *6171:A0 0.000130453
6 *6625:A *6171:A0 5.05437e-05
7 *391:73 *6171:A0 5.30673e-05
*RES
1 *6625:X *6171:A0 7.445 
*END

*D_NET *629 0.00140439
*CONN
*I *6215:A0 I *D sky130_fd_sc_hd__mux2_1
*I *6626:X O *D sky130_fd_sc_hd__dlygate4sd3_1
*CAP
1 *6215:A0 0.000563286
2 *6626:X 0.000563286
3 *5981:S *6215:A0 0
4 *6431:CLK *6215:A0 2.42043e-05
5 *6431:D *6215:A0 0.000146924
6 *6626:A *6215:A0 0
7 *411:77 *6215:A0 5.05437e-05
8 *411:92 *6215:A0 5.61467e-05
*RES
1 *6626:X *6215:A0 14.505 
*END

*D_NET *630 0.00104203
*CONN
*I *6049:A0 I *D sky130_fd_sc_hd__mux2_1
*I *6627:X O *D sky130_fd_sc_hd__dlygate4sd3_1
*CAP
1 *6049:A0 0.000315264
2 *6627:X 0.000315264
3 *6049:A0 *6049:A1 4.99619e-05
4 *5969:A3 *6049:A0 0
5 *6050:A *6049:A0 5.46646e-05
6 *6358:D *6049:A0 9.23635e-05
7 *319:59 *6049:A0 1.46744e-05
8 *319:84 *6049:A0 0.000199833
*RES
1 *6627:X *6049:A0 13.395 
*END

*D_NET *631 0.000901446
*CONN
*I *6111:A0 I *D sky130_fd_sc_hd__mux2_1
*I *6628:X O *D sky130_fd_sc_hd__dlygate4sd3_1
*CAP
1 *6111:A0 0.000168994
2 *6628:X 0.000168994
3 *6111:A0 *636:65 0.000192125
4 *6199:S *6111:A0 0.00027643
5 *6495:D *6111:A0 4.82919e-05
6 *6628:A *6111:A0 4.66108e-05
*RES
1 *6628:X *6111:A0 7.445 
*END

*D_NET *632 0.00102879
*CONN
*I *6152:A0 I *D sky130_fd_sc_hd__mux2_1
*I *6629:X O *D sky130_fd_sc_hd__dlygate4sd3_1
*CAP
1 *6152:A0 0.000470086
2 *6629:X 0.000470086
3 *6152:A0 *6152:A1 4.99619e-05
4 *239:228 *6152:A0 3.86607e-05
*RES
1 *6629:X *6152:A0 12.66 
*END

*D_NET *633 0.000998999
*CONN
*I *6035:A0 I *D sky130_fd_sc_hd__mux2_1
*I *6630:X O *D sky130_fd_sc_hd__dlygate4sd3_1
*CAP
1 *6035:A0 8.79922e-05
2 *6630:X 8.79922e-05
3 *6199:A1 *6035:A0 4.82863e-05
4 *6630:A *6035:A0 0.000200615
5 *309:65 *6035:A0 0.000151784
6 *625:116 *6035:A0 0.000422329
*RES
1 *6630:X *6035:A0 7.445 
*END

*D_NET *634 0.000662016
*CONN
*I *6160:A0 I *D sky130_fd_sc_hd__mux2_1
*I *6631:X O *D sky130_fd_sc_hd__dlygate4sd3_1
*CAP
1 *6160:A0 0.000280285
2 *6631:X 0.000280285
3 *6160:A0 *6160:A1 2.75229e-05
4 *6160:S *6160:A0 1.34503e-05
5 *230:91 *6160:A0 6.04726e-05
*RES
1 *6631:X *6160:A0 7.445 
*END

*D_NET *635 0.00132442
*CONN
*I *6099:A0 I *D sky130_fd_sc_hd__mux2_1
*I *6633:X O *D sky130_fd_sc_hd__dlygate4sd3_1
*CAP
1 *6099:A0 0.000276625
2 *6633:X 0.000276625
3 *6099:A0 *735:129 4.99619e-05
4 *6099:A0 *735:133 1.60203e-05
5 *5943:A0 *6099:A0 4.05358e-05
6 *6099:S *6099:A0 3.66286e-05
7 *6109:S *6099:A0 4.99619e-05
8 *6308:S *6099:A0 0.000146176
9 *6403:CLK *6099:A0 4.05358e-05
10 *470:52 *6099:A0 0.000391354
*RES
1 *6633:X *6099:A0 14.22 
*END

*D_NET *636 0.0323963
*CONN
*I *6073:A1 I *D sky130_fd_sc_hd__mux2_1
*I *6091:A1 I *D sky130_fd_sc_hd__mux2_1
*I *6111:A1 I *D sky130_fd_sc_hd__mux2_1
*I *6320:A1 I *D sky130_fd_sc_hd__mux2_1
*I *6037:A1 I *D sky130_fd_sc_hd__mux2_1
*I *6148:A1 I *D sky130_fd_sc_hd__mux2_1
*I *6201:A1 I *D sky130_fd_sc_hd__mux2_1
*I *5920:A1 I *D sky130_fd_sc_hd__mux2_1
*I *6183:A1 I *D sky130_fd_sc_hd__mux2_1
*I *6219:A1 I *D sky130_fd_sc_hd__mux2_1
*I *6249:A1 I *D sky130_fd_sc_hd__mux2_1
*I *6130:A1 I *D sky130_fd_sc_hd__mux2_1
*I *6166:A1 I *D sky130_fd_sc_hd__mux2_1
*I *6055:A1 I *D sky130_fd_sc_hd__mux2_1
*I *6018:A1 I *D sky130_fd_sc_hd__mux2_1
*I *6302:A1 I *D sky130_fd_sc_hd__mux2_1
*I *6656:X O *D sky130_fd_sc_hd__buf_4
*CAP
1 *6073:A1 2.08101e-05
2 *6091:A1 0
3 *6111:A1 0
4 *6320:A1 0.000596401
5 *6037:A1 0.000134843
6 *6148:A1 0
7 *6201:A1 0.000241444
8 *5920:A1 9.82703e-05
9 *6183:A1 1.35027e-05
10 *6219:A1 0.000252216
11 *6249:A1 0.000692348
12 *6130:A1 8.21721e-05
13 *6166:A1 0
14 *6055:A1 1.32939e-05
15 *6018:A1 6.97719e-05
16 *6302:A1 0
17 *6656:X 0.00282592
18 *636:130 0.000649775
19 *636:126 0.000784028
20 *636:111 0.00127321
21 *636:109 0.000520601
22 *636:107 0.00036951
23 *636:90 0.000632385
24 *636:84 0.000668645
25 *636:80 0.000979429
26 *636:73 0.000235025
27 *636:65 0.000472718
28 *636:57 0.00140269
29 *636:47 0.00135848
30 *636:38 0.000588495
31 *636:23 0.000616211
32 *636:12 0.00299976
33 *6183:A1 *6183:A0 4.99619e-05
34 *6201:A1 *6201:A0 7.43544e-05
35 *6249:A1 *5920:A0 0.000273001
36 *636:23 *6302:A0 0.000239807
37 *636:47 *6073:A0 3.00381e-05
38 *636:57 *6091:A0 2.49909e-05
39 *636:65 *5904:A 0
40 *636:84 *5997:S0 0.000169369
41 *636:84 *5997:S1 0.000293
42 *636:107 *6148:A0 0.000158965
43 *636:130 *6183:A0 0.000507048
44 *5921:A *5920:A1 3.09164e-05
45 *5994:A0 *6201:A1 0
46 *5994:A0 *636:107 5.062e-06
47 *5994:S1 *636:84 0.000201714
48 *5995:A1 *636:90 0
49 *5996:A0 *6018:A1 0
50 *5997:A2 *636:73 3.05877e-05
51 *5997:A2 *636:84 0.000139933
52 *5997:A3 *636:65 0.00019463
53 *5997:A3 *636:84 0.000118513
54 *5998:A0 *636:73 0.000356567
55 *5998:A0 *636:84 0
56 *6055:S *6055:A1 1.90686e-05
57 *6055:S *636:38 6.181e-05
58 *6055:S *636:47 3.00381e-05
59 *6074:A *636:57 0
60 *6091:S *636:57 0.00168026
61 *6111:A0 *636:65 0.000192125
62 *6130:S *6130:A1 0.000164874
63 *6130:S *636:84 0
64 *6130:S *636:90 0
65 *6131:A *6037:A1 0
66 *6131:A *636:90 3.82352e-06
67 *6148:S *6201:A1 4.13171e-05
68 *6148:S *636:111 0.000132883
69 *6166:S *636:65 0.000199734
70 *6166:S *636:73 0.000146311
71 *6167:A *6320:A1 0.00015896
72 *6167:A *636:73 0.000123225
73 *6167:A *636:80 4.66108e-05
74 *6183:S *636:130 4.00541e-06
75 *6184:A *6219:A1 9.91801e-05
76 *6195:S *6037:A1 0.000427876
77 *6195:S *6201:A1 7.65363e-05
78 *6201:S *6201:A1 5.4155e-06
79 *6321:A *6320:A1 0.00011484
80 *6369:D *636:57 0
81 *6393:CLK *636:107 5.91042e-05
82 *6393:D *636:107 0.000159238
83 *6409:D *636:84 0
84 *6495:D *6320:A1 1.54049e-05
85 *6505:A *636:84 0
86 *6505:A *636:90 0
87 *6542:A *6130:A1 0.00024036
88 *6542:A *636:90 0.000116853
89 *6641:A *6018:A1 5.21046e-05
90 *6641:A *636:23 2.42236e-05
91 *216:29 *5920:A1 0.000119277
92 *225:39 *6249:A1 0
93 *226:83 *6201:A1 8.23457e-05
94 *226:85 *6201:A1 0
95 *226:85 *6249:A1 0
96 *226:85 *636:111 0
97 *226:95 *6249:A1 0.00042877
98 *230:16 *6130:A1 0.00011379
99 *230:16 *636:90 0.000158465
100 *237:66 *6130:A1 0
101 *237:80 *6130:A1 3.01995e-06
102 *239:168 *6130:A1 2.30292e-05
103 *287:22 *6037:A1 0.00020655
104 *287:22 *636:84 3.06701e-05
105 *292:12 *636:57 0.000969197
106 *295:20 *636:111 2.24975e-05
107 *298:18 *6018:A1 5.53249e-06
108 *329:10 *636:57 0.00153903
109 *351:31 *636:57 0.000119312
110 *362:12 *636:57 0.0013426
111 *391:30 *6183:A1 8.65961e-05
112 *391:47 *6219:A1 0
113 *401:22 *6201:A1 4.41506e-05
114 *411:30 *6219:A1 0.000546797
115 *428:75 *6201:A1 0
116 *428:75 *6249:A1 0
117 *428:75 *636:111 0
118 *460:14 *6018:A1 0
119 *460:31 *6055:A1 0
120 *460:31 *636:38 0.000400703
121 *460:31 *636:47 0.000116177
122 *470:18 *6320:A1 5.30673e-05
123 *480:16 *5920:A1 0
124 *488:39 *6249:A1 0
125 *511:10 *636:57 4.39911e-06
126 *519:10 *636:65 9.37731e-05
*RES
1 *6656:X *636:12 48.02 
2 *636:12 *6302:A1 1.6 
3 *636:12 *636:23 5.3 
4 *636:23 *6018:A1 4.98 
5 *636:23 *636:38 7.295 
6 *636:38 *6055:A1 1.96 
7 *636:38 *636:47 3.555 
8 *636:47 *636:57 45.13 
9 *636:57 *636:65 9.25 
10 *636:65 *636:73 9.325 
11 *636:73 *6166:A1 1.6 
12 *636:73 *636:80 0.45 
13 *636:80 *636:84 11.9225 
14 *636:84 *636:90 3.4275 
15 *636:90 *6130:A1 6.825 
16 *636:90 *636:107 6.59 
17 *636:107 *636:109 2 
18 *636:109 *636:111 5.205 
19 *636:111 *6249:A1 14.745 
20 *636:111 *636:126 5.9 
21 *636:126 *636:130 6.93 
22 *636:130 *6219:A1 12.02 
23 *636:130 *6183:A1 2.395 
24 *636:126 *5920:A1 8 
25 *636:109 *6201:A1 8.895 
26 *636:107 *6148:A1 1.6 
27 *636:84 *6037:A1 8.1825 
28 *636:80 *6320:A1 10.45 
29 *636:65 *6111:A1 1.6 
30 *636:57 *6091:A1 1.6 
31 *636:47 *6073:A1 1.96 
*END

*D_NET *637 0.000959198
*CONN
*I *6010:A0 I *D sky130_fd_sc_hd__mux2_1
*I *6634:X O *D sky130_fd_sc_hd__dlygate4sd3_1
*CAP
1 *6010:A0 0.000267143
2 *6634:X 0.000267143
3 *6010:A0 *757:33 0.000313857
4 *6010:A0 *757:56 1.19928e-05
5 *232:143 *6010:A0 7.23602e-05
6 *319:105 *6010:A0 2.67022e-05
*RES
1 *6634:X *6010:A0 11.28 
*END

*D_NET *638 0.000772266
*CONN
*I *6091:A0 I *D sky130_fd_sc_hd__mux2_1
*I *6635:X O *D sky130_fd_sc_hd__dlygate4sd3_1
*CAP
1 *6091:A0 0.000249689
2 *6635:X 0.000249689
3 *6091:S *6091:A0 8.23457e-05
4 *6216:A *6091:A0 8.8266e-05
5 *6635:A *6091:A0 7.72844e-05
6 *636:57 *6091:A0 2.49909e-05
*RES
1 *6635:X *6091:A0 7.91 
*END

*D_NET *639 0.00122301
*CONN
*I *6077:A0 I *D sky130_fd_sc_hd__mux2_1
*I *6636:X O *D sky130_fd_sc_hd__dlygate4sd3_1
*CAP
1 *6077:A0 0.000469366
2 *6636:X 0.000469366
3 *6077:A0 *6077:A1 4.99619e-05
4 *5933:A1 *6077:A0 3.86607e-05
5 *6077:S *6077:A0 1.61831e-05
6 *6639:A *6077:A0 0.000107112
7 *382:74 *6077:A0 7.23602e-05
*RES
1 *6636:X *6077:A0 13.35 
*END

*D_NET *640 0.000775218
*CONN
*I *6205:A0 I *D sky130_fd_sc_hd__mux2_1
*I *6637:X O *D sky130_fd_sc_hd__dlygate4sd3_1
*CAP
1 *6205:A0 0.000216561
2 *6637:X 0.000216561
3 *6205:A0 *6205:A1 8.49205e-05
4 *6205:A0 *658:24 8.30745e-05
5 *6205:S *6205:A0 4.21973e-05
6 *6637:A *6205:A0 0.000124895
7 *411:125 *6205:A0 7.00889e-06
*RES
1 *6637:X *6205:A0 7.445 
*END

*D_NET *641 0.00152679
*CONN
*I *6213:A0 I *D sky130_fd_sc_hd__mux2_1
*I *6638:X O *D sky130_fd_sc_hd__dlygate4sd3_1
*CAP
1 *6213:A0 0.000602229
2 *6638:X 0.000602229
3 *6213:A0 *6213:A1 7.35729e-05
4 *6213:S *6213:A0 8.8266e-05
5 *6214:A *6213:A0 0
6 *6414:D *6213:A0 9.29751e-06
7 *6638:A *6213:A0 0.000142661
8 *488:39 *6213:A0 8.53113e-06
*RES
1 *6638:X *6213:A0 16.005 
*END

*D_NET *642 0.00166472
*CONN
*I *6306:A0 I *D sky130_fd_sc_hd__mux2_1
*I *6639:X O *D sky130_fd_sc_hd__dlygate4sd3_1
*CAP
1 *6306:A0 0.000452545
2 *6639:X 0.000452545
3 *5933:A1 *6306:A0 9.54469e-05
4 *5943:S1 *6306:A0 0
5 *6307:A *6306:A0 1.26737e-05
6 *6488:CLK *6306:A0 0.000238919
7 *6488:D *6306:A0 0.000165025
8 *6639:A *6306:A0 0.00017688
9 *233:264 *6306:A0 0
10 *616:10 *6306:A0 7.06865e-05
*RES
1 *6639:X *6306:A0 14.7 
*END

*D_NET *643 0.00152841
*CONN
*I *6079:A0 I *D sky130_fd_sc_hd__mux2_1
*I *6640:X O *D sky130_fd_sc_hd__dlygate4sd3_1
*CAP
1 *6079:A0 0.00044962
2 *6640:X 0.00044962
3 *5932:S0 *6079:A0 4.05358e-05
4 *5946:A0 *6079:A0 0.000134544
5 *6080:A *6079:A0 0.000425301
6 *6089:S *6079:A0 2.87867e-05
*RES
1 *6640:X *6079:A0 15.435 
*END

*D_NET *644 0.000770184
*CONN
*I *6302:A0 I *D sky130_fd_sc_hd__mux2_1
*I *6641:X O *D sky130_fd_sc_hd__dlygate4sd3_1
*CAP
1 *6302:A0 0.000137639
2 *6641:X 0.000137639
3 *460:14 *6302:A0 4.85494e-05
4 *460:31 *6302:A0 0.00020655
5 *636:23 *6302:A0 0.000239807
*RES
1 *6641:X *6302:A0 7.445 
*END

*D_NET *645 0.00164356
*CONN
*I *6043:A0 I *D sky130_fd_sc_hd__mux2_1
*I *6642:X O *D sky130_fd_sc_hd__dlygate4sd3_1
*CAP
1 *6043:A0 0.000663397
2 *6642:X 0.000663397
3 *5942:A1 *6043:A0 6.48746e-05
4 *5942:A2 *6043:A0 1.10377e-05
5 *5942:S1 *6043:A0 8.1344e-05
6 *230:128 *6043:A0 4.05358e-05
7 *232:167 *6043:A0 7.23602e-05
8 *529:16 *6043:A0 4.66108e-05
*RES
1 *6642:X *6043:A0 15.42 
*END

*D_NET *646 0.000683147
*CONN
*I *6061:A0 I *D sky130_fd_sc_hd__mux2_1
*I *6644:X O *D sky130_fd_sc_hd__dlygate4sd3_1
*CAP
1 *6061:A0 0.00031504
2 *6644:X 0.00031504
3 *6061:S *6061:A0 5.30673e-05
*RES
1 *6644:X *6061:A0 7.445 
*END

*D_NET *647 0.0118461
*CONN
*I *6479:RESET_B I *D sky130_fd_sc_hd__dfrtp_4
*I *6514:A I *D sky130_fd_sc_hd__clkbuf_8
*I *6657:X O *D sky130_fd_sc_hd__clkbuf_2
*CAP
1 *6479:RESET_B 0.000950894
2 *6514:A 0
3 *6657:X 0
4 *647:16 0.00187082
5 *647:8 0.00440495
6 *647:6 0.00348502
7 *6479:RESET_B *6447:D 0.000266618
8 *6479:RESET_B *6462:D 8.53113e-06
9 *6479:RESET_B *6558:A 4.31106e-05
10 *647:16 *712:10 6.69341e-05
11 *6222:A1 *6479:RESET_B 6.55328e-05
12 *6462:CLK *6479:RESET_B 0.000658594
13 *6462:CLK *647:16 9.13949e-06
14 *6656:A *647:8 1.59562e-05
15 *6665:A *647:8 0
*RES
1 *6657:X *647:6 3.6 
2 *647:6 *647:8 58.5 
3 *647:8 *647:16 16.28 
4 *647:16 *6514:A 1.6 
5 *647:16 *6479:RESET_B 21.0475 
*END

*D_NET *648 0.00092903
*CONN
*I *6189:A0 I *D sky130_fd_sc_hd__mux2_1
*I *6645:X O *D sky130_fd_sc_hd__dlygate4sd3_1
*CAP
1 *6189:A0 0.000263279
2 *6645:X 0.000263279
3 *6189:A0 *6025:A1 0.000230966
4 *6189:A0 *6189:A1 4.66108e-05
5 *6645:A *6189:A0 0.000124895
*RES
1 *6645:X *6189:A0 7.79 
*END

*D_NET *649 0.00123504
*CONN
*I *6290:A0 I *D sky130_fd_sc_hd__mux2_1
*I *6646:X O *D sky130_fd_sc_hd__dlygate4sd3_1
*CAP
1 *6290:A0 0.000323165
2 *6646:X 0.000323165
3 *6290:A0 *6043:A1 4.66108e-05
4 *6290:A0 *735:192 0.00010141
5 *6290:A0 *735:207 0.000119809
6 *5989:A0 *6290:A0 0
7 *6481:CLK *6290:A0 0.000116158
8 *6481:D *6290:A0 8.08439e-05
9 *6646:A *6290:A0 3.72916e-05
10 *537:12 *6290:A0 8.65905e-05
11 *625:122 *6290:A0 0
*RES
1 *6646:X *6290:A0 13.995 
*END

*D_NET *650 0.00115226
*CONN
*I *6241:A0 I *D sky130_fd_sc_hd__mux2_1
*I *6647:X O *D sky130_fd_sc_hd__dlygate4sd3_1
*CAP
1 *6241:A0 0.000367994
2 *6647:X 0.000367994
3 *6241:A0 *6241:A1 4.82919e-05
4 *6241:S *6241:A0 1.03323e-05
5 *6339:CLK *6241:A0 0.000142015
6 *6442:D *6241:A0 7.4027e-05
7 *485:30 *6241:A0 0.000141606
*RES
1 *6647:X *6241:A0 12.63 
*END

*D_NET *651 0.000733912
*CONN
*I *6142:A0 I *D sky130_fd_sc_hd__mux2_1
*I *6648:X O *D sky130_fd_sc_hd__dlygate4sd3_1
*CAP
1 *6142:A0 0.00011473
2 *6648:X 0.00011473
3 *6196:A *6142:A0 0.000122337
4 *225:160 *6142:A0 9.54399e-05
5 *295:20 *6142:A0 0.000237243
6 *488:14 *6142:A0 4.94326e-05
*RES
1 *6648:X *6142:A0 10.5 
*END

*D_NET *652 0.00110169
*CONN
*I *6187:A0 I *D sky130_fd_sc_hd__mux2_1
*I *6649:X O *D sky130_fd_sc_hd__dlygate4sd3_1
*CAP
1 *6187:A0 0.000253185
2 *6649:X 0.000253185
3 *6187:A0 *6187:A1 0.000140071
4 *5925:A3 *6187:A0 0.000160635
5 *6024:A *6187:A0 4.82863e-05
6 *6135:A *6187:A0 0
7 *6187:S *6187:A0 5.30673e-05
8 *6346:D *6187:A0 9.54399e-05
9 *6548:A *6187:A0 9.24049e-05
10 *552:10 *6187:A0 0
11 *568:8 *6187:A0 5.4155e-06
*RES
1 *6649:X *6187:A0 13.35 
*END

*D_NET *653 0.0010513
*CONN
*I *6300:A0 I *D sky130_fd_sc_hd__mux2_1
*I *6650:X O *D sky130_fd_sc_hd__dlygate4sd3_1
*CAP
1 *6300:A0 0.000121138
2 *6650:X 0.000121138
3 *6300:A0 *6016:A0 0.000275859
4 *6016:A1 *6300:A0 4.82919e-05
5 *6290:S *6300:A0 3.39064e-05
6 *232:167 *6300:A0 9.30717e-05
7 *625:124 *6300:A0 0.000198939
8 *625:142 *6300:A0 0.00015896
*RES
1 *6650:X *6300:A0 11.88 
*END

*D_NET *654 0.00050472
*CONN
*I *6053:A0 I *D sky130_fd_sc_hd__mux2_1
*I *6651:X O *D sky130_fd_sc_hd__dlygate4sd3_1
*CAP
1 *6053:A0 0.000156704
2 *6651:X 0.000156704
3 *5987:A0 *6053:A0 8.22234e-06
4 *6043:S *6053:A0 8.40269e-05
5 *233:181 *6053:A0 2.67022e-05
6 *485:10 *6053:A0 7.23602e-05
*RES
1 *6651:X *6053:A0 9.555 
*END

*D_NET *655 0.000901995
*CONN
*I *6158:A0 I *D sky130_fd_sc_hd__mux2_1
*I *6652:X O *D sky130_fd_sc_hd__dlygate4sd3_1
*CAP
1 *6158:A0 0.000425721
2 *6652:X 0.000425721
3 *6158:S *6158:A0 5.05521e-05
*RES
1 *6652:X *6158:A0 13.875 
*END

*D_NET *656 0.000499802
*CONN
*I *6045:A0 I *D sky130_fd_sc_hd__mux2_1
*I *6653:X O *D sky130_fd_sc_hd__dlygate4sd3_1
*CAP
1 *6045:A0 0.000192145
2 *6653:X 0.000192145
3 *6045:A0 *6045:A1 4.89395e-05
4 *319:84 *6045:A0 1.54665e-05
5 *319:95 *6045:A0 5.11067e-05
*RES
1 *6653:X *6045:A0 9.9 
*END

*D_NET *657 0.000919745
*CONN
*I *6243:A0 I *D sky130_fd_sc_hd__mux2_1
*I *6519:X O *D sky130_fd_sc_hd__dlygate4sd3_1
*CAP
1 *6243:A0 0.000202639
2 *6519:X 0.000202639
3 *6243:A0 *6243:A1 4.82863e-05
4 *5968:A0 *6243:A0 0.00046618
*RES
1 *6519:X *6243:A0 7.445 
*END

*D_NET *658 0.0274284
*CONN
*I *5904:A I *D sky130_fd_sc_hd__buf_8
*I *6658:X O *D sky130_fd_sc_hd__clkbuf_2
*CAP
1 *5904:A 0.001664
2 *6658:X 0.00101125
3 *658:24 0.00419615
4 *658:10 0.00713861
5 *658:8 0.00561772
6 *5904:A *5997:S1 0
7 *5904:A *6142:A1 3.98498e-05
8 *5904:A *6215:A1 0
9 *5904:A *768:93 4.49869e-05
10 *658:10 *6000:A1 0.000315527
11 *658:10 *6118:A0 0.000770932
12 *5967:A2 *658:24 0.000182025
13 *5995:A1 *5904:A 0
14 *5998:A1 *5904:A 6.20952e-05
15 *6000:A0 *658:10 0.00320958
16 *6001:A *658:10 8.8266e-05
17 *6038:A *5904:A 0.000104747
18 *6143:A *5904:A 4.05358e-05
19 *6166:S *5904:A 0
20 *6205:A0 *658:24 8.30745e-05
21 *6205:S *658:24 4.66826e-05
22 *6206:A *658:24 3.1562e-06
23 *6216:A *5904:A 7.4027e-05
24 *6321:A *5904:A 0.000289759
25 *6322:D *658:24 5.03301e-05
26 *6353:CLK *5904:A 0
27 *6353:D *5904:A 0
28 *6398:CLK *5904:A 1.70935e-05
29 *6398:D *5904:A 0
30 *6398:D *658:24 7.82691e-05
31 *6409:D *5904:A 0.000380335
32 *6415:D *5904:A 7.81954e-05
33 *6495:D *5904:A 3.60648e-05
34 *6505:A *5904:A 0.000183798
35 *6637:A *658:24 5.07419e-05
36 *6648:A *5904:A 6.47516e-05
37 *6648:A *658:24 0.000149093
38 *6658:A *658:8 3.00381e-05
39 *215:10 *5904:A 4.82863e-05
40 *216:44 *658:24 0.000653462
41 *225:136 *658:24 8.97564e-05
42 *226:133 *658:24 8.5225e-05
43 *237:80 *5904:A 0.000243853
44 *309:16 *5904:A 0
45 *391:122 *5904:A 2.75145e-05
46 *411:125 *658:24 0.000110828
47 *479:86 *5904:A 5.05716e-06
48 *481:52 *658:24 6.27529e-05
49 *488:8 *5904:A 0
50 *488:14 *5904:A 0
51 *636:65 *5904:A 0
*RES
1 *6658:X *658:8 12.9325 
2 *658:8 *658:10 77.9025 
3 *658:10 *658:24 43.035 
4 *658:24 *5904:A 35.265 
*END

*D_NET *659 0.00134609
*CONN
*I *6016:A0 I *D sky130_fd_sc_hd__mux2_1
*I *6520:X O *D sky130_fd_sc_hd__dlygate4sd3_1
*CAP
1 *6016:A0 0.000282945
2 *6520:X 0.000282945
3 *6006:S *6016:A0 0.000124895
4 *6016:A1 *6016:A0 0.000179027
5 *6300:A0 *6016:A0 0.000275859
6 *6300:S *6016:A0 0.000114589
7 *6301:A *6016:A0 5.91029e-05
8 *625:142 *6016:A0 2.67275e-05
*RES
1 *6520:X *6016:A0 11.015 
*END

*D_NET *660 0.000675684
*CONN
*I *6047:A0 I *D sky130_fd_sc_hd__mux2_1
*I *6521:X O *D sky130_fd_sc_hd__dlygate4sd3_1
*CAP
1 *6047:A0 0.000157343
2 *6521:X 0.000157343
3 *6047:A0 *6047:A1 4.99619e-05
4 *6047:A0 *779:18 0.000253321
5 *6047:S *6047:A0 5.77162e-05
*RES
1 *6521:X *6047:A0 7.445 
*END

*D_NET *661 0.00140917
*CONN
*I *6288:A0 I *D sky130_fd_sc_hd__mux2_1
*I *6522:X O *D sky130_fd_sc_hd__dlygate4sd3_1
*CAP
1 *6288:A0 0.0003117
2 *6522:X 0.0003117
3 *5931:A1 *6288:A0 5.2124e-05
4 *6042:A *6288:A0 0.000158982
5 *6480:CLK *6288:A0 0.000196376
6 *232:157 *6288:A0 0.00015829
7 *319:105 *6288:A0 6.55667e-05
8 *319:109 *6288:A0 0.000154435
*RES
1 *6522:X *6288:A0 13.98 
*END

*D_NET *662 0.00101988
*CONN
*I *6041:A0 I *D sky130_fd_sc_hd__mux2_1
*I *6523:X O *D sky130_fd_sc_hd__dlygate4sd3_1
*CAP
1 *6041:A0 0.000349076
2 *6523:X 0.000349076
3 *6041:A0 *724:151 2.75229e-05
4 *6041:A0 *724:164 0.000221848
5 *233:171 *6041:A0 7.23602e-05
6 *329:85 *6041:A0 0
*RES
1 *6523:X *6041:A0 11.97 
*END

*D_NET *663 0.000844108
*CONN
*I *6087:A0 I *D sky130_fd_sc_hd__mux2_1
*I *6524:X O *D sky130_fd_sc_hd__dlygate4sd3_1
*CAP
1 *6087:A0 0.000375407
2 *6524:X 0.000375407
3 *6087:A0 *6087:A1 4.66108e-05
4 *5979:A0 *6087:A0 0
5 *6087:S *6087:A0 4.66826e-05
6 *232:69 *6087:A0 0
*RES
1 *6524:X *6087:A0 12.675 
*END

*D_NET *664 0.00162041
*CONN
*I *6027:A0 I *D sky130_fd_sc_hd__mux2_1
*I *6525:X O *D sky130_fd_sc_hd__dlygate4sd3_1
*CAP
1 *6027:A0 0.000445553
2 *6525:X 0.000445553
3 *6027:A0 *6027:A1 4.82863e-05
4 *5949:A2 *6027:A0 2.16917e-05
5 *5950:A0 *6027:A0 1.88602e-05
6 *5954:A0 *6027:A0 3.64451e-05
7 *6028:A *6027:A0 0.000118081
8 *6388:CLK *6027:A0 0.000111909
9 *6388:D *6027:A0 5.01066e-05
10 *226:204 *6027:A0 0.000126167
11 *625:116 *6027:A0 0.000197754
*RES
1 *6525:X *6027:A0 15.765 
*END

*D_NET *665 0.000522732
*CONN
*I *6298:A0 I *D sky130_fd_sc_hd__mux2_1
*I *6526:X O *D sky130_fd_sc_hd__dlygate4sd3_1
*CAP
1 *6298:A0 0.000172672
2 *6526:X 0.000172672
3 *6298:A0 *6298:A1 9.51579e-05
4 *5978:A3 *6298:A0 1.19028e-05
5 *6359:D *6298:A0 7.03276e-05
*RES
1 *6526:X *6298:A0 9.9 
*END

*D_NET *666 0.00100455
*CONN
*I *6097:A0 I *D sky130_fd_sc_hd__mux2_1
*I *6527:X O *D sky130_fd_sc_hd__dlygate4sd3_1
*CAP
1 *6097:A0 0.000117284
2 *6527:X 0.000117284
3 *6097:A0 *6097:A1 5.4155e-06
4 *6097:A0 *724:179 3.00381e-05
5 *6097:A0 *724:188 0.000381323
6 *6402:CLK *6097:A0 0.00026661
7 *6527:A *6097:A0 8.65905e-05
*RES
1 *6527:X *6097:A0 7.91 
*END

*D_NET *667 0.000947541
*CONN
*I *6183:A0 I *D sky130_fd_sc_hd__mux2_1
*I *6528:X O *D sky130_fd_sc_hd__dlygate4sd3_1
*CAP
1 *6183:A0 0.000146965
2 *6528:X 0.000146965
3 *6183:A1 *6183:A0 4.99619e-05
4 *391:30 *6183:A0 2.30292e-05
5 *391:47 *6183:A0 7.35729e-05
6 *636:130 *6183:A0 0.000507048
*RES
1 *6528:X *6183:A0 7.79 
*END

*D_NET *668 0.00135553
*CONN
*I *6156:A0 I *D sky130_fd_sc_hd__mux2_1
*I *6530:X O *D sky130_fd_sc_hd__dlygate4sd3_1
*CAP
1 *6156:A0 0.000591762
2 *6530:X 0.000591762
3 *6156:A0 *6156:A1 2.11084e-05
4 *6157:A *6156:A0 0.000115203
5 *6530:A *6156:A0 9.60582e-07
6 *298:73 *6156:A0 2.46089e-05
7 *339:65 *6156:A0 1.0124e-05
*RES
1 *6530:X *6156:A0 14.505 
*END

*D_NET *669 0.0356129
*CONN
*I *828:DIODE I *D sky130_fd_sc_hd__diode_2
*I *6669:A I *D sky130_fd_sc_hd__clkbuf_4
*I *5899:Y O *D sky130_fd_sc_hd__inv_2
*CAP
1 *828:DIODE 0.000169507
2 *6669:A 0
3 *5899:Y 0.0116757
4 *669:18 0.000169507
5 *669:16 0.00561092
6 *669:14 0.0172866
7 *669:14 *6449:RESET_B 9.26907e-06
8 empty *828:DIODE 4.82919e-05
9 empty *669:16 0
10 *5950:A0 *669:14 0
11 *5988:S0 *669:14 0.000643204
12 *6109:S *669:14 0
13 *470:40 *669:14 0
*RES
1 *5899:Y *669:14 26.3126 
2 *669:14 *669:16 93.8175 
3 *669:16 *669:18 2 
4 *669:18 *6669:A 1.6 
5 *669:18 *828:DIODE 4.12 
*END

*D_NET *670 0.00124053
*CONN
*I *6083:A0 I *D sky130_fd_sc_hd__mux2_1
*I *6531:X O *D sky130_fd_sc_hd__dlygate4sd3_1
*CAP
1 *6083:A0 0.00034111
2 *6531:X 0.00034111
3 *5961:A0 *6083:A0 1.47347e-05
4 *5961:A1 *6083:A0 0.000113797
5 *5961:A2 *6083:A0 0.000157968
6 *6313:A *6083:A0 3.45679e-05
7 *6405:CLK *6083:A0 0.000237243
8 *6531:A *6083:A0 0
*RES
1 *6531:X *6083:A0 14.28 
*END

*D_NET *671 0.00106816
*CONN
*I *6065:A0 I *D sky130_fd_sc_hd__mux2_1
*I *6532:X O *D sky130_fd_sc_hd__dlygate4sd3_1
*CAP
1 *6065:A0 0.000284289
2 *6532:X 0.000284289
3 *6065:S *6065:A0 8.8266e-05
4 *6312:S *6065:A0 0.000315527
5 *6365:D *6065:A0 0
6 *486:106 *6065:A0 9.57888e-05
7 *523:12 *6065:A0 0
*RES
1 *6532:X *6065:A0 13.74 
*END

*D_NET *672 0.000858056
*CONN
*I *6179:A0 I *D sky130_fd_sc_hd__mux2_1
*I *6533:X O *D sky130_fd_sc_hd__dlygate4sd3_1
*CAP
1 *6179:A0 0.000262906
2 *6533:X 0.000262906
3 *6179:A0 *6179:A1 0.00015896
4 *6179:A0 *779:81 2.67022e-05
5 *6179:A0 *779:109 0.0001249
6 *233:45 *6179:A0 0
7 *428:16 *6179:A0 2.16833e-05
*RES
1 *6533:X *6179:A0 10.935 
*END

*D_NET *673 0.00107966
*CONN
*I *6173:A0 I *D sky130_fd_sc_hd__mux2_1
*I *6534:X O *D sky130_fd_sc_hd__dlygate4sd3_1
*CAP
1 *6173:A0 0.000422964
2 *6534:X 0.000422964
3 *6173:A0 *6173:A1 1.64405e-05
4 *5948:A3 *6173:A0 9.07793e-05
5 *6428:CLK *6173:A0 4.9253e-06
6 *6534:A *6173:A0 4.80285e-05
7 *391:22 *6173:A0 3.67779e-05
8 *602:10 *6173:A0 3.67779e-05
*RES
1 *6534:X *6173:A0 12.945 
*END

*D_NET *674 0.00114474
*CONN
*I *6217:A0 I *D sky130_fd_sc_hd__mux2_1
*I *6535:X O *D sky130_fd_sc_hd__dlygate4sd3_1
*CAP
1 *6217:A0 0.000375806
2 *6535:X 0.000375806
3 *6217:A1 *6217:A0 0.000187381
4 *6217:S *6217:A0 0
5 *6218:A *6217:A0 0
6 *6328:D *6217:A0 0.000159964
7 *598:10 *6217:A0 0
8 *625:32 *6217:A0 4.5783e-05
*RES
1 *6535:X *6217:A0 13.32 
*END

*D_NET *675 0.00120473
*CONN
*I *6006:A0 I *D sky130_fd_sc_hd__mux2_1
*I *6536:X O *D sky130_fd_sc_hd__dlygate4sd3_1
*CAP
1 *6006:A0 0.000401067
2 *6536:X 0.000401067
3 *5942:A0 *6006:A0 4.56696e-05
4 *6291:A *6006:A0 0.000272085
5 *233:191 *6006:A0 8.48392e-05
*RES
1 *6536:X *6006:A0 12.66 
*END

*D_NET *676 0.000697771
*CONN
*I *6122:A0 I *D sky130_fd_sc_hd__mux2_1
*I *6537:X O *D sky130_fd_sc_hd__dlygate4sd3_1
*CAP
1 *6122:A0 0.000266977
2 *6537:X 0.000266977
3 *6122:A0 *6122:A1 4.99619e-05
4 *5958:A0 *6122:A0 6.97034e-05
5 *6537:A *6122:A0 4.41506e-05
*RES
1 *6537:X *6122:A0 7.445 
*END

*D_NET *677 0.000908596
*CONN
*I *6081:A0 I *D sky130_fd_sc_hd__mux2_1
*I *6538:X O *D sky130_fd_sc_hd__dlygate4sd3_1
*CAP
1 *6081:A0 0.000295425
2 *6538:X 0.000295425
3 *6081:A0 *746:37 2.30292e-05
4 *6081:A0 *746:45 0.000122331
5 *382:53 *6081:A0 0.000172385
*RES
1 *6538:X *6081:A0 8.48 
*END

*D_NET *678 0.0014769
*CONN
*I *6071:A0 I *D sky130_fd_sc_hd__mux2_1
*I *6539:X O *D sky130_fd_sc_hd__dlygate4sd3_1
*CAP
1 *6071:A0 0.000495794
2 *6539:X 0.000495794
3 *6071:A0 *724:179 8.53099e-05
4 *5935:A0 *6071:A0 0.000171675
5 *6071:A1 *6071:A0 1.83847e-05
6 *6378:D *6071:A0 0.000116165
7 *351:111 *6071:A0 0
8 *351:119 *6071:A0 9.37731e-05
*RES
1 *6539:X *6071:A0 15.705 
*END

*D_NET *679 0.000616878
*CONN
*I *5914:A0 I *D sky130_fd_sc_hd__mux2_1
*I *6541:X O *D sky130_fd_sc_hd__dlygate4sd3_1
*CAP
1 *5914:A0 0.000163642
2 *6541:X 0.000163642
3 *5914:A0 *6243:A1 0.000162311
4 *5914:A0 *768:119 4.99619e-05
5 *6243:S *5914:A0 3.86607e-05
6 *216:44 *5914:A0 3.86607e-05
*RES
1 *6541:X *5914:A0 9.9 
*END

*D_NET *680 0.0114335
*CONN
*I *6670:A I *D sky130_fd_sc_hd__clkbuf_4
*I *5891:Y O *D sky130_fd_sc_hd__nor2_1
*CAP
1 *6670:A 0.00204185
2 *5891:Y 0.0014636
3 *680:14 0.00350546
4 *6670:A *6336:CLK 0.000206944
5 *6670:A *6677:A 0.000223319
6 *6670:A *705:6 0.00011964
7 *6670:A *711:92 0.000215469
8 *6670:A *711:115 0.000801545
9 *680:14 *6173:A1 3.67779e-05
10 *680:14 *6209:A0 7.81876e-05
11 *680:14 *6454:D 9.42644e-05
12 *680:14 *6610:A 0
13 *680:14 *791:14 0.00019637
14 full *6670:A 1.4399e-05
15 *5891:A *680:14 4.13171e-05
16 *5992:A *6670:A 0
17 *6228:A2 *680:14 0.00022448
18 *6267:A *6670:A 0.000250672
19 *6267:B *6670:A 0
20 *6269:A0 *6670:A 0.000144039
21 *6324:CLK *680:14 0
22 *6324:D *680:14 0
23 *6336:D *6670:A 0.000126073
24 *6468:D *6670:A 1.4399e-05
25 *6497:A *680:14 0.000200246
26 *6529:A *680:14 0.000215382
27 *225:247 *6670:A 4.70919e-05
28 *226:14 *6670:A 5.44552e-05
29 *226:14 *680:14 0.000250667
30 *226:18 *6670:A 2.86265e-06
31 *239:30 *6670:A 0.000775247
32 *391:22 *680:14 0
33 *411:30 *680:14 0
34 *420:10 *680:14 8.53113e-06
35 *479:51 *680:14 8.01855e-05
36 *480:8 *680:14 0
37 *480:79 *680:14 0
38 *487:25 *680:14 0
39 *487:40 *680:14 0
*RES
1 *5891:Y *680:14 34.355 
2 *680:14 *6670:A 41.3 
*END

*D_NET *681 0.00107974
*CONN
*I *6130:A0 I *D sky130_fd_sc_hd__mux2_1
*I *6542:X O *D sky130_fd_sc_hd__dlygate4sd3_1
*CAP
1 *6130:A0 0.000309348
2 *6542:X 0.000309348
3 *239:168 *6130:A0 0.000461047
*RES
1 *6542:X *6130:A0 7.445 
*END

*D_NET *682 0.000874767
*CONN
*I *6148:A0 I *D sky130_fd_sc_hd__mux2_1
*I *6543:X O *D sky130_fd_sc_hd__dlygate4sd3_1
*CAP
1 *6148:A0 0.000203734
2 *6543:X 0.000203734
3 *6148:S *6148:A0 0.000103127
4 *295:20 *6148:A0 7.4027e-05
5 *428:75 *6148:A0 0.000131179
6 *636:107 *6148:A0 0.000158965
*RES
1 *6543:X *6148:A0 12.195 
*END

*D_NET *683 0.00145835
*CONN
*I *6136:A0 I *D sky130_fd_sc_hd__mux2_1
*I *6544:X O *D sky130_fd_sc_hd__dlygate4sd3_1
*CAP
1 *6136:A0 0.000437987
2 *6544:X 0.000437987
3 *5940:A1 *6136:A0 5.53249e-06
4 *295:28 *6136:A0 0.000576848
5 *481:41 *6136:A0 0
*RES
1 *6544:X *6136:A0 13.35 
*END

*D_NET *684 0.000660865
*CONN
*I *6023:A0 I *D sky130_fd_sc_hd__mux2_1
*I *6545:X O *D sky130_fd_sc_hd__dlygate4sd3_1
*CAP
1 *6023:A0 0.000201935
2 *6545:X 0.000201935
3 *5925:S0 *6023:A0 4.05358e-05
4 *5990:A1 *6023:A0 3.42596e-05
5 *6025:S *6023:A0 2.67022e-05
6 *479:132 *6023:A0 0.000155497
*RES
1 *6545:X *6023:A0 10.245 
*END

*D_NET *685 0.00142383
*CONN
*I *6169:A0 I *D sky130_fd_sc_hd__mux2_1
*I *6546:X O *D sky130_fd_sc_hd__dlygate4sd3_1
*CAP
1 *6169:A0 0.000427277
2 *6546:X 0.000427277
3 *6169:A0 *724:43 0.000546246
4 *5984:S1 *6169:A0 2.30292e-05
5 *225:108 *6169:A0 0
*RES
1 *6546:X *6169:A0 13.35 
*END

*D_NET *686 0.00124539
*CONN
*I *6116:A0 I *D sky130_fd_sc_hd__mux2_1
*I *6547:X O *D sky130_fd_sc_hd__dlygate4sd3_1
*CAP
1 *6116:A0 0.000315222
2 *6547:X 0.000315222
3 *6116:A0 *735:117 7.89767e-05
4 *5940:A0 *6116:A0 0.000535969
*RES
1 *6547:X *6116:A0 14.115 
*END

*D_NET *687 0.000964608
*CONN
*I *6134:A0 I *D sky130_fd_sc_hd__mux2_1
*I *6548:X O *D sky130_fd_sc_hd__dlygate4sd3_1
*CAP
1 *6134:A0 7.60884e-05
2 *6548:X 7.60884e-05
3 *6134:A0 *724:64 4.82863e-05
4 *5990:A1 *6134:A0 0.000463617
5 *6134:S *6134:A0 2.30292e-05
6 *6545:A *6134:A0 0.000201508
7 *237:124 *6134:A0 7.59904e-05
*RES
1 *6548:X *6134:A0 7.445 
*END

*D_NET *688 0.00215796
*CONN
*I *6059:A0 I *D sky130_fd_sc_hd__mux2_1
*I *6549:X O *D sky130_fd_sc_hd__dlygate4sd3_1
*CAP
1 *6059:A0 0.000626167
2 *6549:X 0.000626167
3 *6059:A0 *6077:A1 0.000275553
4 *6059:A0 *724:171 0.000421961
5 *6370:D *6059:A0 0.000162325
6 *339:71 *6059:A0 4.5783e-05
7 *351:111 *6059:A0 0
*RES
1 *6549:X *6059:A0 16.77 
*END

*D_NET *689 0.0014793
*CONN
*I *6207:A0 I *D sky130_fd_sc_hd__mux2_1
*I *6550:X O *D sky130_fd_sc_hd__dlygate4sd3_1
*CAP
1 *6207:A0 0.000684285
2 *6550:X 0.000684285
3 *6207:A0 *5918:A0 2.67022e-05
4 *6427:CLK *6207:A0 0
5 *6550:A *6207:A0 8.40325e-05
*RES
1 *6550:X *6207:A0 16.08 
*END

*D_NET *690 0.000533305
*CONN
*I *6296:A0 I *D sky130_fd_sc_hd__mux2_1
*I *6552:X O *D sky130_fd_sc_hd__dlygate4sd3_1
*CAP
1 *6296:A0 0.000216261
2 *6552:X 0.000216261
3 *6296:A0 *6296:A1 1.56428e-05
4 *6296:A0 *768:14 2.59285e-05
5 *6296:S *6296:A0 1.22325e-05
6 *460:43 *6296:A0 2.16142e-05
7 *460:66 *6296:A0 2.53645e-05
*RES
1 *6552:X *6296:A0 10.875 
*END

*D_NET *691 0.0153737
*CONN
*I *6671:A I *D sky130_fd_sc_hd__buf_2
*I *5937:A1 I *D sky130_fd_sc_hd__mux2_1
*I *6330:Q O *D sky130_fd_sc_hd__dfxtp_1
*CAP
1 *6671:A 0
2 *5937:A1 0.00043172
3 *6330:Q 0
4 *691:31 0.001771
5 *691:25 0.00521666
6 *691:23 0.00353403
7 *691:6 0.000520093
8 *691:31 *701:23 0.00371034
9 *691:31 *757:14 0.000141606
10 r_data[0] *691:31 0
11 *5937:S *5937:A1 4.82919e-05
12 *6664:A *691:31 0
*RES
1 *6330:Q *691:6 3.6 
2 *691:6 *5937:A1 10.515 
3 *691:6 *691:23 3.38 
4 *691:23 *691:25 51.51 
5 *691:25 *691:31 48.985 
6 *691:31 *6671:A 1.6 
*END

*D_NET *692 0.000870275
*CONN
*I *6067:A0 I *D sky130_fd_sc_hd__mux2_1
*I *6553:X O *D sky130_fd_sc_hd__dlygate4sd3_1
*CAP
1 *6067:A0 0.000219679
2 *6553:X 0.000219679
3 *6067:A0 *6067:A1 2.75229e-05
4 *329:50 *6067:A0 1.12578e-05
5 *329:62 *6067:A0 0.000392136
*RES
1 *6553:X *6067:A0 7.445 
*END

*D_NET *693 0.0017665
*CONN
*I *6249:A0 I *D sky130_fd_sc_hd__mux2_1
*I *6554:X O *D sky130_fd_sc_hd__dlygate4sd3_1
*CAP
1 *6249:A0 0.000151639
2 *6554:X 0.000151639
3 *6249:A0 *768:93 0.000139245
4 *226:95 *6249:A0 0.000662828
5 *428:75 *6249:A0 8.8266e-05
6 *428:84 *6249:A0 0.000572886
*RES
1 *6554:X *6249:A0 14.805 
*END

*D_NET *694 0.000868844
*CONN
*I *6073:A0 I *D sky130_fd_sc_hd__mux2_1
*I *6555:X O *D sky130_fd_sc_hd__dlygate4sd3_1
*CAP
1 *6073:A0 0.000155097
2 *6555:X 0.000155097
3 *6555:A *6073:A0 4.66108e-05
4 *298:37 *6073:A0 1.83847e-05
5 *460:31 *6073:A0 0.000463617
6 *636:47 *6073:A0 3.00381e-05
*RES
1 *6555:X *6073:A0 7.445 
*END

*D_NET *695 0.000828001
*CONN
*I *6103:A0 I *D sky130_fd_sc_hd__mux2_1
*I *6556:X O *D sky130_fd_sc_hd__dlygate4sd3_1
*CAP
1 *6103:A0 0.000180911
2 *6556:X 0.000180911
3 *6103:A0 *757:24 0.000416218
4 *6103:A0 *757:33 4.99619e-05
*RES
1 *6556:X *6103:A0 7.445 
*END

*D_NET *696 0.000724643
*CONN
*I *6225:A0 I *D sky130_fd_sc_hd__mux2_1
*I *6557:X O *D sky130_fd_sc_hd__dlygate4sd3_1
*CAP
1 *6225:A0 0.00024158
2 *6557:X 0.00024158
3 *6225:A0 *5874:A 0
4 *6225:A1 *6225:A0 0.000241483
*RES
1 *6557:X *6225:A0 10.59 
*END

*D_NET *697 0.000891283
*CONN
*I *6222:A0 I *D sky130_fd_sc_hd__mux2_1
*I *6558:X O *D sky130_fd_sc_hd__dlygate4sd3_1
*CAP
1 *6222:A0 0.000341698
2 *6558:X 0.000341698
3 *6222:A0 *5885:A 0
4 *6222:A0 *6447:D 0
5 *6222:A0 *6558:A 0
6 *6222:S *6222:A0 0.000207887
*RES
1 *6558:X *6222:A0 12.675 
*END

*D_NET *698 0.000456972
*CONN
*I *6229:A0 I *D sky130_fd_sc_hd__mux2_1
*I *6559:X O *D sky130_fd_sc_hd__dlygate4sd3_1
*CAP
1 *6229:A0 0.000179646
2 *6559:X 0.000179646
3 *6229:A0 *5876:A 0
4 *6229:A0 *6461:RESET_B 1.08758e-05
5 *6229:A0 *710:32 0
6 *6229:A0 *710:34 0
7 *6229:A1 *6229:A0 6.97118e-05
8 *6229:S *6229:A0 1.70935e-05
*RES
1 *6559:X *6229:A0 10.32 
*END

*D_NET *699 0.0107352
*CONN
*I *6672:A I *D sky130_fd_sc_hd__buf_2
*I *5946:A1 I *D sky130_fd_sc_hd__mux2_1
*I *6331:Q O *D sky130_fd_sc_hd__dfxtp_1
*CAP
1 *6672:A 0.000219745
2 *5946:A1 0.000329463
3 *6331:Q 6.02813e-05
4 *699:19 0.00497202
5 *699:10 0.00514202
6 r_data[1] *6672:A 1.17114e-05
7 *239:228 *699:10 0
*RES
1 *6331:Q *699:10 6.47 
2 *699:10 *5946:A1 5.155 
3 *699:10 *699:19 52.2 
4 *699:19 *6672:A 9.275 
*END

*D_NET *700 0.0176113
*CONN
*I *6673:A I *D sky130_fd_sc_hd__clkbuf_4
*I *5955:A1 I *D sky130_fd_sc_hd__mux2_1
*I *6332:Q O *D sky130_fd_sc_hd__dfxtp_1
*CAP
1 *6673:A 0.00183107
2 *5955:A1 0.000535075
3 *6332:Q 0
4 *700:25 0.00602784
5 *700:21 0.0051012
6 *700:4 0.0014395
7 *5955:A1 *712:83 0.00013955
8 *6673:A *724:16 0.00234683
9 *6332:D *5955:A1 0.000190272
10 *6658:A *6673:A 0
11 *239:206 *5955:A1 0
*RES
1 *6332:Q *700:4 1.6 
2 *700:4 *5955:A1 12.44 
3 *700:4 *700:21 10.2825 
4 *700:21 *700:25 48.1625 
5 *700:25 *6673:A 43.485 
*END

*D_NET *701 0.0175762
*CONN
*I *6674:A I *D sky130_fd_sc_hd__clkbuf_4
*I *5964:A1 I *D sky130_fd_sc_hd__mux2_1
*I *6333:Q O *D sky130_fd_sc_hd__dfxtp_1
*CAP
1 *6674:A 0
2 *5964:A1 0.000250653
3 *6333:Q 0.000116464
4 *701:23 0.00285507
5 *701:21 0.00285507
6 *701:19 0.00369571
7 *701:10 0.00406283
8 r_data[0] *701:23 0
9 *5964:S *5964:A1 3.00381e-05
10 *691:31 *701:23 0.00371034
*RES
1 *6333:Q *701:10 7.49 
2 *701:10 *5964:A1 5.155 
3 *701:10 *701:19 51.165 
4 *701:19 *701:21 2 
5 *701:21 *701:23 62.58 
6 *701:23 *6674:A 3.6 
*END

*D_NET *702 0.0151535
*CONN
*I *6513:A I *D sky130_fd_sc_hd__buf_6
*I *6472:RESET_B I *D sky130_fd_sc_hd__dfrtp_1
*I *6659:X O *D sky130_fd_sc_hd__clkbuf_2
*CAP
1 *6513:A 0.000434105
2 *6472:RESET_B 0.0016053
3 *6659:X 0.000637683
4 *702:14 0.002175
5 *702:10 0.00324557
6 *702:8 0.00374767
7 *6472:RESET_B *5895:A 8.05141e-05
8 *6472:RESET_B *6265:A1 9.24049e-05
9 *6472:RESET_B *709:90 0
10 *6472:RESET_B *711:92 0.000140844
11 *6472:RESET_B *712:33 4.24575e-05
12 *6472:RESET_B *794:16 0.000156808
13 *6472:RESET_B *794:25 0.000359844
14 *6472:RESET_B *794:34 0.000944087
15 *5897:B *6472:RESET_B 0
16 *5898:A *6472:RESET_B 5.20968e-05
17 *6270:A *6513:A 0.000123955
18 *6473:D *6472:RESET_B 0
19 *239:30 *6472:RESET_B 0.000109441
20 *239:41 *6472:RESET_B 0.000404438
21 *239:54 *6472:RESET_B 0.000724997
22 *239:67 *6472:RESET_B 7.63125e-05
*RES
1 *6659:X *702:8 10.605 
2 *702:8 *702:10 52.125 
3 *702:10 *702:14 3.83 
4 *702:14 *6472:RESET_B 45.0325 
5 *702:14 *6513:A 7.93 
*END

*D_NET *703 0.00819483
*CONN
*I *6675:A I *D sky130_fd_sc_hd__clkbuf_4
*I *5973:A1 I *D sky130_fd_sc_hd__mux2_1
*I *6334:Q O *D sky130_fd_sc_hd__dfxtp_1
*CAP
1 *6675:A 0
2 *5973:A1 0.00044498
3 *6334:Q 0
4 *703:27 0.00310945
5 *703:25 0.00347703
6 *703:4 0.000812557
7 *5973:A1 *712:64 3.19126e-05
8 *703:25 *712:64 3.69746e-05
9 *5973:A0 *5973:A1 0
10 *5974:A *5973:A1 0
11 *6000:S *703:27 5.12942e-05
12 *6001:A *703:27 7.06865e-05
13 *6337:D *703:25 1.20152e-05
14 *239:184 *5973:A1 2.30292e-05
15 *239:193 *5973:A1 0.000124895
*RES
1 *6334:Q *703:4 1.6 
2 *703:4 *5973:A1 12.275 
3 *703:4 *703:25 6.245 
4 *703:25 *703:27 52.635 
5 *703:27 *6675:A 3.6 
*END

*D_NET *704 0.00164759
*CONN
*I *5982:A1 I *D sky130_fd_sc_hd__mux2_1
*I *6676:A I *D sky130_fd_sc_hd__clkbuf_4
*I *6335:Q O *D sky130_fd_sc_hd__dfxtp_1
*CAP
1 *5982:A1 0.000193379
2 *6676:A 0.000553401
3 *6335:Q 0
4 *704:4 0.00074678
5 *6676:A *709:90 0
6 *6676:A *711:38 0
7 r_data[5] *6676:A 3.00381e-05
8 *5982:A0 *5982:A1 4.99619e-05
9 *5983:A *6676:A 0
10 *6335:D *6676:A 7.4027e-05
*RES
1 *6335:Q *704:4 1.6 
2 *704:4 *6676:A 13.655 
3 *704:4 *5982:A1 3.775 
*END

*D_NET *705 0.00562986
*CONN
*I *5991:A1 I *D sky130_fd_sc_hd__mux2_1
*I *6677:A I *D sky130_fd_sc_hd__clkbuf_4
*I *6336:Q O *D sky130_fd_sc_hd__dfxtp_1
*CAP
1 *5991:A1 0.000170014
2 *6677:A 0.00228248
3 *6336:Q 0.000126342
4 *705:6 0.00257884
5 *5991:A1 *711:73 0
6 *6677:A *6336:CLK 3.1562e-06
7 full *6677:A 0
8 *5992:A *5991:A1 0
9 *6336:D *6677:A 0.000126073
10 *6670:A *6677:A 0.000223319
11 *6670:A *705:6 0.00011964
*RES
1 *6336:Q *705:6 3.43 
2 *705:6 *6677:A 42.92 
3 *705:6 *5991:A1 8.255 
*END

*D_NET *706 0.0122667
*CONN
*I *6678:A I *D sky130_fd_sc_hd__clkbuf_4
*I *6000:A1 I *D sky130_fd_sc_hd__mux2_1
*I *6337:Q O *D sky130_fd_sc_hd__dfxtp_1
*CAP
1 *6678:A 0
2 *6000:A1 0.000263782
3 *6337:Q 0
4 *706:23 0.00314398
5 *706:21 0.00571178
6 *706:4 0.00283158
7 *6000:S *6000:A1 0
8 *658:10 *6000:A1 0.000315527
*RES
1 *6337:Q *706:4 1.6 
2 *706:4 *6000:A1 9.335 
3 *706:4 *706:21 30.05 
4 *706:21 *706:23 52.635 
5 *706:23 *6678:A 3.6 
*END

*D_NET *707 0.000817431
*CONN
*I *6284:A I *D sky130_fd_sc_hd__inv_2
*I *6667:X O *D sky130_fd_sc_hd__clkbuf_1
*CAP
1 *6284:A 0.000206819
2 *6667:X 0.000206819
3 *5874:B *6284:A 0.000164874
4 *6285:A1 *6284:A 0.000238919
*RES
1 *6667:X *6284:A 7.715 
*END

*D_NET *708 0.000520164
*CONN
*I *5884:B I *D sky130_fd_sc_hd__xnor2_1
*I *5875:A1 I *D sky130_fd_sc_hd__mux2_1
*I *6668:X O *D sky130_fd_sc_hd__buf_1
*CAP
1 *5884:B 0.000127238
2 *5875:A1 1.88809e-05
3 *6668:X 8.38816e-05
4 *708:12 0.000230001
5 *5871:A *708:12 0
6 *5875:S *5875:A1 5.4155e-06
7 *5875:S *5884:B 5.47473e-05
8 *5875:S *708:12 0
*RES
1 *6668:X *708:12 6.83 
2 *708:12 *5875:A1 1.96 
3 *708:12 *5884:B 3.79 
*END

*D_NET *709 0.0205293
*CONN
*I *6449:RESET_B I *D sky130_fd_sc_hd__dfrtp_1
*I *6454:RESET_B I *D sky130_fd_sc_hd__dfrtp_1
*I *6467:RESET_B I *D sky130_fd_sc_hd__dfrtp_4
*I *6468:RESET_B I *D sky130_fd_sc_hd__dfrtp_1
*I *6470:RESET_B I *D sky130_fd_sc_hd__dfrtp_1
*I *6469:RESET_B I *D sky130_fd_sc_hd__dfrtp_2
*I *6452:RESET_B I *D sky130_fd_sc_hd__dfrtp_1
*I *6471:RESET_B I *D sky130_fd_sc_hd__dfrtp_1
*I *6447:RESET_B I *D sky130_fd_sc_hd__dfrtp_1
*I *6448:RESET_B I *D sky130_fd_sc_hd__dfrtp_1
*I *6453:RESET_B I *D sky130_fd_sc_hd__dfrtp_1
*I *6451:RESET_B I *D sky130_fd_sc_hd__dfrtp_1
*I *6456:RESET_B I *D sky130_fd_sc_hd__dfrtp_1
*I *6450:RESET_B I *D sky130_fd_sc_hd__dfrtp_1
*I *6455:RESET_B I *D sky130_fd_sc_hd__dfrtp_1
*I *6474:RESET_B I *D sky130_fd_sc_hd__dfrtp_1
*I *6475:RESET_B I *D sky130_fd_sc_hd__dfrtp_2
*I *6473:RESET_B I *D sky130_fd_sc_hd__dfrtp_1
*I *6513:X O *D sky130_fd_sc_hd__buf_6
*CAP
1 *6449:RESET_B 0.000701923
2 *6454:RESET_B 3.2638e-05
3 *6467:RESET_B 7.0545e-05
4 *6468:RESET_B 0
5 *6470:RESET_B 0.000190125
6 *6469:RESET_B 0.00104101
7 *6452:RESET_B 0.000194206
8 *6471:RESET_B 0.000337842
9 *6447:RESET_B 3.92856e-05
10 *6448:RESET_B 3.9492e-05
11 *6453:RESET_B 0
12 *6451:RESET_B 3.81895e-05
13 *6456:RESET_B 0
14 *6450:RESET_B 4.34132e-05
15 *6455:RESET_B 0
16 *6474:RESET_B 5.12783e-05
17 *6475:RESET_B 0.00129145
18 *6473:RESET_B 0
19 *6513:X 0.00016222
20 *709:211 0.00111733
21 *709:187 0.000303739
22 *709:185 0.000698796
23 *709:177 0.00125416
24 *709:113 0.000377128
25 *709:111 0.000487942
26 *709:99 0.000457218
27 *709:90 0.000847138
28 *709:80 0.000942556
29 *709:71 0.000545238
30 *709:59 0.000619585
31 *709:48 0.000424554
32 *709:38 0.000836795
33 *709:17 0.00157315
34 *709:10 0.00033278
35 *6447:RESET_B *6447:D 2.51336e-05
36 *6448:RESET_B *6448:D 2.56006e-05
37 *6449:RESET_B *5888:A 0
38 *6449:RESET_B *5893:A 0
39 *6449:RESET_B *6449:CLK 5.83121e-06
40 *6449:RESET_B *6599:A 0
41 *6449:RESET_B *712:39 0.000163019
42 *6450:RESET_B *6450:D 1.83756e-05
43 *6451:RESET_B *6451:D 7.98735e-05
44 *6452:RESET_B *711:24 2.40101e-05
45 *6452:RESET_B *712:14 0
46 *6454:RESET_B *5893:A 5.23585e-05
47 *6454:RESET_B *6454:D 0.000157375
48 *6469:RESET_B *792:8 0.000387088
49 *6469:RESET_B *792:18 0.000225718
50 *6469:RESET_B *797:19 0.000226951
51 *6470:RESET_B *5934:A 0
52 *6471:RESET_B *6447:D 0.00038879
53 *6471:RESET_B *712:14 0
54 *6475:RESET_B *711:73 0
55 *6475:RESET_B *794:16 0.000114358
56 *709:17 *797:10 7.28749e-05
57 *709:17 *797:19 5.99925e-05
58 *709:38 *6273:A1 0.000120186
59 *709:38 *711:69 0
60 *709:38 *711:73 0
61 *709:48 *6273:A1 3.95347e-05
62 *709:48 *798:21 3.31204e-05
63 *709:59 *6455:D 2.67022e-05
64 *709:80 *6456:D 2.87867e-05
65 *709:90 *5894:B 0
66 *709:90 *712:14 0.000142798
67 *709:99 *6453:D 3.86607e-05
68 *709:99 *712:14 3.97957e-05
69 *709:111 *712:14 0
70 *709:185 *5926:A 5.30673e-05
71 *709:211 *6599:A 0
72 *5899:A *6449:RESET_B 3.45679e-05
73 *5927:A *709:177 0
74 *5983:A *709:90 7.23602e-05
75 *5991:S *6475:RESET_B 4.80285e-05
76 *5991:S *709:38 4.76281e-05
77 *5998:S *709:185 3.94429e-05
78 *6174:A *709:177 0
79 *6174:A *709:185 7.35813e-05
80 *6174:A *709:211 0
81 *6268:B *709:10 0
82 *6270:A *709:10 6.59797e-05
83 *6270:A *709:17 3.86571e-05
84 *6273:A0 *709:38 0.000143266
85 *6277:B *6469:RESET_B 7.44453e-05
86 *6277:B *6475:RESET_B 1.04217e-05
87 *6335:D *709:90 0
88 *6385:CLK *6449:RESET_B 2.91561e-06
89 *6412:D *709:185 8.57024e-05
90 *6412:D *709:211 0
91 *6469:D *6469:RESET_B 0.000103128
92 *6471:D *6471:RESET_B 4.70343e-05
93 *6472:D *709:90 0
94 *6472:RESET_B *709:90 0
95 *6475:D *6475:RESET_B 1.58862e-05
96 *6475:D *709:38 7.94826e-05
97 *6676:A *709:90 0
98 *210:12 *709:177 4.94404e-05
99 *210:12 *709:211 0
100 *229:6 *709:185 1.61831e-05
101 *230:8 *709:185 0.000166943
102 *230:8 *709:187 7.35868e-05
103 *230:263 *6467:RESET_B 2.34022e-05
104 *237:24 *709:10 0
105 *237:24 *709:17 0
106 *239:30 *6475:RESET_B 2.86623e-05
107 *239:41 *6475:RESET_B 2.42236e-05
108 *239:41 *709:38 0
109 *239:54 *709:38 2.01541e-05
110 *239:54 *709:48 9.49033e-05
111 *239:54 *709:59 1.64451e-05
112 *239:54 *709:71 0
113 *239:54 *709:80 0
114 *239:54 *709:90 0
115 *239:67 *709:90 0
116 *391:30 *6470:RESET_B 0.000353719
117 *391:30 *709:185 0.00050795
118 *391:30 *709:187 0.000267519
119 *411:30 *6470:RESET_B 0
120 *411:30 *709:185 0
121 *411:30 *709:187 0
122 *479:51 *709:185 4.41506e-05
123 *479:61 *6449:RESET_B 0.000201855
124 *487:10 *709:185 0
125 *487:65 *6449:RESET_B 4.66108e-05
126 *669:14 *6449:RESET_B 9.26907e-06
*RES
1 *6513:X *709:10 6.54 
2 *709:10 *6473:RESET_B 2 
3 *709:10 *709:17 3.42 
4 *709:17 *6475:RESET_B 14.82 
5 *6475:RESET_B *709:38 12.9875 
6 *709:38 *6474:RESET_B 2.7425 
7 *709:38 *709:48 4.185 
8 *709:48 *6455:RESET_B 2 
9 *709:48 *709:59 3.735 
10 *709:59 *6450:RESET_B 2.7575 
11 *709:59 *709:71 5.97 
12 *709:71 *6456:RESET_B 2 
13 *709:71 *709:80 3.105 
14 *709:80 *6451:RESET_B 2.7425 
15 *709:80 *709:90 12.6 
16 *709:90 *6453:RESET_B 2 
17 *709:90 *709:99 2.34 
18 *709:99 *6448:RESET_B 2.7575 
19 *709:99 *709:111 4.185 
20 *709:111 *709:113 2 
21 *709:113 *6447:RESET_B 0.7575 
22 *709:113 *6471:RESET_B 10.6975 
23 *709:111 *6452:RESET_B 4.6475 
24 *709:17 *6469:RESET_B 16.5725 
25 *6469:RESET_B *709:177 10.77 
26 *709:177 *709:185 15.595 
27 *709:185 *709:187 3.165 
28 *709:187 *6470:RESET_B 6.185 
29 *709:187 *6468:RESET_B 2 
30 *709:185 *6467:RESET_B 3.1025 
31 *709:177 *709:211 6.225 
32 *709:211 *6454:RESET_B 3.4325 
33 *709:211 *6449:RESET_B 17.6925 
*END

*D_NET *710 0.0197184
*CONN
*I *6457:RESET_B I *D sky130_fd_sc_hd__dfrtp_1
*I *6476:RESET_B I *D sky130_fd_sc_hd__dfrtp_1
*I *6478:RESET_B I *D sky130_fd_sc_hd__dfrtp_4
*I *6477:RESET_B I *D sky130_fd_sc_hd__dfrtp_4
*I *6462:RESET_B I *D sky130_fd_sc_hd__dfrtp_1
*I *6434:RESET_B I *D sky130_fd_sc_hd__dfrtp_1
*I *6435:RESET_B I *D sky130_fd_sc_hd__dfrtp_1
*I *6463:RESET_B I *D sky130_fd_sc_hd__dfrtp_1
*I *6458:RESET_B I *D sky130_fd_sc_hd__dfrtp_1
*I *6466:RESET_B I *D sky130_fd_sc_hd__dfrtp_1
*I *6461:RESET_B I *D sky130_fd_sc_hd__dfrtp_1
*I *6436:RESET_B I *D sky130_fd_sc_hd__dfrtp_1
*I *6464:RESET_B I *D sky130_fd_sc_hd__dfrtp_1
*I *6437:RESET_B I *D sky130_fd_sc_hd__dfrtp_1
*I *6465:RESET_B I *D sky130_fd_sc_hd__dfrtp_1
*I *6460:RESET_B I *D sky130_fd_sc_hd__dfrtp_1
*I *6459:RESET_B I *D sky130_fd_sc_hd__dfrtp_1
*I *6438:RESET_B I *D sky130_fd_sc_hd__dfrtp_1
*I *6514:X O *D sky130_fd_sc_hd__clkbuf_8
*CAP
1 *6457:RESET_B 0.000284028
2 *6476:RESET_B 0.000265151
3 *6478:RESET_B 0.000134023
4 *6477:RESET_B 0.000759112
5 *6462:RESET_B 0.000217558
6 *6434:RESET_B 3.20529e-05
7 *6435:RESET_B 8.92782e-05
8 *6463:RESET_B 0.000157579
9 *6458:RESET_B 4.89574e-05
10 *6466:RESET_B 0
11 *6461:RESET_B 0.000379234
12 *6436:RESET_B 0.000303954
13 *6464:RESET_B 8.78658e-05
14 *6437:RESET_B 0.000233797
15 *6465:RESET_B 0
16 *6460:RESET_B 0.000320604
17 *6459:RESET_B 0.000142939
18 *6438:RESET_B 5.42594e-05
19 *6514:X 0
20 *710:217 1.38734e-05
21 *710:185 0.000883098
22 *710:149 0.00105264
23 *710:135 0.000591944
24 *710:109 0.000206537
25 *710:72 0.00109225
26 *710:60 0.000934232
27 *710:38 0.00053393
28 *710:36 0.000317971
29 *710:34 0.000396277
30 *710:32 0.000641331
31 *710:30 0.000468809
32 *710:16 0.000705711
33 *710:12 0.000583521
34 *710:10 0.000896546
35 *710:8 0.000693802
36 *710:6 0.000444164
37 *6436:RESET_B *6449:D 0.000496985
38 *6437:RESET_B *6559:A 4.99619e-05
39 *6458:RESET_B *712:33 0.000152493
40 *6459:RESET_B *5893:A 0
41 *6459:RESET_B *6454:CLK 8.97832e-05
42 *6460:RESET_B *6588:A 0.000204026
43 *6461:RESET_B *6566:A 3.72916e-05
44 *6462:RESET_B *5885:A 1.71013e-05
45 *6462:RESET_B *5885:B 0
46 *6463:RESET_B *712:33 0.000458681
47 *6464:RESET_B *5888:A 0.000114492
48 *6464:RESET_B *712:33 4.57018e-05
49 *6476:RESET_B *810:6 0
50 *6476:RESET_B *810:75 6.21553e-05
51 *6477:RESET_B *5885:B 5.30673e-05
52 *6477:RESET_B *810:12 0.000117787
53 *6478:RESET_B *810:75 0.000225182
54 *710:16 *6463:D 0
55 *710:30 *6231:A0 0.000203178
56 *710:30 *813:10 0
57 *710:36 *5893:A 0
58 *710:36 *6450:D 0
59 *710:36 *6465:D 5.74016e-05
60 *710:38 *5893:A 0
61 *710:38 *6465:D 5.13155e-05
62 *710:149 *6558:A 4.82919e-05
63 *710:185 *810:12 2.66935e-05
64 *5879:A *710:185 7.35813e-05
65 *5889:C1 *6477:RESET_B 0.000124895
66 *5898:B *710:36 0
67 *6222:A1 *710:10 0
68 *6229:A0 *6461:RESET_B 1.08758e-05
69 *6229:A0 *710:32 0
70 *6229:A0 *710:34 0
71 *6229:S *710:16 0
72 *6229:S *710:30 0.000207251
73 *6229:S *710:32 8.97564e-05
74 *6230:A *6461:RESET_B 0.000239813
75 *6231:A1 *710:16 0
76 *6232:A *710:30 0
77 *6260:A *6459:RESET_B 0
78 *6260:A *710:12 0.000185626
79 *6260:A *710:16 0.000313824
80 *6260:A *710:30 0
81 *6260:A *710:32 0
82 *6260:A *710:34 0
83 *6260:A *710:36 0
84 *6260:A *710:38 0
85 *6279:A1 *710:185 5.05437e-05
86 *6434:D *710:8 1.01661e-05
87 *6434:D *710:10 2.67022e-05
88 *6435:CLK *6435:RESET_B 5.04275e-05
89 *6435:D *710:10 0
90 *6435:D *710:12 0
91 *6457:CLK *6457:RESET_B 0
92 *6457:CLK *710:8 0
93 *6460:CLK *6460:RESET_B 0.000118672
94 *6476:D *6476:RESET_B 3.67779e-05
95 *6476:D *6478:RESET_B 3.9442e-05
96 *6477:D *710:185 0
97 *6478:D *6478:RESET_B 0
98 *6479:CLK *710:8 0
99 *6479:CLK *710:10 0
100 *182:14 *710:185 0.000138791
101 *420:51 *710:16 0
102 *420:85 *6478:RESET_B 0
103 *420:87 *710:185 6.88941e-05
104 *460:14 *6478:RESET_B 0
105 *487:65 *6436:RESET_B 0.000273872
106 *487:65 *6464:RESET_B 7.81924e-05
107 *490:12 *710:10 0
108 *490:12 *710:12 0
109 *490:20 *6458:RESET_B 0.000269719
110 *490:20 *6463:RESET_B 9.07793e-05
111 *491:20 *710:185 3.18219e-05
112 *491:22 *6477:RESET_B 0.000170014
113 *491:35 *6434:RESET_B 4.70477e-05
114 *491:35 *6477:RESET_B 8.74498e-05
115 *491:35 *710:149 0.000404839
116 *491:52 *710:8 0
*RES
1 *6514:X *710:6 3.6 
2 *710:6 *710:8 2.655 
3 *710:8 *710:10 8.265 
4 *710:10 *710:12 5.46 
5 *710:12 *710:16 8.48 
6 *710:16 *6438:RESET_B 0.7425 
7 *710:16 *710:30 9.41 
8 *710:30 *710:32 2.145 
9 *710:32 *710:34 2.145 
10 *710:34 *710:36 4.185 
11 *710:36 *710:38 1.38 
12 *710:38 *6459:RESET_B 4.91 
13 *710:38 *6460:RESET_B 7.5725 
14 *710:36 *6465:RESET_B 2 
15 *710:34 *710:60 2 
16 *710:60 *6437:RESET_B 3.7875 
17 *710:60 *710:72 9.42 
18 *710:72 *6464:RESET_B 6.1225 
19 *710:72 *6436:RESET_B 6.9525 
20 *710:32 *6461:RESET_B 8.6375 
21 *710:30 *6466:RESET_B 2 
22 *710:12 *710:109 2 
23 *710:109 *6458:RESET_B 2.4675 
24 *710:109 *6463:RESET_B 4.5525 
25 *710:10 *6435:RESET_B 3.3575 
26 *710:8 *710:135 2 
27 *710:135 *6434:RESET_B 1.1025 
28 *710:135 *710:149 8.85 
29 *710:149 *6462:RESET_B 7.1575 
30 *710:149 *6477:RESET_B 6.5025 
31 *6477:RESET_B *710:185 12.75 
32 *710:185 *6478:RESET_B 5.165 
33 *710:185 *6476:RESET_B 5.8025 
34 *710:6 *6457:RESET_B 5.5475 
35 *6457:RESET_B *710:217 0.24 
*END

*D_NET *711 0.020164
*CONN
*I *6471:CLK I *D sky130_fd_sc_hd__dfrtp_1
*I *6452:CLK I *D sky130_fd_sc_hd__dfrtp_1
*I *6447:CLK I *D sky130_fd_sc_hd__dfrtp_1
*I *6448:CLK I *D sky130_fd_sc_hd__dfrtp_1
*I *6453:CLK I *D sky130_fd_sc_hd__dfrtp_1
*I *6335:CLK I *D sky130_fd_sc_hd__dfxtp_1
*I *6451:CLK I *D sky130_fd_sc_hd__dfrtp_1
*I *6456:CLK I *D sky130_fd_sc_hd__dfrtp_1
*I *6450:CLK I *D sky130_fd_sc_hd__dfrtp_1
*I *6455:CLK I *D sky130_fd_sc_hd__dfrtp_1
*I *6475:CLK I *D sky130_fd_sc_hd__dfrtp_2
*I *6454:CLK I *D sky130_fd_sc_hd__dfrtp_1
*I *6469:CLK I *D sky130_fd_sc_hd__dfrtp_2
*I *6468:CLK I *D sky130_fd_sc_hd__dfrtp_1
*I *6470:CLK I *D sky130_fd_sc_hd__dfrtp_1
*I *6473:CLK I *D sky130_fd_sc_hd__dfrtp_1
*I *6336:CLK I *D sky130_fd_sc_hd__dfxtp_1
*I *6474:CLK I *D sky130_fd_sc_hd__dfrtp_1
*I *6515:X O *D sky130_fd_sc_hd__buf_4
*CAP
1 *6471:CLK 0
2 *6452:CLK 0
3 *6447:CLK 0
4 *6448:CLK 0
5 *6453:CLK 0.000216844
6 *6335:CLK 0
7 *6451:CLK 0
8 *6456:CLK 0
9 *6450:CLK 0.000200528
10 *6455:CLK 0
11 *6475:CLK 3.73015e-05
12 *6454:CLK 0.000682296
13 *6469:CLK 0
14 *6468:CLK 0
15 *6470:CLK 0.000261591
16 *6473:CLK 0
17 *6336:CLK 0.000418687
18 *6474:CLK 0.000110128
19 *6515:X 0.000100831
20 *711:135 0.000932418
21 *711:115 0.00043706
22 *711:109 0.00152991
23 *711:92 0.00165481
24 *711:73 0.00113296
25 *711:69 0.00111169
26 *711:54 0.00129326
27 *711:50 0.000374954
28 *711:48 0.000718613
29 *711:46 0.000708106
30 *711:38 0.000552156
31 *711:34 0.000768753
32 *711:32 0.000842345
33 *711:30 0.000365231
34 *711:28 0.00038642
35 *711:24 0.000830765
36 *711:14 0.000793956
37 *6450:CLK *6450:D 1.04217e-05
38 *6454:CLK *5893:A 9.36617e-05
39 *6454:CLK *6465:D 7.00889e-06
40 *6470:CLK *712:53 0
41 *6470:CLK *713:8 0
42 *711:14 *5896:A 0.000137017
43 *711:14 *712:14 6.28765e-05
44 *711:24 *5896:A 1.17309e-05
45 *711:28 *6452:D 4.61658e-05
46 *711:46 *6451:D 5.05437e-05
47 *711:109 *797:10 1.16646e-05
48 *711:115 *5936:A 0.000161529
49 *711:115 *6254:A2 0.000124895
50 r_data[5] *711:38 0
51 *5991:A0 *711:69 0
52 *5991:A0 *711:73 0
53 *5991:A1 *711:73 0
54 *5991:S *6475:CLK 1.35948e-05
55 *6253:A *711:135 6.61973e-05
56 *6254:A3 *711:115 4.82919e-05
57 *6255:B *711:115 4.82919e-05
58 *6255:B *711:135 0
59 *6258:B *711:109 9.50342e-06
60 *6258:C *711:109 0
61 *6269:A0 *711:109 5.062e-06
62 *6335:D *711:34 0
63 *6335:D *711:38 0
64 *6452:RESET_B *711:24 2.40101e-05
65 *6459:RESET_B *6454:CLK 8.97832e-05
66 *6468:D *6470:CLK 5.53249e-06
67 *6472:RESET_B *711:92 0.000140844
68 *6473:D *711:109 9.41783e-05
69 *6474:D *711:54 3.09233e-05
70 *6475:D *6475:CLK 1.37328e-05
71 *6475:RESET_B *711:73 0
72 *6670:A *6336:CLK 0.000206944
73 *6670:A *711:92 0.000215469
74 *6670:A *711:115 0.000801545
75 *6676:A *711:38 0
76 *6677:A *6336:CLK 3.1562e-06
77 *210:12 *6454:CLK 0
78 *210:12 *711:135 0
79 *225:237 *6470:CLK 7.70758e-05
80 *225:247 *711:115 0.000113903
81 *225:262 *6454:CLK 6.02273e-05
82 *225:262 *711:109 4.18603e-06
83 *225:262 *711:135 0.000192537
84 *226:14 *711:115 7.69787e-05
85 *237:14 *711:109 7.67345e-05
86 *237:24 *711:109 5.34747e-05
87 *239:30 *711:73 0
88 *239:117 *711:109 0.000217345
89 *239:117 *711:135 0.000114492
90 *239:134 *711:109 3.26889e-05
91 *239:168 *6470:CLK 9.39127e-05
92 *391:30 *6470:CLK 0
93 *437:12 *711:109 0
94 *438:10 *711:135 5.4256e-05
95 *709:38 *711:69 0
96 *709:38 *711:73 0
*RES
1 *6515:X *711:14 8.135 
2 *711:14 *711:24 8.7 
3 *711:24 *711:28 4.145 
4 *711:28 *711:30 4.185 
5 *711:30 *711:32 1.89 
6 *711:32 *711:34 8.52 
7 *711:34 *711:38 6.185 
8 *711:38 *711:46 6.08 
9 *711:46 *711:48 6.735 
10 *711:48 *711:50 1.635 
11 *711:50 *711:54 6.695 
12 *711:54 *6474:CLK 3.01 
13 *711:54 *711:69 14.585 
14 *711:69 *711:73 4.145 
15 *711:73 *6336:CLK 7.15 
16 *711:73 *711:92 12.295 
17 *711:92 *6473:CLK 1.6 
18 *711:92 *711:109 16.79 
19 *711:109 *711:115 9.71 
20 *711:115 *6470:CLK 10.145 
21 *711:115 *6468:CLK 1.6 
22 *711:109 *711:135 5.97 
23 *711:135 *6469:CLK 3.6 
24 *711:135 *6454:CLK 15.87 
25 *711:69 *6475:CLK 4.34625 
26 *711:50 *6455:CLK 3.6 
27 *711:48 *6450:CLK 6.045 
28 *711:46 *6456:CLK 3.6 
29 *711:38 *6451:CLK 1.6 
30 *711:34 *6335:CLK 3.6 
31 *711:32 *6453:CLK 6.81 
32 *711:30 *6448:CLK 3.6 
33 *711:28 *6447:CLK 3.6 
34 *711:24 *6452:CLK 1.6 
35 *711:14 *6471:CLK 1.6 
*END

*D_NET *712 0.0387443
*CONN
*I *6515:A I *D sky130_fd_sc_hd__buf_4
*I *6449:CLK I *D sky130_fd_sc_hd__dfrtp_1
*I *6467:CLK I *D sky130_fd_sc_hd__dfrtp_4
*I *6337:CLK I *D sky130_fd_sc_hd__dfxtp_1
*I *6333:CLK I *D sky130_fd_sc_hd__dfxtp_1
*I *6330:CLK I *D sky130_fd_sc_hd__dfxtp_1
*I *6331:CLK I *D sky130_fd_sc_hd__dfxtp_1
*I *6332:CLK I *D sky130_fd_sc_hd__dfxtp_1
*I *6334:CLK I *D sky130_fd_sc_hd__dfxtp_1
*I *6472:CLK I *D sky130_fd_sc_hd__dfrtp_1
*I *6516:X O *D sky130_fd_sc_hd__clkbuf_4
*CAP
1 *6515:A 3.37585e-05
2 *6449:CLK 2.5851e-05
3 *6467:CLK 0
4 *6337:CLK 0
5 *6333:CLK 9.97799e-05
6 *6330:CLK 0
7 *6331:CLK 0
8 *6332:CLK 0
9 *6334:CLK 0
10 *6472:CLK 0.000431286
11 *6516:X 0.000218444
12 *712:96 0.00111103
13 *712:83 0.002175
14 *712:72 0.0015831
15 *712:64 0.00114608
16 *712:53 0.00664824
17 *712:39 0.00674994
18 *712:33 0.00350967
19 *712:14 0.00383762
20 *712:10 0.00100316
21 *712:14 *5894:A 0
22 *712:14 *5894:B 0
23 *712:14 *5896:A 0
24 *712:14 *6453:D 7.23602e-05
25 *712:33 *5876:A 0
26 *712:33 *5882:B1_N 7.89689e-05
27 *712:33 *5884:A 0.00018116
28 *712:33 *5888:A 8.65961e-05
29 *712:33 *6458:D 0.000161105
30 *712:33 *6464:D 8.53113e-06
31 *712:33 *805:8 0.00011577
32 *712:53 *5936:A 0
33 *5875:S *712:33 0.00024292
34 *5889:C1 *712:33 0
35 *5889:D1 *712:33 0
36 *5927:A *712:39 5.20968e-05
37 *5938:A *6333:CLK 2.30797e-05
38 *5938:A *712:96 0.000120186
39 *5946:A0 *712:83 0.000412181
40 *5955:A1 *712:83 0.00013955
41 *5964:S *6333:CLK 0
42 *5964:S *712:96 0
43 *5967:A1 *712:53 0.000116624
44 *5973:A0 *712:53 0.000733262
45 *5973:A1 *712:64 3.19126e-05
46 *6001:A *712:72 0
47 *6164:S *712:83 8.47629e-05
48 *6174:A *712:39 0
49 *6261:S *712:33 2.76356e-05
50 *6332:D *712:72 8.65961e-05
51 *6332:D *712:83 0.000113663
52 *6334:D *712:53 7.60965e-05
53 *6334:D *712:64 3.54965e-05
54 *6337:D *712:72 6.47516e-05
55 *6449:RESET_B *6449:CLK 5.83121e-06
56 *6449:RESET_B *712:39 0.000163019
57 *6452:RESET_B *712:14 0
58 *6458:CLK *712:33 1.94251e-05
59 *6458:RESET_B *712:33 0.000152493
60 *6463:RESET_B *712:33 0.000458681
61 *6464:RESET_B *712:33 4.57018e-05
62 *6467:D *712:39 9.50342e-06
63 *6467:D *712:53 0.00010942
64 *6468:D *712:53 8.78735e-05
65 *6470:CLK *712:53 0
66 *6471:D *712:14 4.61744e-05
67 *6471:RESET_B *712:14 0
68 *6472:RESET_B *712:33 4.24575e-05
69 *225:237 *712:53 8.09021e-06
70 *226:131 *712:53 0.00279715
71 *230:16 *712:53 0
72 *230:37 *712:53 0.000652687
73 *239:168 *712:53 5.28781e-05
74 *239:206 *712:72 0
75 *239:206 *712:83 7.25036e-05
76 *239:219 *712:83 0
77 *239:228 *712:83 0
78 *239:228 *712:96 0
79 *382:74 *6333:CLK 8.34505e-05
80 *382:74 *712:96 0.000318744
81 *382:80 *712:83 0.000608444
82 *382:80 *712:96 0.000122338
83 *391:30 *712:39 0.000216218
84 *391:30 *712:53 0
85 *479:61 *712:39 0.0004034
86 *487:65 *6449:CLK 1.19928e-05
87 *487:65 *712:33 0.000126471
88 *490:20 *712:33 3.10601e-05
89 *494:86 *712:53 0.000110612
90 *647:16 *712:10 6.69341e-05
91 *703:25 *712:64 3.69746e-05
92 *709:90 *712:14 0.000142798
93 *709:99 *712:14 3.97957e-05
94 *709:111 *712:14 0
95 *711:14 *712:14 6.28765e-05
*RES
1 *6516:X *712:10 6.72 
2 *712:10 *712:14 15.62 
3 *712:14 *6472:CLK 6.46 
4 *712:14 *712:33 44.86 
5 *712:33 *712:39 19.22 
6 *712:39 *712:53 25.1371 
7 *712:53 *6334:CLK 1.6 
8 *712:53 *712:64 8.925 
9 *712:64 *712:72 11.02 
10 *712:72 *6332:CLK 1.6 
11 *712:72 *712:83 27.5 
12 *712:83 *6331:CLK 3.6 
13 *712:83 *712:96 19.365 
14 *712:96 *6330:CLK 3.6 
15 *712:96 *6333:CLK 5.745 
16 *712:64 *6337:CLK 1.6 
17 *712:39 *6467:CLK 3.6 
18 *712:33 *6449:CLK 2.05 
19 *712:10 *6515:A 4.05 
*END

*D_NET *713 0.0077066
*CONN
*I *5936:A I *D sky130_fd_sc_hd__nand2_8
*I *6254:A2 I *D sky130_fd_sc_hd__a31o_1
*I *6660:X O *D sky130_fd_sc_hd__buf_2
*CAP
1 *5936:A 0.000177956
2 *6254:A2 2.79481e-05
3 *6660:X 0
4 *713:10 0.000205904
5 *713:8 0.00338923
6 *713:6 0.00338923
7 *6254:A3 *5936:A 0
8 *6258:A *713:8 0
9 *6259:B *713:8 0
10 *6468:D *5936:A 0
11 *6470:CLK *713:8 0
12 *6470:D *713:8 0
13 *210:12 *5936:A 0
14 *225:245 *713:8 8.5225e-05
15 *225:247 *6254:A2 4.82863e-05
16 *226:14 *5936:A 6.32842e-05
17 *226:14 *6254:A2 1.83756e-05
18 *226:18 *6254:A2 1.47347e-05
19 *239:168 *713:8 0
20 *711:115 *5936:A 0.000161529
21 *711:115 *6254:A2 0.000124895
22 *712:53 *5936:A 0
*RES
1 *6660:X *713:6 3.6 
2 *713:6 *713:8 56.715 
3 *713:8 *713:10 2 
4 *713:10 *6254:A2 2.74 
5 *713:10 *5936:A 9.23 
*END

*D_NET *714 0.000329882
*CONN
*I *6463:D I *D sky130_fd_sc_hd__dfrtp_1
*I *6517:X O *D sky130_fd_sc_hd__dlygate4sd3_1
*CAP
1 *6463:D 0.000141424
2 *6517:X 0.000141424
3 *420:51 *6463:D 4.70343e-05
4 *710:16 *6463:D 0
*RES
1 *6517:X *6463:D 9.375 
*END

*D_NET *715 0.000235692
*CONN
*I *6466:D I *D sky130_fd_sc_hd__dfrtp_1
*I *6566:X O *D sky130_fd_sc_hd__dlygate4sd3_1
*CAP
1 *6466:D 0.000104089
2 *6566:X 0.000104089
3 *6466:CLK *6466:D 2.75145e-05
*RES
1 *6566:X *6466:D 4.685 
*END

*D_NET *716 0.000494141
*CONN
*I *6462:D I *D sky130_fd_sc_hd__dfrtp_1
*I *6577:X O *D sky130_fd_sc_hd__dlygate4sd3_1
*CAP
1 *6462:D 0.000242805
2 *6577:X 0.000242805
3 *6479:RESET_B *6462:D 8.53113e-06
*RES
1 *6577:X *6462:D 10.155 
*END

*D_NET *717 0.000949473
*CONN
*I *6465:D I *D sky130_fd_sc_hd__dfrtp_1
*I *6588:X O *D sky130_fd_sc_hd__dlygate4sd3_1
*CAP
1 *6465:D 0.00039707
2 *6588:X 0.00039707
3 *6465:D *5893:A 0
4 *6454:CLK *6465:D 7.00889e-06
5 *210:8 *6465:D 3.96073e-05
6 *710:36 *6465:D 5.74016e-05
7 *710:38 *6465:D 5.13155e-05
*RES
1 *6588:X *6465:D 12.7087 
*END

*D_NET *718 0.000547744
*CONN
*I *6464:D I *D sky130_fd_sc_hd__dfrtp_1
*I *6599:X O *D sky130_fd_sc_hd__dlygate4sd3_1
*CAP
1 *6464:D 0.00021396
2 *6599:X 0.00021396
3 *6464:D *5876:A 0
4 *6464:D *5888:A 0
5 *487:65 *6464:D 0.000111293
6 *712:33 *6464:D 8.53113e-06
*RES
1 *6599:X *6464:D 11.1 
*END

*D_NET *719 0.000662455
*CONN
*I *6228:A1 I *D sky130_fd_sc_hd__o21ba_1
*I *6610:X O *D sky130_fd_sc_hd__dlygate4sd3_1
*CAP
1 *6228:A1 0.000165402
2 *6610:X 0.000165402
3 *6228:A1 *6610:A 4.82919e-05
4 *391:122 *6228:A1 0.000283359
*RES
1 *6610:X *6228:A1 7.445 
*END

*D_NET *720 0.00110964
*CONN
*I *5908:A0 I *D sky130_fd_sc_hd__mux2_1
*I *6621:X O *D sky130_fd_sc_hd__dlygate4sd3_1
*CAP
1 *5908:A0 0.000107398
2 *6621:X 0.000107398
3 *5908:A0 *735:81 4.99619e-05
4 *5908:A0 *735:92 0.000461047
5 *5906:S *5908:A0 2.16917e-05
6 *5939:A1 *5908:A0 0.000275548
7 *6323:CLK *5908:A0 8.65961e-05
*RES
1 *6621:X *5908:A0 7.79 
*END

*D_NET *721 0.00119075
*CONN
*I *6193:A0 I *D sky130_fd_sc_hd__mux2_1
*I *6632:X O *D sky130_fd_sc_hd__dlygate4sd3_1
*CAP
1 *6193:A0 0.000391771
2 *6632:X 0.000391771
3 *6193:A0 *6029:A1 5.16348e-05
4 *6193:A0 *757:56 8.69157e-05
5 *5958:A3 *6193:A0 0.000104952
6 *6029:S *6193:A0 0.000137571
7 *6193:S *6193:A0 2.61299e-05
8 *6632:A *6193:A0 0
9 *483:63 *6193:A0 0
*RES
1 *6632:X *6193:A0 13.32 
*END

*D_NET *722 0.00109677
*CONN
*I *6162:A0 I *D sky130_fd_sc_hd__mux2_1
*I *6643:X O *D sky130_fd_sc_hd__dlygate4sd3_1
*CAP
1 *6162:A0 0.000372019
2 *6643:X 0.000372019
3 *6162:A0 *779:62 4.66108e-05
4 *6162:A0 *779:73 0.000123225
5 *232:69 *6162:A0 0
6 *339:37 *6162:A0 0.000182896
*RES
1 *6643:X *6162:A0 12.315 
*END

*D_NET *723 0.000680694
*CONN
*I *6144:A0 I *D sky130_fd_sc_hd__mux2_1
*I *6518:X O *D sky130_fd_sc_hd__dlygate4sd3_1
*CAP
1 *6144:A0 0.000223627
2 *6518:X 0.000223627
3 *372:20 *6144:A0 0.00023344
*RES
1 *6518:X *6144:A0 7.445 
*END

*D_NET *724 0.0473086
*CONN
*I *6288:A1 I *D sky130_fd_sc_hd__mux2_1
*I *6077:A1 I *D sky130_fd_sc_hd__mux2_1
*I *6306:A1 I *D sky130_fd_sc_hd__mux2_1
*I *6152:A1 I *D sky130_fd_sc_hd__mux2_1
*I *6097:A1 I *D sky130_fd_sc_hd__mux2_1
*I *6059:A1 I *D sky130_fd_sc_hd__mux2_1
*I *6041:A1 I *D sky130_fd_sc_hd__mux2_1
*I *6004:A1 I *D sky130_fd_sc_hd__mux2_1
*I *6116:A1 I *D sky130_fd_sc_hd__mux2_1
*I *6235:A1 I *D sky130_fd_sc_hd__mux2_1
*I *6169:A1 I *D sky130_fd_sc_hd__mux2_1
*I *6134:A1 I *D sky130_fd_sc_hd__mux2_1
*I *6187:A1 I *D sky130_fd_sc_hd__mux2_1
*I *6023:A1 I *D sky130_fd_sc_hd__mux2_1
*I *6205:A1 I *D sky130_fd_sc_hd__mux2_1
*I *5906:A1 I *D sky130_fd_sc_hd__mux2_1
*I *6661:X O *D sky130_fd_sc_hd__clkbuf_8
*CAP
1 *6288:A1 0
2 *6077:A1 0.00018343
3 *6306:A1 0.000110415
4 *6152:A1 0.000331135
5 *6097:A1 1.88809e-05
6 *6059:A1 0
7 *6041:A1 0
8 *6004:A1 0.00019991
9 *6116:A1 9.05452e-05
10 *6235:A1 0
11 *6169:A1 0
12 *6134:A1 0
13 *6187:A1 0.000247045
14 *6023:A1 0.000353144
15 *6205:A1 6.05552e-05
16 *5906:A1 0.000470639
17 *6661:X 0.00104333
18 *724:188 0.000624562
19 *724:179 0.000416356
20 *724:171 0.000563844
21 *724:164 0.00064776
22 *724:151 0.000713648
23 *724:143 0.000331185
24 *724:124 0.00256276
25 *724:107 0.00305198
26 *724:68 0.000721681
27 *724:64 0.00070603
28 *724:47 0.000876774
29 *724:43 0.00064694
30 *724:41 0.000545769
31 *724:24 0.000674228
32 *724:22 0.00328102
33 *724:20 0.00587121
34 *724:16 0.00449385
35 *724:12 0.00217598
36 *5906:A1 *5906:A0 1.85103e-05
37 *6004:A1 *6004:A0 0.000123225
38 *724:41 *6235:A0 0.000196364
39 *724:43 *6235:A0 4.99619e-05
40 *724:47 *735:46 0.000253808
41 *724:64 *735:46 7.89222e-05
42 *724:107 *735:117 0.000244425
43 *724:124 *6004:A0 0.000115571
44 *724:124 *735:117 0
45 *724:124 *735:192 0
46 r_data[2] *724:12 2.03645e-05
47 r_data[2] *724:16 4.88345e-05
48 *5906:S *5906:A1 4.82863e-05
49 *5924:A0 *724:107 5.20968e-05
50 *5925:A3 *6023:A1 0.00033134
51 *5931:A1 *724:151 8.37792e-05
52 *5932:A0 *6152:A1 0.000101212
53 *5932:A0 *724:188 0.000158066
54 *5932:A2 *6306:A1 4.82919e-05
55 *5933:A0 *724:164 0
56 *5935:A0 *724:179 0
57 *5940:A0 *6116:A1 0.000119756
58 *5941:A0 *724:41 0.000113797
59 *5941:A0 *724:107 0
60 *5941:S *724:107 0.000135524
61 *5941:S *724:124 0.00056705
62 *5943:S1 *6152:A1 4.70343e-05
63 *5950:S *724:124 0.000252005
64 *5955:A0 *6023:A1 8.8266e-05
65 *5963:A0 *724:164 0
66 *5984:S1 *724:43 0.000962453
67 *5990:A1 *724:64 0.000112631
68 *5990:A1 *724:124 0
69 *6006:S *724:124 0.000220413
70 *6007:A *724:124 2.67022e-05
71 *6041:A0 *724:151 2.75229e-05
72 *6041:A0 *724:164 0.000221848
73 *6042:A *724:151 6.71882e-05
74 *6059:A0 *6077:A1 0.000275553
75 *6059:A0 *724:171 0.000421961
76 *6071:A0 *724:179 8.53099e-05
77 *6077:A0 *6077:A1 4.99619e-05
78 *6077:S *6077:A1 5.05521e-05
79 *6078:A *6077:A1 8.57024e-05
80 *6097:A0 *6097:A1 5.4155e-06
81 *6097:A0 *724:179 3.00381e-05
82 *6097:A0 *724:188 0.000381323
83 *6098:A *724:179 0.000344379
84 *6098:A *724:188 1.16578e-05
85 *6110:A *724:124 0
86 *6116:S *724:107 5.90404e-05
87 *6134:A0 *724:64 4.82863e-05
88 *6134:S *724:64 0.000239813
89 *6135:A *6187:A1 0
90 *6135:A *724:68 0
91 *6136:S *724:64 0.000679291
92 *6152:A0 *6152:A1 4.99619e-05
93 *6153:A *6152:A1 4.9253e-06
94 *6169:A0 *724:43 0.000546246
95 *6187:A0 *6187:A1 0.000140071
96 *6189:S *724:64 1.07797e-05
97 *6189:S *724:68 0
98 *6205:A0 *6205:A1 8.49205e-05
99 *6236:A *724:43 8.8266e-05
100 *6237:S *724:41 6.58339e-05
101 *6288:S *724:143 2.75229e-05
102 *6301:A *724:124 0.000139238
103 *6306:S *6306:A1 4.82919e-05
104 *6339:D *724:124 0
105 *6347:D *724:64 0
106 *6378:D *724:179 0.000116165
107 *6402:CLK *6152:A1 1.65432e-05
108 *6402:CLK *724:188 1.12578e-05
109 *6402:D *6152:A1 5.77007e-05
110 *6439:CLK *5906:A1 7.35813e-05
111 *6439:D *5906:A1 0.000154372
112 *6439:D *724:24 4.82919e-05
113 *6439:D *724:107 4.05358e-05
114 *6480:CLK *6004:A1 3.77036e-05
115 *6480:CLK *724:143 0.000308713
116 *6480:D *6004:A1 0.000162784
117 *6486:D *724:124 9.54399e-05
118 *6548:A *6187:A1 0
119 *6548:A *724:68 0
120 *6578:A *724:22 3.00381e-05
121 *6617:A *724:124 3.48129e-05
122 *6637:A *724:47 0
123 *6637:A *724:64 0
124 *6645:A *724:64 0
125 *6650:A *724:124 0
126 *6661:A *724:12 5.30673e-05
127 *6673:A *724:16 0.00234683
128 *230:157 *724:124 0.000358937
129 *230:211 *724:164 0.000175848
130 *232:157 *724:151 7.08316e-05
131 *233:171 *724:164 0
132 *233:175 *724:164 0
133 *233:247 *724:164 0.000276441
134 *298:77 *6004:A1 4.92612e-05
135 *298:77 *724:124 0
136 *329:85 *724:164 0.000682945
137 *339:65 *724:151 2.8185e-05
138 *339:65 *724:164 0.000123989
139 *339:71 *6077:A1 4.80285e-05
140 *339:81 *6152:A1 0
141 *339:81 *6306:A1 7.09999e-05
142 *351:111 *724:179 0.00013796
143 *428:121 *724:41 2.7441e-05
144 *428:121 *724:43 0.000156202
145 *460:78 *724:151 0.000352169
146 *460:80 *724:124 0
147 *482:42 *724:124 0
148 *537:12 *724:124 0.000120186
149 *544:10 *724:143 0.000117116
150 *550:10 *724:124 0
151 *625:122 *724:124 0
*RES
1 *6661:X *724:12 21.5175 
2 *724:12 *724:16 30.6725 
3 *724:16 *724:20 46.6875 
4 *724:20 *724:22 34.7775 
5 *724:22 *724:24 1.14 
6 *724:24 *5906:A1 7.585 
7 *724:24 *724:41 7.21 
8 *724:41 *724:43 12.18 
9 *724:43 *724:47 7.205 
10 *724:47 *6205:A1 4.395 
11 *724:47 *724:64 15.44 
12 *724:64 *724:68 3.635 
13 *724:68 *6023:A1 9.93 
14 *724:68 *6187:A1 7.785 
15 *724:64 *6134:A1 1.6 
16 *724:43 *6169:A1 1.6 
17 *724:41 *6235:A1 1.6 
18 *724:22 *724:107 14.09 
19 *724:107 *6116:A1 4.74 
20 *724:107 *724:124 46.01 
21 *724:124 *6004:A1 9.515 
22 *724:124 *724:143 3.225 
23 *724:143 *724:151 10.015 
24 *724:151 *6041:A1 1.6 
25 *724:151 *724:164 17.635 
26 *724:164 *6059:A1 1.6 
27 *724:164 *724:171 3.9 
28 *724:171 *724:179 10.675 
29 *724:179 *6097:A1 1.96 
30 *724:179 *724:188 4.245 
31 *724:188 *6152:A1 12.17 
32 *724:188 *6306:A1 7.685 
33 *724:171 *6077:A1 6.19 
34 *724:143 *6288:A1 1.6 
*END

*D_NET *725 0.000918883
*CONN
*I *6209:A0 I *D sky130_fd_sc_hd__mux2_1
*I *6529:X O *D sky130_fd_sc_hd__dlygate4sd3_1
*CAP
1 *6209:A0 0.000273444
2 *6529:X 0.000273444
3 *5911:A *6209:A0 4.99619e-05
4 *5998:S *6209:A0 0.000199362
5 *411:30 *6209:A0 3.86529e-05
6 *479:51 *6209:A0 5.83121e-06
7 *487:10 *6209:A0 0
8 *487:25 *6209:A0 0
9 *680:14 *6209:A0 7.81876e-05
*RES
1 *6529:X *6209:A0 12.75 
*END

*D_NET *726 0.00099357
*CONN
*I *6033:A0 I *D sky130_fd_sc_hd__mux2_1
*I *6540:X O *D sky130_fd_sc_hd__dlygate4sd3_1
*CAP
1 *6033:A0 0.00036423
2 *6540:X 0.00036423
3 *6033:A0 *6126:A1 0.000160635
4 *6033:A0 *768:44 2.67022e-05
5 *6033:A0 *779:141 4.99619e-05
6 *270:12 *6033:A0 0
7 *401:83 *6033:A0 2.78116e-05
*RES
1 *6540:X *6033:A0 11.97 
*END

*D_NET *727 0.000821516
*CONN
*I *6120:A0 I *D sky130_fd_sc_hd__mux2_1
*I *6551:X O *D sky130_fd_sc_hd__dlygate4sd3_1
*CAP
1 *6120:A0 0.000281073
2 *6551:X 0.000281073
3 *5954:A1 *6120:A0 0.000135531
4 *6120:S *6120:A0 9.54469e-05
5 *6551:A *6120:A0 5.83121e-06
6 *498:10 *6120:A0 2.25611e-05
*RES
1 *6551:X *6120:A0 11.355 
*END

*D_NET *728 0.00118123
*CONN
*I *6029:A0 I *D sky130_fd_sc_hd__mux2_1
*I *6560:X O *D sky130_fd_sc_hd__dlygate4sd3_1
*CAP
1 *6029:A0 0.000373432
2 *6560:X 0.000373432
3 *6029:A0 *6029:A1 4.99619e-05
4 *6029:S *6029:A0 2.30292e-05
5 *6338:CLK *6029:A0 0.000361378
*RES
1 *6560:X *6029:A0 9.86 
*END

*D_NET *729 0.000969602
*CONN
*I *5912:A0 I *D sky130_fd_sc_hd__mux2_1
*I *6561:X O *D sky130_fd_sc_hd__dlygate4sd3_1
*CAP
1 *5912:A0 0.000461464
2 *6561:X 0.000461464
3 *5912:S *5912:A0 4.66742e-05
*RES
1 *6561:X *5912:A0 9.17 
*END

*D_NET *730 0.000695512
*CONN
*I *6239:A0 I *D sky130_fd_sc_hd__mux2_1
*I *6562:X O *D sky130_fd_sc_hd__dlygate4sd3_1
*CAP
1 *6239:A0 0.000189786
2 *6562:X 0.000189786
3 *6239:A0 *746:99 0.000200615
4 *6239:A0 *746:109 4.99619e-05
5 *6377:CLK *6239:A0 3.86607e-05
6 *428:52 *6239:A0 2.67022e-05
*RES
1 *6562:X *6239:A0 10.245 
*END

*D_NET *731 0.0013052
*CONN
*I *5920:A0 I *D sky130_fd_sc_hd__mux2_1
*I *6563:X O *D sky130_fd_sc_hd__dlygate4sd3_1
*CAP
1 *5920:A0 0.000267701
2 *6563:X 0.000267701
3 *5921:A *5920:A0 3.64998e-06
4 *5993:A3 *5920:A0 0.000197269
5 *6249:A1 *5920:A0 0.000273001
6 *216:44 *5920:A0 0.000182343
7 *226:85 *5920:A0 5.42473e-05
8 *226:95 *5920:A0 5.92849e-05
*RES
1 *6563:X *5920:A0 14.265 
*END

*D_NET *732 0.000928454
*CONN
*I *6140:A0 I *D sky130_fd_sc_hd__mux2_1
*I *6564:X O *D sky130_fd_sc_hd__dlygate4sd3_1
*CAP
1 *6140:A0 0.000132111
2 *6564:X 0.000132111
3 *6140:A0 *757:83 0.000427876
4 *6564:A *6140:A0 0.000236355
*RES
1 *6564:X *6140:A0 7.445 
*END

*D_NET *733 0.00084062
*CONN
*I *6191:A0 I *D sky130_fd_sc_hd__mux2_1
*I *6565:X O *D sky130_fd_sc_hd__dlygate4sd3_1
*CAP
1 *6191:A0 0.00012319
2 *6565:X 0.00012319
3 *6191:A0 *746:64 0.000237869
4 *6191:A0 *746:85 2.49909e-05
5 *5949:A0 *6191:A0 0.000287231
6 *6191:S *6191:A0 4.41506e-05
*RES
1 *6565:X *6191:A0 7.445 
*END

*D_NET *734 0.0015124
*CONN
*I *5906:A0 I *D sky130_fd_sc_hd__mux2_1
*I *6567:X O *D sky130_fd_sc_hd__dlygate4sd3_1
*CAP
1 *5906:A0 0.000543271
2 *6567:X 0.000543271
3 *5906:A1 *5906:A0 1.85103e-05
4 *5906:S *5906:A0 4.62857e-05
5 *5907:A *5906:A0 0
6 *5924:A3 *5906:A0 5.58436e-05
7 *5941:A0 *5906:A0 7.06865e-05
8 *6439:CLK *5906:A0 5.0751e-05
9 *6439:D *5906:A0 0.000183779
*RES
1 *6567:X *5906:A0 14.91 
*END

*D_NET *735 0.0358278
*CONN
*I *6118:A1 I *D sky130_fd_sc_hd__mux2_1
*I *6043:A1 I *D sky130_fd_sc_hd__mux2_1
*I *6290:A1 I *D sky130_fd_sc_hd__mux2_1
*I *6006:A1 I *D sky130_fd_sc_hd__mux2_1
*I *6099:A1 I *D sky130_fd_sc_hd__mux2_1
*I *6308:A1 I *D sky130_fd_sc_hd__mux2_1
*I *6079:A1 I *D sky130_fd_sc_hd__mux2_1
*I *6061:A1 I *D sky130_fd_sc_hd__mux2_1
*I *6154:A1 I *D sky130_fd_sc_hd__mux2_1
*I *6237:A1 I *D sky130_fd_sc_hd__mux2_1
*I *5908:A1 I *D sky130_fd_sc_hd__mux2_1
*I *6025:A1 I *D sky130_fd_sc_hd__mux2_1
*I *6189:A1 I *D sky130_fd_sc_hd__mux2_1
*I *6136:A1 I *D sky130_fd_sc_hd__mux2_1
*I *6171:A1 I *D sky130_fd_sc_hd__mux2_1
*I *6207:A1 I *D sky130_fd_sc_hd__mux2_1
*I *6662:X O *D sky130_fd_sc_hd__buf_4
*CAP
1 *6118:A1 0
2 *6043:A1 0.000382833
3 *6290:A1 0
4 *6006:A1 0
5 *6099:A1 0
6 *6308:A1 0
7 *6079:A1 0
8 *6061:A1 0.000376833
9 *6154:A1 0.000175799
10 *6237:A1 0
11 *5908:A1 0
12 *6025:A1 0.000435782
13 *6189:A1 2.51931e-05
14 *6136:A1 0
15 *6171:A1 1.70456e-05
16 *6207:A1 0
17 *6662:X 0.00152816
18 *735:207 0.000474507
19 *735:192 0.00041652
20 *735:162 0.0013492
21 *735:135 0.00114816
22 *735:133 0.000547241
23 *735:129 0.00134306
24 *735:117 0.00222239
25 *735:105 0.00164684
26 *735:92 0.00140287
27 *735:81 0.00121137
28 *735:57 0.000636928
29 *735:46 0.00071301
30 *735:35 0.000769852
31 *735:27 0.000793921
32 *735:20 0.00133827
33 *735:12 0.00264188
34 *6154:A1 *6154:A0 3.00381e-05
35 *735:133 *6308:A0 2.75145e-05
36 *5908:A0 *735:81 4.99619e-05
37 *5908:A0 *735:92 0.000461047
38 *5919:A *735:20 7.23602e-05
39 *5928:A0 *735:105 0
40 *5932:S0 *6061:A1 0.000264477
41 *5939:A1 *735:81 2.30292e-05
42 *5940:A0 *6025:A1 0.000210411
43 *5940:A0 *735:117 0.000263269
44 *5941:A0 *735:92 9.50342e-06
45 *5941:A0 *735:105 0.0009969
46 *5942:A2 *6043:A1 0.000447708
47 *5943:A0 *6154:A1 3.99879e-05
48 *5943:A0 *735:162 0
49 *5943:A2 *735:162 0.000105597
50 *5943:A3 *735:162 4.96534e-05
51 *5943:S1 *735:162 0.00027878
52 *5945:A0 *735:129 1.92979e-05
53 *5988:A1 *735:192 7.7038e-05
54 *5989:A0 *735:117 3.75952e-05
55 *5989:A0 *735:192 4.16739e-05
56 *5990:A1 *735:117 0.000652869
57 *6000:A0 *735:105 0.00015639
58 *6026:A *6025:A1 0.000278117
59 *6089:A1 *735:192 9.54469e-05
60 *6099:A0 *735:129 4.99619e-05
61 *6099:A0 *735:133 1.60203e-05
62 *6100:A *735:129 1.03423e-05
63 *6109:S *735:129 0.00090656
64 *6109:S *735:192 0.000142226
65 *6110:A *735:117 0
66 *6110:A *735:192 0
67 *6116:A0 *735:117 7.89767e-05
68 *6116:S *735:117 0.000243737
69 *6118:S *735:105 4.82919e-05
70 *6136:S *735:46 5.53249e-06
71 *6136:S *735:57 0.000285705
72 *6169:S *735:35 2.24336e-05
73 *6169:S *735:46 0.000126734
74 *6171:A0 *6171:A1 4.99619e-05
75 *6172:A *6171:A1 8.65961e-05
76 *6189:A0 *6025:A1 0.000230966
77 *6189:A0 *6189:A1 4.66108e-05
78 *6208:A *735:27 2.84534e-05
79 *6208:A *735:35 3.79461e-05
80 *6217:S *735:20 0
81 *6236:A *735:105 0
82 *6237:S *735:92 3.50033e-05
83 *6238:A *735:105 0
84 *6290:A0 *6043:A1 4.66108e-05
85 *6290:A0 *735:192 0.00010141
86 *6290:A0 *735:207 0.000119809
87 *6308:S *735:133 0.000233769
88 *6309:A *735:162 2.88519e-05
89 *6323:CLK *735:92 2.30292e-05
90 *6328:CLK *735:20 0.000619397
91 *6328:CLK *735:27 0.000163199
92 *6371:D *735:162 5.20335e-05
93 *6410:D *735:46 0
94 *6411:D *735:27 0.00020525
95 *6411:D *735:35 0
96 *6411:D *735:81 0.000163204
97 *6427:D *735:35 0
98 *6440:D *735:92 4.8061e-05
99 *6481:CLK *735:192 0.000357983
100 *6645:A *6025:A1 0.000124895
101 *216:60 *735:20 5.21545e-05
102 *230:140 *735:117 0
103 *339:81 *735:162 2.76356e-05
104 *351:119 *6061:A1 0.000311252
105 *362:61 *735:105 0.000120655
106 *382:80 *735:162 0
107 *391:73 *6171:A1 1.34594e-05
108 *411:111 *735:46 0.00015997
109 *411:111 *735:57 0.000517668
110 *470:40 *735:129 2.02872e-05
111 *470:52 *735:133 0.000394699
112 *482:76 *735:117 0.000296081
113 *494:18 *735:46 0
114 *494:20 *735:46 0
115 *494:22 *735:35 0
116 *494:22 *735:46 0
117 *513:10 *735:162 0.000162769
118 *529:16 *6061:A1 9.14049e-05
119 *537:12 *6043:A1 0.000110703
120 *577:10 *735:92 0
121 *584:12 *735:105 0
122 *622:12 *735:129 1.79536e-05
123 *625:12 *735:12 0.000582844
124 *625:12 *735:20 0.000898708
125 *625:32 *735:20 2.42236e-05
126 *625:122 *735:192 0.000367837
127 *625:122 *735:207 5.44642e-05
128 *724:47 *735:46 0.000253808
129 *724:64 *735:46 7.89222e-05
130 *724:107 *735:117 0.000244425
131 *724:124 *735:117 0
132 *724:124 *735:192 0
*RES
1 *6662:X *735:12 32.2125 
2 *735:12 *735:20 27.4775 
3 *735:20 *6207:A1 1.6 
4 *735:20 *735:27 4.245 
5 *735:27 *735:35 5.81 
6 *735:35 *6171:A1 4.395 
7 *735:35 *735:46 11.835 
8 *735:46 *6136:A1 3.6 
9 *735:46 *735:57 8.225 
10 *735:57 *6189:A1 2.05 
11 *735:57 *6025:A1 11.485 
12 *735:27 *735:81 5.4 
13 *735:81 *5908:A1 1.6 
14 *735:81 *735:92 13.805 
15 *735:92 *6237:A1 3.6 
16 *735:92 *735:105 15.065 
17 *735:105 *735:117 27.9975 
18 *735:117 *735:129 7.76237 
19 *735:129 *735:133 7.71 
20 *735:133 *735:135 2 
21 *735:135 *6154:A1 5.955 
22 *735:135 *735:162 17.345 
23 *735:162 *6061:A1 15.275 
24 *735:162 *6079:A1 1.6 
25 *735:133 *6308:A1 1.6 
26 *735:129 *6099:A1 1.6 
27 *735:117 *735:192 10.4325 
28 *735:192 *6006:A1 3.6 
29 *735:192 *735:207 4.19 
30 *735:207 *6290:A1 1.6 
31 *735:207 *6043:A1 8.035 
32 *735:105 *6118:A1 1.6 
*END

*D_NET *736 0.00187744
*CONN
*I *6118:A0 I *D sky130_fd_sc_hd__mux2_1
*I *6568:X O *D sky130_fd_sc_hd__dlygate4sd3_1
*CAP
1 *6118:A0 0.000553253
2 *6568:X 0.000553253
3 *658:10 *6118:A0 0.000770932
*RES
1 *6568:X *6118:A0 15.075 
*END

*D_NET *737 0.00125753
*CONN
*I *6201:A0 I *D sky130_fd_sc_hd__mux2_1
*I *6569:X O *D sky130_fd_sc_hd__dlygate4sd3_1
*CAP
1 *6201:A0 0.000439863
2 *6569:X 0.000439863
3 *6201:A0 *790:33 9.30787e-05
4 *5948:S1 *6201:A0 0
5 *5994:A0 *6201:A0 3.72916e-05
6 *5994:A1 *6201:A0 0
7 *5994:S0 *6201:A0 5.21311e-05
8 *6195:S *6201:A0 2.86265e-06
9 *6201:A1 *6201:A0 7.43544e-05
10 *226:83 *6201:A0 0.000118081
*RES
1 *6569:X *6201:A0 13.665 
*END

*D_NET *738 0.000724563
*CONN
*I *6318:A0 I *D sky130_fd_sc_hd__mux2_1
*I *6570:X O *D sky130_fd_sc_hd__dlygate4sd3_1
*CAP
1 *6318:A0 0.000194349
2 *6570:X 0.000194349
3 *5945:A0 *6318:A0 7.23602e-05
4 *5988:A1 *6318:A0 8.99614e-05
5 *6570:A *6318:A0 3.86607e-05
6 *622:12 *6318:A0 8.65961e-05
7 *625:186 *6318:A0 4.82863e-05
*RES
1 *6570:X *6318:A0 10.245 
*END

*D_NET *739 0.000885305
*CONN
*I *6014:A0 I *D sky130_fd_sc_hd__mux2_1
*I *6571:X O *D sky130_fd_sc_hd__dlygate4sd3_1
*CAP
1 *6014:A0 9.15445e-05
2 *6571:X 9.15445e-05
3 *6014:A0 *6014:A1 0.00043044
4 *329:29 *6014:A0 0.000271776
*RES
1 *6571:X *6014:A0 7.445 
*END

*D_NET *740 0.0012249
*CONN
*I *6197:A0 I *D sky130_fd_sc_hd__mux2_1
*I *6572:X O *D sky130_fd_sc_hd__dlygate4sd3_1
*CAP
1 *6197:A0 0.000333168
2 *6572:X 0.000333168
3 *6197:A0 *779:134 4.99619e-05
4 *6197:A0 *779:141 0.000160635
5 *5976:A1 *6197:A0 7.23602e-05
6 *5976:A3 *6197:A0 3.67779e-05
7 *6351:D *6197:A0 8.08153e-06
8 *6572:A *6197:A0 0.000105849
9 *232:69 *6197:A0 0
10 *382:24 *6197:A0 0.0001249
*RES
1 *6572:X *6197:A0 13.08 
*END

*D_NET *741 0.00199626
*CONN
*I *6195:A0 I *D sky130_fd_sc_hd__mux2_1
*I *6573:X O *D sky130_fd_sc_hd__dlygate4sd3_1
*CAP
1 *6195:A0 0.000592724
2 *6573:X 0.000592724
3 *6195:A0 *768:85 4.82863e-05
4 *5967:A0 *6195:A0 4.41363e-05
5 *5967:A1 *6195:A0 1.13785e-05
6 *5967:A2 *6195:A0 7.06865e-05
7 *5967:A3 *6195:A0 7.06865e-05
8 *6573:A *6195:A0 8.53113e-06
9 *295:20 *6195:A0 0.000320758
10 *295:28 *6195:A0 0.00023635
*RES
1 *6573:X *6195:A0 16.335 
*END

*D_NET *742 0.00118031
*CONN
*I *6164:A0 I *D sky130_fd_sc_hd__mux2_1
*I *6574:X O *D sky130_fd_sc_hd__dlygate4sd3_1
*CAP
1 *6164:A0 0.000131337
2 *6574:X 0.000131337
3 *6164:S *6164:A0 0.000707657
4 *6574:A *6164:A0 0.000122331
5 *231:18 *6164:A0 8.76499e-05
*RES
1 *6574:X *6164:A0 8.825 
*END

*D_NET *743 0.000701648
*CONN
*I *6316:A0 I *D sky130_fd_sc_hd__mux2_1
*I *6575:X O *D sky130_fd_sc_hd__dlygate4sd3_1
*CAP
1 *6316:A0 0.000214632
2 *6575:X 0.000214632
3 *470:100 *6316:A0 6.97118e-05
4 *470:109 *6316:A0 0.000202672
*RES
1 *6575:X *6316:A0 7.445 
*END

*D_NET *744 0.00104394
*CONN
*I *6101:A0 I *D sky130_fd_sc_hd__mux2_1
*I *6576:X O *D sky130_fd_sc_hd__dlygate4sd3_1
*CAP
1 *6101:A0 0.000353531
2 *6576:X 0.000353531
3 *6101:A0 *746:31 0.000271308
4 *6101:A0 *757:56 1.16611e-05
5 *5952:A1 *6101:A0 3.00381e-05
6 *5952:A2 *6101:A0 7.68414e-06
7 *232:118 *6101:A0 0
8 *351:79 *6101:A0 1.61831e-05
*RES
1 *6576:X *6101:A0 12.135 
*END

*D_NET *745 0.00151201
*CONN
*I *6235:A0 I *D sky130_fd_sc_hd__mux2_1
*I *6578:X O *D sky130_fd_sc_hd__dlygate4sd3_1
*CAP
1 *6235:A0 0.000632841
2 *6578:X 0.000632841
3 *724:41 *6235:A0 0.000196364
4 *724:43 *6235:A0 4.99619e-05
*RES
1 *6578:X *6235:A0 14.73 
*END

*D_NET *746 0.0431143
*CONN
*I *6045:A1 I *D sky130_fd_sc_hd__mux2_1
*I *6063:A1 I *D sky130_fd_sc_hd__mux2_1
*I *6292:A1 I *D sky130_fd_sc_hd__mux2_1
*I *6008:A1 I *D sky130_fd_sc_hd__mux2_1
*I *6310:A1 I *D sky130_fd_sc_hd__mux2_1
*I *6156:A1 I *D sky130_fd_sc_hd__mux2_1
*I *6081:A1 I *D sky130_fd_sc_hd__mux2_1
*I *6191:A1 I *D sky130_fd_sc_hd__mux2_1
*I *6138:A1 I *D sky130_fd_sc_hd__mux2_1
*I *6239:A1 I *D sky130_fd_sc_hd__mux2_1
*I *5910:A1 I *D sky130_fd_sc_hd__mux2_1
*I *6209:A1 I *D sky130_fd_sc_hd__mux2_1
*I *6173:A1 I *D sky130_fd_sc_hd__mux2_1
*I *6027:A1 I *D sky130_fd_sc_hd__mux2_1
*I *6120:A1 I *D sky130_fd_sc_hd__mux2_1
*I *6101:A1 I *D sky130_fd_sc_hd__mux2_1
*I *6663:X O *D sky130_fd_sc_hd__buf_4
*CAP
1 *6045:A1 0.000533465
2 *6063:A1 0.000181494
3 *6292:A1 0
4 *6008:A1 9.73191e-06
5 *6310:A1 0.000480711
6 *6156:A1 0.000237726
7 *6081:A1 0
8 *6191:A1 0
9 *6138:A1 2.2908e-05
10 *6239:A1 0
11 *5910:A1 0.000204789
12 *6209:A1 0
13 *6173:A1 0.000539781
14 *6027:A1 0.000187529
15 *6120:A1 0.000423025
16 *6101:A1 0
17 *6663:X 0
18 *746:205 0.000181494
19 *746:117 0.00100801
20 *746:109 0.00100778
21 *746:99 0.00249835
22 *746:85 0.00257924
23 *746:64 0.00109419
24 *746:45 0.00225728
25 *746:37 0.00142974
26 *746:31 0.000622014
27 *746:20 0.000599904
28 *746:16 0.000844512
29 *746:14 0.000428408
30 *746:12 0.000601432
31 *746:10 0.00329828
32 *746:6 0.00558615
33 *746:4 0.00304287
34 *5910:A1 *5910:A0 8.65905e-05
35 *6008:A1 *6008:A0 4.82863e-05
36 *6063:A1 *6063:A0 4.99619e-05
37 *6063:A1 *6292:A0 0.00046451
38 *6063:A1 *779:18 0.000284425
39 *6138:A1 *6138:A0 4.77757e-05
40 *6310:A1 *6008:A0 0.000278117
41 *6310:A1 *6310:A0 4.82863e-05
42 *746:14 *6008:A0 0
43 *746:20 *757:56 0
44 *746:31 *757:56 0.000147131
45 *746:45 *6241:A1 0
46 *746:85 *6138:A0 0.000463715
47 *746:99 *768:44 6.08525e-05
48 *5948:S0 *5910:A1 0
49 *5948:S1 *746:109 0.000139933
50 *5949:A0 *746:64 0.000121103
51 *5949:A0 *746:85 7.6426e-06
52 *5949:A2 *6027:A1 0.000235568
53 *5951:A1 *6045:A1 7.75054e-05
54 *5951:A1 *746:14 0
55 *5952:A0 *746:31 4.32126e-05
56 *5952:A2 *746:31 6.0011e-05
57 *5952:A3 *746:31 0
58 *5952:S0 *746:31 0
59 *5954:A1 *746:45 0
60 *5957:A1 *746:45 7.06865e-05
61 *5957:A2 *746:45 2.997e-05
62 *5957:S1 *746:45 6.34568e-05
63 *5958:S1 *746:45 0.000553372
64 *6009:A *746:14 0
65 *6027:A0 *6027:A1 4.82863e-05
66 *6028:A *6120:A1 0
67 *6045:A0 *6045:A1 4.89395e-05
68 *6063:S *6063:A1 6.65725e-05
69 *6081:A0 *746:37 2.30292e-05
70 *6081:A0 *746:45 0.000122331
71 *6101:A0 *746:31 0.000271308
72 *6120:S *6120:A1 8.40213e-05
73 *6120:S *746:45 0
74 *6121:A *6120:A1 2.17886e-05
75 *6122:S *746:45 0
76 *6123:A *746:45 6.47594e-05
77 *6138:S *6138:A1 4.77757e-05
78 *6138:S *746:85 4.00541e-06
79 *6139:A *746:85 1.37328e-05
80 *6139:A *746:99 4.99619e-05
81 *6156:A0 *6156:A1 2.11084e-05
82 *6157:A *6156:A1 0.000200615
83 *6173:A0 *6173:A1 1.64405e-05
84 *6191:A0 *746:64 0.000237869
85 *6191:A0 *746:85 2.49909e-05
86 *6191:S *746:85 8.73389e-06
87 *6192:A *746:85 0.000279787
88 *6199:A1 *746:99 7.06865e-05
89 *6239:A0 *746:99 0.000200615
90 *6239:A0 *746:109 4.99619e-05
91 *6240:A *746:109 2.01259e-05
92 *6242:A *746:45 0.000101265
93 *6324:CLK *746:117 9.47027e-05
94 *6356:CLK *6045:A1 0.000137459
95 *6356:D *6045:A1 0.000164008
96 *6364:CLK *746:14 0
97 *6377:CLK *746:99 0.000278427
98 *6388:CLK *6027:A1 7.67345e-05
99 *6412:CLK *746:117 0
100 *6424:D *746:99 5.20335e-05
101 *6428:CLK *6173:A1 0.0001282
102 *6428:D *6173:A1 5.20335e-05
103 *6441:CLK *746:117 1.83847e-05
104 *6441:D *746:109 0.000218666
105 *6441:D *746:117 0.000126073
106 *6482:D *746:12 0
107 *6490:CLK *746:20 0
108 *6501:A *746:31 2.14129e-05
109 *6501:A *746:37 0.000163992
110 *6538:A *746:31 0
111 *6538:A *746:37 0
112 *6560:A *746:45 0
113 *6561:A *746:45 0
114 *6562:A *746:109 0.00015212
115 *6576:A *746:20 5.12942e-05
116 *6585:A *5910:A1 9.68709e-05
117 *6604:A *746:99 2.03801e-05
118 *6605:A *746:14 4.91189e-05
119 *6654:A *746:6 8.8266e-05
120 *216:14 *746:109 0.000109533
121 *216:29 *5910:A1 0.000116853
122 *226:219 *6120:A1 0
123 *226:219 *746:45 0
124 *226:240 *746:45 4.78859e-05
125 *230:66 *746:99 0
126 *298:67 *6310:A1 0.000200998
127 *319:84 *6045:A1 0.000155605
128 *329:62 *6008:A1 4.82863e-05
129 *339:50 *746:45 8.78813e-05
130 *339:65 *6156:A1 0.000177857
131 *339:65 *746:37 0
132 *351:79 *746:31 5.30673e-05
133 *351:101 *746:31 7.67415e-06
134 *382:53 *746:37 0.0001249
135 *382:53 *746:45 6.27029e-05
136 *401:93 *6027:A1 7.55652e-05
137 *411:20 *5910:A1 0.000104541
138 *411:20 *746:117 4.6651e-05
139 *411:30 *6173:A1 3.82323e-06
140 *411:30 *746:117 2.61299e-05
141 *411:111 *6027:A1 0.00037111
142 *428:75 *746:99 0.000112631
143 *460:66 *746:12 0.000157227
144 *460:66 *746:14 1.70935e-05
145 *460:76 *6063:A1 0.000331496
146 *483:8 *746:45 0
147 *483:53 *746:37 2.75145e-05
148 *483:53 *746:45 0
149 *483:63 *746:45 0
150 *484:6 *6156:A1 0.000142669
151 *484:34 *746:14 0
152 *484:34 *746:16 0
153 *484:34 *746:20 0
154 *487:25 *6173:A1 0
155 *489:40 *746:99 0.000574279
156 *489:75 *746:99 0.00016128
157 *495:88 *6027:A1 0.00022282
158 *498:10 *6120:A1 0
159 *499:12 *746:45 0
160 *574:10 *746:99 6.31308e-05
161 *578:10 *746:109 0.000186092
162 *624:8 *746:6 0.0018884
163 *680:14 *6173:A1 3.67779e-05
*RES
1 *6663:X *746:4 1.6 
2 *746:4 *746:6 50.475 
3 *746:6 *746:10 44.435 
4 *746:10 *746:12 4.185 
5 *746:12 *746:14 6.225 
6 *746:14 *746:16 0.615 
7 *746:16 *746:20 7.46 
8 *746:20 *6101:A1 1.6 
9 *746:20 *746:31 9.215 
10 *746:31 *746:37 5.03 
11 *746:37 *746:45 29.36 
12 *746:45 *6120:A1 9.675 
13 *746:45 *746:64 8.66 
14 *746:64 *6027:A1 12.215 
15 *746:64 *746:85 8.085 
16 *746:85 *746:99 34.315 
17 *746:99 *746:109 11.245 
18 *746:109 *746:117 6.795 
19 *746:117 *6173:A1 12.2 
20 *746:117 *6209:A1 1.6 
21 *746:109 *5910:A1 9.815 
22 *746:99 *6239:A1 1.6 
23 *746:85 *6138:A1 2.395 
24 *746:64 *6191:A1 1.6 
25 *746:37 *6081:A1 1.6 
26 *746:31 *6156:A1 9.57 
27 *746:16 *6310:A1 11.76 
28 *746:14 *6008:A1 4.05 
29 *746:12 *746:205 2 
30 *746:205 *6292:A1 1.6 
31 *746:205 *6063:A1 9.415 
32 *746:10 *6045:A1 13.38 
*END

*D_NET *747 0.00244786
*CONN
*I *6025:A0 I *D sky130_fd_sc_hd__mux2_1
*I *6579:X O *D sky130_fd_sc_hd__dlygate4sd3_1
*CAP
1 *6025:A0 0.000860616
2 *6579:X 0.000860616
3 *5925:S0 *6025:A0 2.87867e-05
4 *5940:A2 *6025:A0 1.0284e-05
5 *5940:A3 *6025:A0 4.9253e-06
6 *6579:A *6025:A0 0.000535086
7 *226:183 *6025:A0 2.67022e-05
8 *239:180 *6025:A0 3.67183e-05
9 *239:184 *6025:A0 8.41242e-05
*RES
1 *6579:X *6025:A0 18.525 
*END

*D_NET *748 0.000996393
*CONN
*I *6107:A0 I *D sky130_fd_sc_hd__mux2_1
*I *6580:X O *D sky130_fd_sc_hd__dlygate4sd3_1
*CAP
1 *6107:A0 0.000124899
2 *6580:X 0.000124899
3 *6107:A0 *6107:A1 0.000425312
4 *5979:A2 *6107:A0 0.00027299
5 *6107:S *6107:A0 4.82919e-05
*RES
1 *6580:X *6107:A0 7.445 
*END

*D_NET *749 0.00108941
*CONN
*I *6219:A0 I *D sky130_fd_sc_hd__mux2_1
*I *6581:X O *D sky130_fd_sc_hd__dlygate4sd3_1
*CAP
1 *6219:A0 0.000465284
2 *6581:X 0.000465284
3 *6581:A *6219:A0 4.82863e-05
4 *391:47 *6219:A0 0.000110558
*RES
1 *6581:X *6219:A0 13.005 
*END

*D_NET *750 0.00110809
*CONN
*I *6175:A0 I *D sky130_fd_sc_hd__mux2_1
*I *6582:X O *D sky130_fd_sc_hd__dlygate4sd3_1
*CAP
1 *6175:A0 0.000446496
2 *6582:X 0.000446496
3 *6175:A0 *6211:A0 4.82863e-05
4 *6175:A0 *757:110 6.77501e-05
5 *6029:S *6175:A0 0
6 *6325:D *6175:A0 2.67022e-05
7 *6582:A *6175:A0 7.23602e-05
8 *401:87 *6175:A0 0
*RES
1 *6582:X *6175:A0 13.425 
*END

*D_NET *751 0.00111403
*CONN
*I *6055:A0 I *D sky130_fd_sc_hd__mux2_1
*I *6583:X O *D sky130_fd_sc_hd__dlygate4sd3_1
*CAP
1 *6055:A0 0.000344805
2 *6583:X 0.000344805
3 *6343:D *6055:A0 6.65066e-05
4 *6583:A *6055:A0 0
5 *329:29 *6055:A0 0
6 *460:31 *6055:A0 0.000312964
7 *493:27 *6055:A0 4.49498e-05
*RES
1 *6583:X *6055:A0 12.975 
*END

*D_NET *752 0.00138967
*CONN
*I *6308:A0 I *D sky130_fd_sc_hd__mux2_1
*I *6584:X O *D sky130_fd_sc_hd__dlygate4sd3_1
*CAP
1 *6308:A0 0.000638225
2 *6584:X 0.000638225
3 *6308:S *6308:A0 8.57024e-05
4 *239:219 *6308:A0 0
5 *735:133 *6308:A0 2.75145e-05
*RES
1 *6584:X *6308:A0 16.98 
*END

*D_NET *753 0.000930545
*CONN
*I *5910:A0 I *D sky130_fd_sc_hd__mux2_1
*I *6585:X O *D sky130_fd_sc_hd__dlygate4sd3_1
*CAP
1 *5910:A0 0.000204855
2 *6585:X 0.000204855
3 *5910:A1 *5910:A0 8.65905e-05
4 *5998:S *5910:A0 0.000434245
*RES
1 *6585:X *5910:A0 7.445 
*END

*D_NET *754 0.000657769
*CONN
*I *6154:A0 I *D sky130_fd_sc_hd__mux2_1
*I *6586:X O *D sky130_fd_sc_hd__dlygate4sd3_1
*CAP
1 *6154:A0 0.000255
2 *6586:X 0.000255
3 *5943:A0 *6154:A0 2.75145e-05
4 *6154:A1 *6154:A0 3.00381e-05
5 *6586:A *6154:A0 9.02174e-05
*RES
1 *6586:X *6154:A0 7.445 
*END

*D_NET *755 0.00141402
*CONN
*I *6146:A0 I *D sky130_fd_sc_hd__mux2_1
*I *6587:X O *D sky130_fd_sc_hd__dlygate4sd3_1
*CAP
1 *6146:A0 0.000200876
2 *6587:X 0.000200876
3 *5986:S *6146:A0 8.40269e-05
4 *6146:A1 *6146:A0 0.000136829
5 *309:52 *6146:A0 0.000137803
6 *372:64 *6146:A0 0.000261315
7 *372:74 *6146:A0 8.8266e-05
8 *625:66 *6146:A0 0.000304025
*RES
1 *6587:X *6146:A0 14.085 
*END

*D_NET *756 0.000735036
*CONN
*I *6314:A0 I *D sky130_fd_sc_hd__mux2_1
*I *6589:X O *D sky130_fd_sc_hd__dlygate4sd3_1
*CAP
1 *6314:A0 0.000198895
2 *6589:X 0.000198895
3 *6314:A0 *768:26 2.75145e-05
4 *5970:A2 *6314:A0 8.40213e-05
5 *470:109 *6314:A0 2.16917e-05
6 *470:128 *6314:A0 0.000204018
*RES
1 *6589:X *6314:A0 7.445 
*END

*D_NET *757 0.0313375
*CONN
*I *6083:A1 I *D sky130_fd_sc_hd__mux2_1
*I *6158:A1 I *D sky130_fd_sc_hd__mux2_1
*I *6312:A1 I *D sky130_fd_sc_hd__mux2_1
*I *6065:A1 I *D sky130_fd_sc_hd__mux2_1
*I *6047:A1 I *D sky130_fd_sc_hd__mux2_1
*I *6294:A1 I *D sky130_fd_sc_hd__mux2_1
*I *6193:A1 I *D sky130_fd_sc_hd__mux2_1
*I *6140:A1 I *D sky130_fd_sc_hd__mux2_1
*I *6122:A1 I *D sky130_fd_sc_hd__mux2_1
*I *5912:A1 I *D sky130_fd_sc_hd__mux2_1
*I *6175:A1 I *D sky130_fd_sc_hd__mux2_1
*I *6211:A1 I *D sky130_fd_sc_hd__mux2_1
*I *6241:A1 I *D sky130_fd_sc_hd__mux2_1
*I *6029:A1 I *D sky130_fd_sc_hd__mux2_1
*I *6010:A1 I *D sky130_fd_sc_hd__mux2_1
*I *6103:A1 I *D sky130_fd_sc_hd__mux2_1
*I *6664:X O *D sky130_fd_sc_hd__buf_4
*CAP
1 *6083:A1 0.000425584
2 *6158:A1 0.000219493
3 *6312:A1 0
4 *6065:A1 0.000147998
5 *6047:A1 0.000284793
6 *6294:A1 0
7 *6193:A1 0
8 *6140:A1 0
9 *6122:A1 0.000208642
10 *5912:A1 0
11 *6175:A1 1.98437e-05
12 *6211:A1 0.000108869
13 *6241:A1 0.000480375
14 *6029:A1 6.63669e-05
15 *6010:A1 0
16 *6103:A1 0
17 *6664:X 0.000804432
18 *757:196 0.000773587
19 *757:154 0.000500596
20 *757:110 0.000495297
21 *757:89 0.000908623
22 *757:87 0.000362955
23 *757:83 0.000796608
24 *757:79 0.000487564
25 *757:75 0.000522661
26 *757:56 0.00205674
27 *757:33 0.00243048
28 *757:24 0.00132928
29 *757:22 0.000732912
30 *757:20 0.00340605
31 *757:14 0.00398427
32 *6047:A1 *779:18 0.00062196
33 *6211:A1 *6211:A0 0.00039046
34 *757:20 *6312:A0 0.000228937
35 *757:22 *6312:A0 0.000187281
36 *757:24 *6312:A0 4.99619e-05
37 *757:110 *6211:A0 1.08758e-05
38 *5957:A0 *757:110 0.000115795
39 *5957:A1 *6175:A1 0
40 *5957:A1 *757:110 2.67184e-05
41 *5957:A3 *6241:A1 5.07362e-05
42 *5957:A3 *757:87 7.47215e-05
43 *5957:A3 *757:89 0.000116165
44 *5958:A0 *6122:A1 0.00013236
45 *5958:A0 *757:87 7.30547e-05
46 *5958:A3 *757:75 3.59997e-05
47 *5958:A3 *757:79 1.43521e-05
48 *5958:S0 *6241:A1 0
49 *5958:S0 *757:87 0
50 *5958:S0 *757:89 0
51 *5958:S1 *757:87 0.000192064
52 *5960:A3 *6047:A1 6.02202e-05
53 *5961:A1 *6083:A1 0.000316421
54 *5962:A0 *6065:A1 5.02217e-05
55 *5962:A1 *6083:A1 0
56 *6010:A0 *757:33 0.000313857
57 *6010:A0 *757:56 1.19928e-05
58 *6010:S *757:33 2.57174e-05
59 *6010:S *757:56 0.000581986
60 *6011:A *757:33 0
61 *6011:A *757:56 0.000203178
62 *6029:A0 *6029:A1 4.99619e-05
63 *6029:S *6029:A1 0.0001249
64 *6029:S *757:75 8.23457e-05
65 *6029:S *757:79 0
66 *6030:A *757:75 2.16833e-05
67 *6047:A0 *6047:A1 4.99619e-05
68 *6047:S *6047:A1 0.000273835
69 *6101:A0 *757:56 1.16611e-05
70 *6103:A0 *757:24 0.000416218
71 *6103:A0 *757:33 4.99619e-05
72 *6122:A0 *6122:A1 4.99619e-05
73 *6123:A *6122:A1 4.99619e-05
74 *6140:A0 *757:83 0.000427876
75 *6158:S *6158:A1 3.09164e-05
76 *6175:A0 *757:110 6.77501e-05
77 *6176:A *6211:A1 0.000118294
78 *6193:A0 *6029:A1 5.16348e-05
79 *6193:A0 *757:56 8.69157e-05
80 *6241:A0 *6241:A1 4.82919e-05
81 *6241:S *6241:A1 0.000206944
82 *6312:S *6065:A1 0.000160641
83 *6312:S *757:196 0
84 *6313:A *757:24 0.000394699
85 *6349:D *757:79 0
86 *6405:CLK *6083:A1 9.54399e-05
87 *6421:D *757:75 0
88 *6490:D *757:56 4.82319e-06
89 *6491:D *6083:A1 0.000149745
90 *6501:A *757:56 0.000129868
91 *6564:A *6122:A1 2.16917e-05
92 *6564:A *757:83 6.26945e-05
93 *6564:A *757:87 3.09164e-05
94 *6576:A *757:56 0.000172846
95 *6602:A *6047:A1 0.000153922
96 *6608:A *6083:A1 0.000163199
97 *6608:A *6158:A1 2.92496e-05
98 *6608:A *757:196 0.000202314
99 *6632:A *757:56 0
100 *6632:A *757:75 3.85797e-05
101 *6664:A *757:14 0
102 *225:181 *6241:A1 0
103 *226:219 *6241:A1 2.66935e-05
104 *226:240 *6241:A1 0.000131968
105 *232:118 *757:56 0
106 *319:105 *6047:A1 0
107 *319:105 *757:154 0
108 *329:85 *6065:A1 5.21046e-05
109 *401:87 *757:79 0.000138188
110 *460:76 *6047:A1 0.000304247
111 *460:76 *757:154 9.50342e-06
112 *460:78 *757:154 0.000360611
113 *470:128 *757:56 0.000110914
114 *479:218 *757:56 0
115 *479:228 *757:56 2.49e-05
116 *479:238 *757:56 5.27538e-05
117 *483:53 *757:56 0
118 *484:19 *757:56 0
119 *506:10 *757:56 0.000293719
120 *571:8 *757:75 2.77183e-05
121 *618:8 *757:56 4.66826e-05
122 *691:31 *757:14 0.000141606
123 *746:20 *757:56 0
124 *746:31 *757:56 0.000147131
125 *746:45 *6241:A1 0
*RES
1 *6664:X *757:14 18.2225 
2 *757:14 *757:20 47.5725 
3 *757:20 *757:22 1.83 
4 *757:22 *757:24 11.145 
5 *757:24 *6103:A1 1.6 
6 *757:24 *757:33 9 
7 *757:33 *6010:A1 1.6 
8 *757:33 *757:56 32.825 
9 *757:56 *6029:A1 5.355 
10 *757:56 *757:75 9.355 
11 *757:75 *757:79 5.93 
12 *757:79 *757:83 5.295 
13 *757:83 *757:87 8.735 
14 *757:87 *757:89 1.38 
15 *757:89 *6241:A1 12.735 
16 *757:89 *757:110 7.655 
17 *757:110 *6211:A1 5.155 
18 *757:110 *6175:A1 1.96 
19 *757:87 *5912:A1 3.6 
20 *757:83 *6122:A1 5.5 
21 *757:79 *6140:A1 1.6 
22 *757:75 *6193:A1 3.6 
23 *757:33 *757:154 6.185 
24 *757:154 *6294:A1 3.6 
25 *757:154 *6047:A1 14.025 
26 *757:24 *6065:A1 8.21 
27 *757:22 *6312:A1 1.6 
28 *757:20 *757:196 4.91 
29 *757:196 *6158:A1 7.275 
30 *757:196 *6083:A1 16.075 
*END

*D_NET *758 0.00103712
*CONN
*I *6126:A0 I *D sky130_fd_sc_hd__mux2_1
*I *6590:X O *D sky130_fd_sc_hd__dlygate4sd3_1
*CAP
1 *6126:A0 0.000324515
2 *6590:X 0.000324515
3 *6126:A0 *6126:A1 4.99619e-05
4 *6126:A0 *768:44 0
5 *5977:A1 *6126:A0 0
6 *6391:D *6126:A0 0
7 *270:12 *6126:A0 9.83115e-05
8 *362:101 *6126:A0 0.000239813
9 *501:14 *6126:A0 0
*RES
1 *6590:X *6126:A0 13.845 
*END

*D_NET *759 0.000901148
*CONN
*I *6063:A0 I *D sky130_fd_sc_hd__mux2_1
*I *6591:X O *D sky130_fd_sc_hd__dlygate4sd3_1
*CAP
1 *6063:A0 9.93865e-05
2 *6591:X 9.93865e-05
3 *6063:A0 *779:18 0.000295519
4 *6063:A1 *6063:A0 4.99619e-05
5 *6063:S *6063:A0 8.8266e-05
6 *460:76 *6063:A0 0.000268628
*RES
1 *6591:X *6063:A0 8.135 
*END

*D_NET *760 0.00109447
*CONN
*I *6128:A0 I *D sky130_fd_sc_hd__mux2_1
*I *6592:X O *D sky130_fd_sc_hd__dlygate4sd3_1
*CAP
1 *6128:A0 0.000382686
2 *6592:X 0.000382686
3 *5972:A1 *6128:A0 8.08153e-06
4 *6128:A1 *6128:A0 4.99619e-05
5 *6129:A *6128:A0 7.40016e-05
6 *6392:D *6128:A0 7.4027e-05
7 *6394:D *6128:A0 7.00889e-06
8 *6512:A *6128:A0 7.4027e-05
9 *362:51 *6128:A0 2.30292e-05
10 *372:30 *6128:A0 8.08153e-06
11 *502:12 *6128:A0 1.08758e-05
*RES
1 *6592:X *6128:A0 13.635 
*END

*D_NET *761 0.00131457
*CONN
*I *6292:A0 I *D sky130_fd_sc_hd__mux2_1
*I *6593:X O *D sky130_fd_sc_hd__dlygate4sd3_1
*CAP
1 *6292:A0 0.000133231
2 *6593:X 0.000133231
3 *6292:A0 *779:18 0.000500245
4 *5951:A1 *6292:A0 4.94404e-05
5 *5951:A3 *6292:A0 3.39151e-05
6 *6063:A1 *6292:A0 0.00046451
*RES
1 *6593:X *6292:A0 12.915 
*END

*D_NET *762 0.00068284
*CONN
*I *6181:A0 I *D sky130_fd_sc_hd__mux2_1
*I *6594:X O *D sky130_fd_sc_hd__dlygate4sd3_1
*CAP
1 *6181:A0 0.00028439
2 *6594:X 0.00028439
3 *6181:A1 *6181:A0 8.40213e-05
4 *6594:A *6181:A0 3.00381e-05
*RES
1 *6594:X *6181:A0 7.445 
*END

*D_NET *763 0.00145822
*CONN
*I *6031:A0 I *D sky130_fd_sc_hd__mux2_1
*I *6595:X O *D sky130_fd_sc_hd__dlygate4sd3_1
*CAP
1 *6031:A0 0.000158122
2 *6595:X 0.000158122
3 *6031:A0 *6031:A1 3.00381e-05
4 *6031:A0 *768:61 0.000689197
5 *6031:S *6031:A0 4.47125e-05
6 *6595:A *6031:A0 0.000271308
7 *237:97 *6031:A0 0.000106726
*RES
1 *6595:X *6031:A0 9.86 
*END

*D_NET *764 0.000922453
*CONN
*I *6177:A0 I *D sky130_fd_sc_hd__mux2_1
*I *6596:X O *D sky130_fd_sc_hd__dlygate4sd3_1
*CAP
1 *6177:A0 6.82243e-05
2 *6596:X 6.82243e-05
3 *6177:A0 *6213:A1 4.99619e-05
4 *6177:A0 *768:95 0.000421345
5 *391:47 *6177:A0 8.8266e-05
6 *391:59 *6177:A0 0.000226431
*RES
1 *6596:X *6177:A0 7.445 
*END

*D_NET *765 0.000723152
*CONN
*I *6245:A0 I *D sky130_fd_sc_hd__mux2_1
*I *6597:X O *D sky130_fd_sc_hd__dlygate4sd3_1
*CAP
1 *6245:A0 0.000195464
2 *6597:X 0.000195464
3 *6245:A0 *5916:A0 0.000111285
4 *6245:A0 *6245:A1 4.99619e-05
5 *5975:A0 *6245:A0 8.43862e-05
6 *428:16 *6245:A0 8.65905e-05
*RES
1 *6597:X *6245:A0 7.445 
*END

*D_NET *766 0.00067957
*CONN
*I *6247:A0 I *D sky130_fd_sc_hd__mux2_1
*I *6598:X O *D sky130_fd_sc_hd__dlygate4sd3_1
*CAP
1 *6247:A0 0.000245175
2 *6598:X 0.000245175
3 *6247:A1 *6247:A0 4.99619e-05
4 *6426:D *6247:A0 8.65961e-05
5 *428:105 *6247:A0 2.30292e-05
6 *428:121 *6247:A0 2.96334e-05
*RES
1 *6598:X *6247:A0 7.445 
*END

*D_NET *767 0.00170761
*CONN
*I *6085:A0 I *D sky130_fd_sc_hd__mux2_1
*I *6600:X O *D sky130_fd_sc_hd__dlygate4sd3_1
*CAP
1 *6085:A0 0.000606346
2 *6600:X 0.000606346
3 *6085:A0 *6085:A1 4.82863e-05
4 *6421:CLK *6085:A0 0
5 *339:37 *6085:A0 2.30292e-05
6 *339:50 *6085:A0 0.0004236
*RES
1 *6600:X *6085:A0 15.42 
*END

*D_NET *768 0.0400958
*CONN
*I *6296:A1 I *D sky130_fd_sc_hd__mux2_1
*I *6049:A1 I *D sky130_fd_sc_hd__mux2_1
*I *6012:A1 I *D sky130_fd_sc_hd__mux2_1
*I *6067:A1 I *D sky130_fd_sc_hd__mux2_1
*I *6314:A1 I *D sky130_fd_sc_hd__mux2_1
*I *6160:A1 I *D sky130_fd_sc_hd__mux2_1
*I *6105:A1 I *D sky130_fd_sc_hd__mux2_1
*I *6085:A1 I *D sky130_fd_sc_hd__mux2_1
*I *6031:A1 I *D sky130_fd_sc_hd__mux2_1
*I *6195:A1 I *D sky130_fd_sc_hd__mux2_1
*I *6142:A1 I *D sky130_fd_sc_hd__mux2_1
*I *6243:A1 I *D sky130_fd_sc_hd__mux2_1
*I *5914:A1 I *D sky130_fd_sc_hd__mux2_1
*I *6177:A1 I *D sky130_fd_sc_hd__mux2_1
*I *6213:A1 I *D sky130_fd_sc_hd__mux2_1
*I *6124:A1 I *D sky130_fd_sc_hd__mux2_1
*I *6665:X O *D sky130_fd_sc_hd__buf_4
*CAP
1 *6296:A1 1.83028e-05
2 *6049:A1 5.55128e-05
3 *6012:A1 0.00010717
4 *6067:A1 0.000148927
5 *6314:A1 0
6 *6160:A1 8.8796e-05
7 *6105:A1 0.000243086
8 *6085:A1 1.13248e-05
9 *6031:A1 1.13379e-05
10 *6195:A1 0
11 *6142:A1 3.55999e-05
12 *6243:A1 0.000303884
13 *5914:A1 0
14 *6177:A1 0
15 *6213:A1 0.000546307
16 *6124:A1 0.000192137
17 *6665:X 0
18 *768:119 0.000470389
19 *768:95 0.000793426
20 *768:93 0.000837306
21 *768:85 0.000745009
22 *768:69 0.00058703
23 *768:61 0.000842196
24 *768:44 0.0028966
25 *768:38 0.0025675
26 *768:36 0.00071171
27 *768:32 0.000424756
28 *768:26 0.000421277
29 *768:20 0.000448046
30 *768:18 0.000418955
31 *768:16 0.00041668
32 *768:14 0.00177126
33 *768:6 0.00610036
34 *768:4 0.00452324
35 *6012:A1 *6012:A0 0.000315527
36 *6105:A1 *6105:A0 0.000351262
37 *6124:A1 *6124:A0 4.82863e-05
38 *768:18 *6012:A0 0.000236667
39 *768:20 *6012:A0 8.53113e-06
40 *768:44 *5916:A0 2.67022e-05
41 *768:44 *6126:A1 0.000106029
42 *5904:A *6142:A1 3.98498e-05
43 *5904:A *768:93 4.49869e-05
44 *5914:A0 *6243:A1 0.000162311
45 *5914:A0 *768:119 4.99619e-05
46 *5915:A *768:93 1.22762e-05
47 *5915:A *768:119 0.000122337
48 *5967:A0 *6124:A1 4.99619e-05
49 *5968:A0 *6124:A1 0
50 *5968:A0 *6243:A1 2.30292e-05
51 *5969:A1 *768:18 0
52 *5969:S0 *768:32 0.000152413
53 *5970:A0 *6105:A1 2.79099e-05
54 *5970:A2 *768:26 4.01778e-05
55 *5970:A2 *768:32 0.000273396
56 *5970:A3 *768:32 0.000157595
57 *5970:A3 *768:38 0
58 *5977:A0 *768:44 0
59 *5977:A1 *768:44 7.4027e-05
60 *5980:S *6105:A1 5.83121e-06
61 *5985:A2 *768:44 2.48249e-05
62 *5985:A3 *768:44 7.4408e-05
63 *5988:S0 *768:44 8.11114e-05
64 *6031:A0 *6031:A1 3.00381e-05
65 *6031:A0 *768:61 0.000689197
66 *6032:A *768:69 8.31173e-05
67 *6033:A0 *768:44 2.67022e-05
68 *6049:A0 *6049:A1 4.99619e-05
69 *6067:A0 *6067:A1 2.75229e-05
70 *6085:A0 *6085:A1 4.82863e-05
71 *6125:A *6124:A1 0.000312527
72 *6126:A0 *768:44 0
73 *6126:S *768:44 0
74 *6127:A *768:44 0.000164279
75 *6160:A0 *6160:A1 2.75229e-05
76 *6160:S *6160:A1 4.82919e-05
77 *6161:A *768:38 0
78 *6177:A0 *6213:A1 4.99619e-05
79 *6177:A0 *768:95 0.000421345
80 *6178:A *6213:A1 1.37328e-05
81 *6195:A0 *768:85 4.82863e-05
82 *6195:S *768:69 0.000356363
83 *6196:A *6142:A1 7.4027e-05
84 *6213:A0 *6213:A1 7.35729e-05
85 *6241:S *768:44 0.000288997
86 *6243:A0 *6243:A1 4.82863e-05
87 *6243:S *6243:A1 0.000204456
88 *6244:A *6243:A1 0.000148977
89 *6244:A *768:119 0.00027209
90 *6246:A *768:44 5.71242e-05
91 *6249:A0 *768:93 0.000139245
92 *6296:A0 *6296:A1 1.56428e-05
93 *6296:A0 *768:14 2.59285e-05
94 *6314:A0 *768:26 2.75145e-05
95 *6315:A *768:26 6.55328e-05
96 *6358:CLK *768:16 0.0001113
97 *6358:CLK *768:18 0.000492006
98 *6358:CLK *768:20 4.38051e-05
99 *6391:D *768:44 4.70256e-05
100 *6392:CLK *6124:A1 0
101 *6392:CLK *768:44 0
102 *6396:CLK *768:44 6.74079e-05
103 *6396:D *768:44 0.000202876
104 *6398:CLK *768:93 0
105 *6414:D *6213:A1 7.53592e-05
106 *6416:CLK *6243:A1 2.42236e-05
107 *6416:D *6243:A1 0
108 *6422:D *768:85 0.000198051
109 *6444:D *768:44 0.000137571
110 *6492:CLK *768:20 0.000183043
111 *6492:CLK *768:26 0.000139933
112 *6496:A *768:44 0
113 *6552:A *768:14 0.000191355
114 *6552:A *768:16 0.00012972
115 *6596:A *6213:A1 0
116 *6604:A *768:44 4.13709e-05
117 *6615:A *768:44 0
118 *6627:A *768:14 1.10435e-05
119 *6627:A *768:16 2.88689e-05
120 *6648:A *768:93 0.000116158
121 *225:58 *768:93 0
122 *225:58 *768:119 6.27114e-05
123 *225:160 *768:69 0.000371935
124 *225:160 *768:85 9.54469e-05
125 *225:160 *768:93 0
126 *230:66 *768:44 0
127 *230:81 *6105:A1 0
128 *230:91 *6160:A1 1.46744e-05
129 *232:81 *6105:A1 0.000157595
130 *232:81 *768:32 0
131 *232:81 *768:36 1.56428e-05
132 *232:81 *768:38 7.5416e-05
133 *232:85 *768:32 8.52172e-05
134 *233:66 *6160:A1 0.000160635
135 *233:66 *768:32 0
136 *233:66 *768:36 0.000235568
137 *233:66 *768:38 0
138 *233:66 *768:44 0
139 *233:81 *768:32 0
140 *237:80 *768:69 0.000138799
141 *237:97 *6031:A1 5.30673e-05
142 *237:97 *768:69 0.000161204
143 *295:20 *768:85 2.0514e-05
144 *298:37 *6012:A1 3.07153e-05
145 *298:52 *6012:A1 8.97793e-05
146 *309:52 *768:44 0
147 *319:59 *6049:A1 0.000160635
148 *329:50 *6067:A1 0.000385327
149 *329:50 *768:18 0
150 *329:50 *768:20 0
151 *329:50 *768:26 0
152 *339:37 *6085:A1 4.82863e-05
153 *339:50 *6085:A1 1.08758e-05
154 *351:79 *6105:A1 0.000167613
155 *362:45 *768:44 0
156 *362:51 *6124:A1 0.000472806
157 *362:51 *768:44 0.000771711
158 *362:61 *6124:A1 8.53113e-06
159 *362:95 *768:44 0
160 *391:47 *6213:A1 2.0514e-05
161 *391:59 *6243:A1 2.62017e-05
162 *391:59 *768:95 4.85494e-05
163 *391:59 *768:119 9.80032e-06
164 *460:43 *6296:A1 4.66108e-05
165 *460:43 *768:16 0
166 *460:43 *768:18 0
167 *484:44 *6012:A1 4.00541e-06
168 *488:14 *6142:A1 5.98004e-06
169 *488:14 *768:85 1.88904e-05
170 *488:14 *768:93 8.71796e-06
171 *488:20 *768:93 0.000134482
172 *488:39 *6213:A1 3.00381e-05
173 *488:52 *6213:A1 9.03442e-05
174 *580:12 *6243:A1 3.86529e-05
175 *581:12 *768:44 0.000112746
176 *625:72 *768:44 0.0003175
177 *746:99 *768:44 6.08525e-05
*RES
1 *6665:X *768:4 1.6 
2 *768:4 *768:6 67.725 
3 *768:6 *768:14 29.435 
4 *768:14 *768:16 3.675 
5 *768:16 *768:18 5.715 
6 *768:18 *768:20 2.655 
7 *768:20 *768:26 5.12 
8 *768:26 *768:32 10.735 
9 *768:32 *768:36 4.175 
10 *768:36 *768:38 5.97 
11 *768:38 *768:44 44.865 
12 *768:44 *6124:A1 9.765 
13 *768:44 *768:61 9.53 
14 *768:61 *768:69 13.54 
15 *768:69 *768:85 10.7775 
16 *768:85 *768:93 10.6925 
17 *768:93 *768:95 4.935 
18 *768:95 *6213:A1 13.565 
19 *768:95 *6177:A1 1.6 
20 *768:93 *768:119 3.9 
21 *768:119 *5914:A1 1.6 
22 *768:119 *6243:A1 12.185 
23 *768:85 *6142:A1 4.8525 
24 *768:69 *6195:A1 1.6 
25 *768:61 *6031:A1 2.395 
26 *768:38 *6085:A1 4.05 
27 *768:36 *6105:A1 9.87 
28 *768:32 *6160:A1 3.775 
29 *768:26 *6314:A1 1.6 
30 *768:20 *6067:A1 7.155 
31 *768:18 *6012:A1 7.17 
32 *768:16 *6049:A1 5.085 
33 *768:14 *6296:A1 4.05 
*END

*D_NET *769 0.000883048
*CONN
*I *6124:A0 I *D sky130_fd_sc_hd__mux2_1
*I *6601:X O *D sky130_fd_sc_hd__dlygate4sd3_1
*CAP
1 *6124:A0 8.48067e-05
2 *6601:X 8.48067e-05
3 *5967:A0 *6124:A0 8.82557e-05
4 *6124:A1 *6124:A0 4.82863e-05
5 *295:28 *6124:A0 0.000463611
6 *362:61 *6124:A0 0.000113282
*RES
1 *6601:X *6124:A0 7.445 
*END

*D_NET *770 0.00139465
*CONN
*I *6294:A0 I *D sky130_fd_sc_hd__mux2_1
*I *6602:X O *D sky130_fd_sc_hd__dlygate4sd3_1
*CAP
1 *6294:A0 0.000355401
2 *6602:X 0.000355401
3 *5960:A3 *6294:A0 7.23602e-05
4 *6047:S *6294:A0 8.43946e-05
5 *6048:A *6294:A0 4.82919e-05
6 *6602:A *6294:A0 0.000187071
7 *232:141 *6294:A0 0.000158072
8 *319:105 *6294:A0 0.000133657
*RES
1 *6602:X *6294:A0 13.425 
*END

*D_NET *771 0.000859939
*CONN
*I *6138:A0 I *D sky130_fd_sc_hd__mux2_1
*I *6603:X O *D sky130_fd_sc_hd__dlygate4sd3_1
*CAP
1 *6138:A0 0.000164149
2 *6603:X 0.000164149
3 *6138:A1 *6138:A0 4.77757e-05
4 *6138:S *6138:A0 2.01504e-05
5 *746:85 *6138:A0 0.000463715
*RES
1 *6603:X *6138:A0 7.445 
*END

*D_NET *772 0.00106851
*CONN
*I *6199:A0 I *D sky130_fd_sc_hd__mux2_1
*I *6604:X O *D sky130_fd_sc_hd__dlygate4sd3_1
*CAP
1 *6199:A0 0.000168595
2 *6604:X 0.000168595
3 *6199:A1 *6199:A0 0.00014872
4 *6199:S *6199:A0 8.65905e-05
5 *6396:CLK *6199:A0 0.000122325
6 *6604:A *6199:A0 0.000122331
7 *362:37 *6199:A0 0.000251349
*RES
1 *6604:X *6199:A0 8.945 
*END

*D_NET *773 0.00150647
*CONN
*I *6008:A0 I *D sky130_fd_sc_hd__mux2_1
*I *6605:X O *D sky130_fd_sc_hd__dlygate4sd3_1
*CAP
1 *6008:A0 0.00032846
2 *6605:X 0.00032846
3 *6008:A1 *6008:A0 4.82863e-05
4 *6008:S *6008:A0 0.000203178
5 *6310:A1 *6008:A0 0.000278117
6 *6364:CLK *6008:A0 6.02127e-05
7 *6490:CLK *6008:A0 0.000106784
8 *6605:A *6008:A0 0
9 *233:139 *6008:A0 8.22234e-06
10 *298:52 *6008:A0 9.14049e-05
11 *298:67 *6008:A0 2.05056e-05
12 *329:62 *6008:A0 3.28386e-05
13 *746:14 *6008:A0 0
*RES
1 *6605:X *6008:A0 14.88 
*END

*D_NET *774 0.000739379
*CONN
*I *6018:A0 I *D sky130_fd_sc_hd__mux2_1
*I *6606:X O *D sky130_fd_sc_hd__dlygate4sd3_1
*CAP
1 *6018:A0 0.000245388
2 *6606:X 0.000245388
3 *5996:A3 *6018:A0 4.70919e-05
4 *298:33 *6018:A0 0.000201511
*RES
1 *6606:X *6018:A0 7.445 
*END

*D_NET *775 0.000868464
*CONN
*I *6089:A0 I *D sky130_fd_sc_hd__mux2_1
*I *6607:X O *D sky130_fd_sc_hd__dlygate4sd3_1
*CAP
1 *6089:A0 0.000202518
2 *6607:X 0.000202518
3 *5988:A3 *6089:A0 3.66286e-05
4 *6089:S *6089:A0 7.5277e-05
5 *6481:CLK *6089:A0 4.82919e-05
6 *237:150 *6089:A0 0.0001249
7 *518:12 *6089:A0 0.000178331
*RES
1 *6607:X *6089:A0 7.445 
*END

*D_NET *776 0.000815634
*CONN
*I *6312:A0 I *D sky130_fd_sc_hd__mux2_1
*I *6608:X O *D sky130_fd_sc_hd__dlygate4sd3_1
*CAP
1 *6312:A0 0.000174727
2 *6608:X 0.000174727
3 *757:20 *6312:A0 0.000228937
4 *757:22 *6312:A0 0.000187281
5 *757:24 *6312:A0 4.99619e-05
*RES
1 *6608:X *6312:A0 7.445 
*END

*D_NET *777 0.00139163
*CONN
*I *6105:A0 I *D sky130_fd_sc_hd__mux2_1
*I *6609:X O *D sky130_fd_sc_hd__dlygate4sd3_1
*CAP
1 *6105:A0 0.000411052
2 *6609:X 0.000411052
3 *5969:S0 *6105:A0 0
4 *5970:A1 *6105:A0 3.67779e-05
5 *5980:S *6105:A0 1.47256e-05
6 *6105:A1 *6105:A0 0.000351262
7 *6492:CLK *6105:A0 0
8 *6492:D *6105:A0 0.000162325
9 *351:79 *6105:A0 4.43871e-06
*RES
1 *6609:X *6105:A0 13.665 
*END

*D_NET *778 0.00182861
*CONN
*I *6211:A0 I *D sky130_fd_sc_hd__mux2_1
*I *6611:X O *D sky130_fd_sc_hd__dlygate4sd3_1
*CAP
1 *6211:A0 0.000377757
2 *6611:X 0.000377757
3 *6175:A0 *6211:A0 4.82863e-05
4 *6175:S *6211:A0 0.00011852
5 *6176:A *6211:A0 1.61831e-05
6 *6211:A1 *6211:A0 0.00039046
7 *6241:S *6211:A0 5.34747e-05
8 *6325:D *6211:A0 0
9 *6611:A *6211:A0 0.000180818
10 *401:87 *6211:A0 0.0001176
11 *495:88 *6211:A0 0.000136877
12 *757:110 *6211:A0 1.08758e-05
*RES
1 *6611:X *6211:A0 16.425 
*END

*D_NET *779 0.0369386
*CONN
*I *6069:A1 I *D sky130_fd_sc_hd__mux2_1
*I *6298:A1 I *D sky130_fd_sc_hd__mux2_1
*I *6051:A1 I *D sky130_fd_sc_hd__mux2_1
*I *6316:A1 I *D sky130_fd_sc_hd__mux2_1
*I *6087:A1 I *D sky130_fd_sc_hd__mux2_1
*I *6126:A1 I *D sky130_fd_sc_hd__mux2_1
*I *6033:A1 I *D sky130_fd_sc_hd__mux2_1
*I *6197:A1 I *D sky130_fd_sc_hd__mux2_1
*I *6144:A1 I *D sky130_fd_sc_hd__mux2_1
*I *6245:A1 I *D sky130_fd_sc_hd__mux2_1
*I *5916:A1 I *D sky130_fd_sc_hd__mux2_1
*I *6179:A1 I *D sky130_fd_sc_hd__mux2_1
*I *6215:A1 I *D sky130_fd_sc_hd__mux2_1
*I *6162:A1 I *D sky130_fd_sc_hd__mux2_1
*I *6107:A1 I *D sky130_fd_sc_hd__mux2_1
*I *6014:A1 I *D sky130_fd_sc_hd__mux2_1
*I *6666:X O *D sky130_fd_sc_hd__buf_4
*CAP
1 *6069:A1 0
2 *6298:A1 0.000163234
3 *6051:A1 0
4 *6316:A1 0
5 *6087:A1 9.40366e-05
6 *6126:A1 0.000347985
7 *6033:A1 0
8 *6197:A1 0
9 *6144:A1 0
10 *6245:A1 8.10803e-05
11 *5916:A1 0
12 *6179:A1 3.30173e-05
13 *6215:A1 0.000465245
14 *6162:A1 0
15 *6107:A1 0.00040066
16 *6014:A1 0.000231304
17 *6666:X 0.00274219
18 *779:181 0.00029067
19 *779:141 0.000607773
20 *779:134 0.000319553
21 *779:109 0.000243116
22 *779:100 0.000195053
23 *779:81 0.000624755
24 *779:79 0.000470873
25 *779:73 0.000576939
26 *779:62 0.000392136
27 *779:54 0.000445547
28 *779:43 0.000959754
29 *779:33 0.000783918
30 *779:31 0.000517444
31 *779:22 0.000245672
32 *779:20 0.000898463
33 *779:18 0.00442698
34 *779:8 0.00628508
35 *6245:A1 *5916:A0 0.000344459
36 *6298:A1 *6051:A0 2.88357e-05
37 *779:20 *6069:A0 0.000418782
38 *779:22 *6069:A0 4.99619e-05
39 *779:109 *5916:A0 4.82863e-05
40 *5904:A *6215:A1 0
41 *5917:A *6215:A1 0
42 *5975:A0 *6215:A1 4.11281e-05
43 *5976:A3 *779:73 0
44 *5976:A3 *779:79 3.89899e-05
45 *5977:A1 *6126:A1 0.000160641
46 *5978:A1 *779:33 0
47 *5978:A3 *6298:A1 9.22206e-05
48 *5979:A2 *6107:A1 0.000127297
49 *5979:A2 *779:43 1.91597e-05
50 *5979:A2 *779:54 0.000155348
51 *5979:S1 *779:43 0
52 *5979:S1 *779:54 7.17418e-05
53 *5980:A0 *779:33 0
54 *5980:A0 *779:43 4.82863e-05
55 *5981:A0 *779:79 7.89689e-05
56 *5981:A1 *779:43 1.74678e-05
57 *5981:A1 *779:73 1.52945e-05
58 *5981:S *6215:A1 0.000395652
59 *5981:S *779:79 0.000286584
60 *5981:S *779:81 0.000375153
61 *6014:A0 *6014:A1 0.00043044
62 *6033:A0 *6126:A1 0.000160635
63 *6033:A0 *779:141 4.99619e-05
64 *6034:A *779:141 4.99619e-05
65 *6047:A0 *779:18 0.000253321
66 *6047:A1 *779:18 0.00062196
67 *6051:S *6298:A1 2.08328e-05
68 *6051:S *779:181 0.000115335
69 *6052:A *6298:A1 4.90291e-05
70 *6063:A0 *779:18 0.000295519
71 *6063:A1 *779:18 0.000284425
72 *6070:A *779:33 4.49328e-05
73 *6087:A0 *6087:A1 4.66108e-05
74 *6087:S *6087:A1 2.8185e-05
75 *6087:S *779:62 0.000298442
76 *6107:A0 *6107:A1 0.000425312
77 *6126:A0 *6126:A1 4.99619e-05
78 *6127:A *6126:A1 0.000295386
79 *6162:A0 *779:62 4.66108e-05
80 *6162:A0 *779:73 0.000123225
81 *6163:A *779:62 1.85674e-05
82 *6175:S *6215:A1 0
83 *6179:A0 *6179:A1 0.00015896
84 *6179:A0 *779:81 2.67022e-05
85 *6179:A0 *779:109 0.0001249
86 *6197:A0 *779:134 4.99619e-05
87 *6197:A0 *779:141 0.000160635
88 *6198:A *779:134 1.37328e-05
89 *6245:A0 *6245:A1 4.99619e-05
90 *6292:A0 *779:18 0.000500245
91 *6293:A *779:18 0.000115137
92 *6298:A0 *6298:A1 9.51579e-05
93 *6317:A *6107:A1 0.00015896
94 *6317:A *779:54 1.52184e-05
95 *6327:CLK *6215:A1 0.000419392
96 *6366:D *779:20 1.1392e-05
97 *6518:A *779:79 0
98 *6572:A *779:73 0
99 *6575:A *779:43 0
100 *6622:A *779:181 0.000224254
101 *225:164 *6215:A1 0.000181005
102 *230:66 *6126:A1 0
103 *230:81 *6126:A1 0
104 *233:45 *6126:A1 1.82563e-05
105 *233:45 *779:79 0
106 *233:45 *779:81 0
107 *233:66 *6126:A1 0.000229592
108 *233:106 *779:33 0.000243894
109 *233:106 *779:43 0
110 *309:16 *6215:A1 0.000183043
111 *319:51 *6014:A1 0.00015896
112 *319:51 *779:33 2.92496e-05
113 *319:51 *779:181 0.000149071
114 *329:29 *6014:A1 3.52434e-05
115 *329:29 *779:22 9.80943e-06
116 *329:50 *779:20 0.000178912
117 *339:37 *779:62 0.000122325
118 *339:37 *779:73 0.000112349
119 *372:16 *779:79 0.00011852
120 *372:16 *779:81 7.63883e-05
121 *382:16 *779:73 0.000158762
122 *382:16 *779:79 0.000219255
123 *391:122 *6215:A1 2.39856e-05
124 *401:79 *779:79 4.70343e-05
125 *401:83 *6126:A1 4.11393e-05
126 *401:83 *779:141 0.000151932
127 *428:16 *6179:A1 0.00015896
128 *428:16 *6245:A1 0.000188856
129 *428:16 *779:109 0.000454522
130 *460:43 *6014:A1 0.000345353
131 *460:43 *779:20 0.000887526
132 *460:43 *779:22 8.65961e-05
133 *460:76 *779:18 0.000199939
134 *470:100 *779:43 0.000242558
135 *470:100 *779:54 8.89028e-05
136 *470:100 *779:62 0.000200653
137 *493:71 *779:33 0
138 *493:73 *779:33 0
139 *768:44 *6126:A1 0.000106029
*RES
1 *6666:X *779:8 49.605 
2 *779:8 *779:18 48.0275 
3 *779:18 *779:20 17.8725 
4 *779:20 *779:22 0.795 
5 *779:22 *6014:A1 7.915 
6 *779:22 *779:31 2 
7 *779:31 *779:33 8.01 
8 *779:33 *779:43 8.48 
9 *779:43 *6107:A1 8.95 
10 *779:43 *779:54 5.93 
11 *779:54 *779:62 7.685 
12 *779:62 *6162:A1 1.6 
13 *779:62 *779:73 7.07 
14 *779:73 *779:79 8.82 
15 *779:79 *779:81 4.44 
16 *779:81 *6215:A1 19.03 
17 *779:81 *779:100 2 
18 *779:100 *6179:A1 3.085 
19 *779:100 *779:109 4.245 
20 *779:109 *5916:A1 1.6 
21 *779:109 *6245:A1 4.81 
22 *779:79 *6144:A1 3.6 
23 *779:73 *779:134 3.155 
24 *779:134 *6197:A1 1.6 
25 *779:134 *779:141 5.28 
26 *779:141 *6033:A1 1.6 
27 *779:141 *6126:A1 15.74 
28 *779:54 *6087:A1 4.74 
29 *779:33 *6316:A1 3.6 
30 *779:31 *779:181 5.675 
31 *779:181 *6051:A1 1.6 
32 *779:181 *6298:A1 5.515 
33 *779:20 *6069:A1 1.6 
*END

*D_NET *780 0.00130441
*CONN
*I *6012:A0 I *D sky130_fd_sc_hd__mux2_1
*I *6612:X O *D sky130_fd_sc_hd__dlygate4sd3_1
*CAP
1 *6012:A0 0.000321195
2 *6612:X 0.000321195
3 *6012:A1 *6012:A0 0.000315527
4 *298:37 *6012:A0 5.062e-06
5 *329:50 *6012:A0 9.6227e-05
6 *768:18 *6012:A0 0.000236667
7 *768:20 *6012:A0 8.53113e-06
*RES
1 *6612:X *6012:A0 13.32 
*END

*D_NET *781 0.000849841
*CONN
*I *6310:A0 I *D sky130_fd_sc_hd__mux2_1
*I *6613:X O *D sky130_fd_sc_hd__dlygate4sd3_1
*CAP
1 *6310:A0 0.00022661
2 *6613:X 0.00022661
3 *6310:A1 *6310:A0 4.82863e-05
4 *6312:S *6310:A0 0.00012982
5 *6341:CLK *6310:A0 4.82919e-05
6 *6613:A *6310:A0 0.000155497
7 *298:67 *6310:A0 1.47256e-05
*RES
1 *6613:X *6310:A0 7.445 
*END

*D_NET *782 0.00134265
*CONN
*I *5918:A0 I *D sky130_fd_sc_hd__mux2_1
*I *6614:X O *D sky130_fd_sc_hd__dlygate4sd3_1
*CAP
1 *5918:A0 0.000465592
2 *6614:X 0.000465592
3 *6207:A0 *5918:A0 2.67022e-05
4 *6427:CLK *5918:A0 0
5 *216:60 *5918:A0 0
6 *216:79 *5918:A0 0.000354725
7 *411:125 *5918:A0 0
8 *590:12 *5918:A0 0
9 *625:21 *5918:A0 3.00381e-05
*RES
1 *6614:X *5918:A0 14.01 
*END

*D_NET *783 0.00146001
*CONN
*I *5916:A0 I *D sky130_fd_sc_hd__mux2_1
*I *6615:X O *D sky130_fd_sc_hd__dlygate4sd3_1
*CAP
1 *5916:A0 0.000428461
2 *6615:X 0.000428461
3 *6245:A0 *5916:A0 0.000111285
4 *6245:A1 *5916:A0 0.000344459
5 *362:95 *5916:A0 7.23602e-05
6 *768:44 *5916:A0 2.67022e-05
7 *779:109 *5916:A0 4.82863e-05
*RES
1 *6615:X *5916:A0 13.35 
*END

*D_NET *784 0.000908511
*CONN
*I *6069:A0 I *D sky130_fd_sc_hd__mux2_1
*I *6616:X O *D sky130_fd_sc_hd__dlygate4sd3_1
*CAP
1 *6069:A0 7.85647e-05
2 *6616:X 7.85647e-05
3 *329:29 *6069:A0 5.30673e-05
4 *329:50 *6069:A0 0.00022957
5 *779:20 *6069:A0 0.000418782
6 *779:22 *6069:A0 4.99619e-05
*RES
1 *6616:X *6069:A0 7.445 
*END

*D_NET *785 0.000476995
*CONN
*I *6109:A0 I *D sky130_fd_sc_hd__mux2_1
*I *6617:X O *D sky130_fd_sc_hd__dlygate4sd3_1
*CAP
1 *6109:A0 4.10764e-05
2 *6617:X 4.10764e-05
3 *5988:A1 *6109:A0 2.75229e-05
4 *6617:A *6109:A0 4.82863e-05
5 *237:150 *6109:A0 7.75505e-05
6 *625:116 *6109:A0 0.000203178
7 *625:166 *6109:A0 3.83041e-05
*RES
1 *6617:X *6109:A0 5.375 
*END

*D_NET *786 0.00153809
*CONN
*I *6004:A0 I *D sky130_fd_sc_hd__mux2_1
*I *6618:X O *D sky130_fd_sc_hd__dlygate4sd3_1
*CAP
1 *6004:A0 0.000507691
2 *6618:X 0.000507691
3 *5931:A2 *6004:A0 0.000135652
4 *6004:A1 *6004:A0 0.000123225
5 *6004:S *6004:A0 2.75229e-05
6 *6289:A *6004:A0 9.37731e-05
7 *6480:D *6004:A0 1.53032e-05
8 *460:80 *6004:A0 0
9 *536:8 *6004:A0 1.16578e-05
10 *544:10 *6004:A0 0
11 *724:124 *6004:A0 0.000115571
*RES
1 *6618:X *6004:A0 15.405 
*END

*D_NET *787 0.00181145
*CONN
*I *6037:A0 I *D sky130_fd_sc_hd__mux2_1
*I *6619:X O *D sky130_fd_sc_hd__dlygate4sd3_1
*CAP
1 *6037:A0 0.000529066
2 *6619:X 0.000529066
3 *5981:S *6037:A0 2.67022e-05
4 *287:22 *6037:A0 0.000726613
*RES
1 *6619:X *6037:A0 14.73 
*END

*D_NET *788 0.000568756
*CONN
*I *6166:A0 I *D sky130_fd_sc_hd__mux2_1
*I *6620:X O *D sky130_fd_sc_hd__dlygate4sd3_1
*CAP
1 *6166:A0 0.000109247
2 *6620:X 0.000109247
3 *5997:A3 *6166:A0 7.4027e-05
4 *6166:S *6166:A0 7.98766e-05
5 *6167:A *6166:A0 0.000122331
6 *6495:CLK *6166:A0 7.4027e-05
*RES
1 *6620:X *6166:A0 10.08 
*END

*D_NET *789 0.000733199
*CONN
*I *6051:A0 I *D sky130_fd_sc_hd__mux2_1
*I *6622:X O *D sky130_fd_sc_hd__dlygate4sd3_1
*CAP
1 *6051:A0 0.000348615
2 *6622:X 0.000348615
3 *6051:S *6051:A0 7.13223e-06
4 *6298:A1 *6051:A0 2.88357e-05
*RES
1 *6622:X *6051:A0 11.28 
*END

*D_NET *790 0.00392953
*CONN
*I *5997:S0 I *D sky130_fd_sc_hd__mux4_1
*I *5929:A I *D sky130_fd_sc_hd__buf_8
*I *5922:A I *D sky130_fd_sc_hd__buf_8
*I *6467:Q O *D sky130_fd_sc_hd__dfrtp_4
*CAP
1 *5997:S0 0.000258058
2 *5929:A 0
3 *5922:A 0
4 *6467:Q 0.000420393
5 *790:33 0.000614879
6 *790:14 0.000777214
7 *790:14 *791:14 2.75229e-05
8 *790:14 *791:35 0.000274712
9 *790:33 *791:35 0.000211767
10 *5948:S0 *790:33 0.000120655
11 *5948:S1 *790:33 0
12 *5991:A0 *790:33 4.66108e-05
13 *5994:A3 *790:33 0.000383646
14 *5994:S0 *5997:S0 7.3151e-05
15 *5994:S0 *790:33 0.000122923
16 *5998:A0 *5997:S0 7.1635e-05
17 *6130:S *5997:S0 5.49852e-05
18 *6201:A0 *790:33 9.30787e-05
19 *6401:D *790:14 1.73877e-05
20 *216:29 *790:14 3.7729e-05
21 *226:14 *790:14 3.09088e-05
22 *226:83 *790:14 1.61831e-05
23 *232:21 *5997:S0 6.05513e-05
24 *287:22 *790:14 3.96088e-05
25 *428:75 *790:33 6.56448e-06
26 *636:84 *5997:S0 0.000169369
*RES
1 *6467:Q *790:14 11.93 
2 *790:14 *5922:A 1.6 
3 *790:14 *790:33 13.03 
4 *790:33 *5929:A 1.6 
5 *790:33 *5997:S0 11.45 
*END

*D_NET *791 0.00512296
*CONN
*I *5997:S1 I *D sky130_fd_sc_hd__mux4_1
*I *5930:A I *D sky130_fd_sc_hd__buf_6
*I *5923:A I *D sky130_fd_sc_hd__buf_6
*I *6468:Q O *D sky130_fd_sc_hd__dfrtp_1
*CAP
1 *5997:S1 0.000484101
2 *5930:A 0
3 *5923:A 0
4 *6468:Q 0.000381871
5 *791:35 0.00101371
6 *791:14 0.000911475
7 *5904:A *5997:S1 0
8 *5991:A0 *791:35 8.23457e-05
9 *5994:A1 *5997:S1 0.000209624
10 *5994:A1 *791:35 0.000309612
11 *5994:A3 *5997:S1 2.76356e-05
12 *5994:A3 *791:35 2.97373e-05
13 *6202:A *791:14 4.9253e-06
14 *6401:D *791:35 6.28843e-05
15 *6425:D *791:14 2.66586e-05
16 *6505:A *5997:S1 0
17 *216:29 *791:35 1.73877e-05
18 *226:14 *791:14 4.82919e-05
19 *226:14 *791:35 0.000114912
20 *226:83 *791:35 0.000236355
21 *233:6 *5997:S1 4.82863e-05
22 *233:31 *5997:S1 0.00010978
23 *480:8 *791:14 0
24 *636:84 *5997:S1 0.000293
25 *680:14 *791:14 0.00019637
26 *790:14 *791:14 2.75229e-05
27 *790:14 *791:35 0.000274712
28 *790:33 *791:35 0.000211767
*RES
1 *6468:Q *791:14 10.895 
2 *791:14 *5923:A 1.6 
3 *791:14 *791:35 16.075 
4 *791:35 *5930:A 1.6 
5 *791:35 *5997:S1 16.175 
*END

*D_NET *792 0.00352808
*CONN
*I *5926:A I *D sky130_fd_sc_hd__inv_2
*I *6257:A I *D sky130_fd_sc_hd__xnor2_1
*I *6271:A3 I *D sky130_fd_sc_hd__a31o_1
*I *6264:A I *D sky130_fd_sc_hd__xnor2_1
*I *6469:Q O *D sky130_fd_sc_hd__dfrtp_2
*CAP
1 *5926:A 0.000137722
2 *6257:A 0
3 *6271:A3 0
4 *6264:A 0.000114215
5 *6469:Q 0
6 *792:18 0.000387373
7 *792:8 0.00100164
8 *792:4 0.000866206
9 *792:18 *797:19 0.00011852
10 *5927:A *5926:A 0
11 *6264:B *6264:A 0.000214531
12 *6272:B *6264:A 2.20014e-05
13 *6469:RESET_B *792:8 0.000387088
14 *6469:RESET_B *792:18 0.000225718
15 *709:185 *5926:A 5.30673e-05
*RES
1 *6469:Q *792:4 1.6 
2 *792:4 *792:8 9 
3 *792:8 *792:18 9.55 
4 *792:18 *6264:A 4.12 
5 *792:18 *6271:A3 1.6 
6 *792:8 *6257:A 1.6 
7 *792:4 *5926:A 7.88 
*END

*D_NET *793 0.00130016
*CONN
*I *5934:A I *D sky130_fd_sc_hd__clkbuf_8
*I *6470:Q O *D sky130_fd_sc_hd__dfrtp_1
*CAP
1 *5934:A 0.00027991
2 *6470:Q 0.00027991
3 *6467:D *5934:A 5.30673e-05
4 *6470:RESET_B *5934:A 0
5 *237:12 *5934:A 0.000351262
6 *237:66 *5934:A 0.000201503
7 *411:30 *5934:A 0.000134509
*RES
1 *6470:Q *5934:A 13.77 
*END

*D_NET *794 0.00392407
*CONN
*I *6461:D I *D sky130_fd_sc_hd__dfrtp_1
*I *5895:A I *D sky130_fd_sc_hd__xor2_1
*I *6272:A I *D sky130_fd_sc_hd__xor2_1
*I *6277:A I *D sky130_fd_sc_hd__xnor2_1
*I *6475:Q O *D sky130_fd_sc_hd__dfrtp_2
*CAP
1 *6461:D 3.44035e-05
2 *5895:A 9.43418e-05
3 *6272:A 0
4 *6277:A 0
5 *6475:Q 0.000206346
6 *794:34 0.000742312
7 *794:25 0.000773965
8 *794:16 0.000366744
9 *6265:A0 *5895:A 0
10 *6265:A0 *794:34 0
11 *6461:CLK *5895:A 0
12 *6472:RESET_B *5895:A 8.05141e-05
13 *6472:RESET_B *794:16 0.000156808
14 *6472:RESET_B *794:25 0.000359844
15 *6472:RESET_B *794:34 0.000944087
16 *6475:D *794:16 5.03424e-05
17 *6475:RESET_B *794:16 0.000114358
*RES
1 *6475:Q *794:16 8.235 
2 *794:16 *6277:A 3.6 
3 *794:16 *794:25 4.185 
4 *794:25 *6272:A 3.6 
5 *794:25 *794:34 14.2575 
6 *794:34 *5895:A 5.8725 
7 *794:34 *6461:D 4.2825 
*END

*D_NET *795 0.00229883
*CONN
*I *6457:D I *D sky130_fd_sc_hd__dfrtp_1
*I *5896:B I *D sky130_fd_sc_hd__xor2_1
*I *6261:A1 I *D sky130_fd_sc_hd__mux2_1
*I *6471:Q O *D sky130_fd_sc_hd__dfrtp_1
*CAP
1 *6457:D 0.000381922
2 *5896:B 0.000192386
3 *6261:A1 0.000223743
4 *6471:Q 7.61948e-05
5 *795:21 0.000668796
6 *795:8 0.000394425
7 *5896:B *5896:A 4.94457e-05
8 *5897:C *5896:B 0.000161893
9 *6261:S *6261:A1 7.73272e-05
10 *6457:CLK *6457:D 7.27003e-05
*RES
1 *6471:Q *795:8 4.395 
2 *795:8 *6261:A1 7.215 
3 *795:8 *795:21 1.38 
4 *795:21 *5896:B 7.275 
5 *795:21 *6457:D 9.36 
*END

*D_NET *796 0.00126973
*CONN
*I *6458:D I *D sky130_fd_sc_hd__dfrtp_1
*I *5894:B I *D sky130_fd_sc_hd__xor2_1
*I *6265:A1 I *D sky130_fd_sc_hd__mux2_1
*I *6472:Q O *D sky130_fd_sc_hd__dfrtp_1
*CAP
1 *6458:D 4.2569e-05
2 *5894:B 0.000109009
3 *6265:A1 0.000207214
4 *6472:Q 3.33099e-05
5 *796:8 0.000316223
6 *796:6 7.58789e-05
7 *5894:B *5894:A 3.25831e-05
8 *5897:A *6265:A1 0
9 *5897:B *6265:A1 0
10 *6261:S *5894:B 0
11 *6261:S *6265:A1 0
12 *6265:S *6265:A1 8.64421e-05
13 *6266:A *6265:A1 3.26889e-05
14 *6458:CLK *6458:D 3.87313e-05
15 *6458:CLK *796:6 9.53428e-06
16 *6472:RESET_B *6265:A1 9.24049e-05
17 *239:67 *6265:A1 3.20366e-05
18 *490:35 *6265:A1 0
19 *709:90 *5894:B 0
20 *712:14 *5894:B 0
21 *712:33 *6458:D 0.000161105
*RES
1 *6472:Q *796:6 2.215 
2 *796:6 *796:8 2 
3 *796:8 *6265:A1 7.59 
4 *796:8 *5894:B 5.49 
5 *796:6 *6458:D 3.085 
*END

*D_NET *797 0.00408455
*CONN
*I *5893:B I *D sky130_fd_sc_hd__xor2_1
*I *6459:D I *D sky130_fd_sc_hd__dfrtp_1
*I *6269:A1 I *D sky130_fd_sc_hd__mux2_1
*I *6473:Q O *D sky130_fd_sc_hd__dfrtp_1
*CAP
1 *5893:B 0.000166623
2 *6459:D 0.000165094
3 *6269:A1 0
4 *6473:Q 0.000140865
5 *797:19 0.000853437
6 *797:10 0.000662584
7 *6260:A *5893:B 0.000537498
8 *6260:A *797:19 0.000318473
9 *6271:B1 *797:19 0.000149159
10 *6459:CLK *5893:B 0.000125541
11 *6459:CLK *6459:D 6.97118e-05
12 *6469:RESET_B *797:19 0.000226951
13 *226:28 *797:19 0
14 *237:24 *797:19 0
15 *239:16 *797:19 0.000156842
16 *239:30 *797:10 7.23602e-05
17 *239:30 *797:19 9.50342e-06
18 *487:71 *5893:B 0.0001032
19 *487:73 *5893:B 6.36578e-05
20 *709:17 *797:10 7.28749e-05
21 *709:17 *797:19 5.99925e-05
22 *711:109 *797:10 1.16646e-05
23 *792:18 *797:19 0.00011852
*RES
1 *6473:Q *797:10 6.03 
2 *797:10 *6269:A1 3.6 
3 *797:10 *797:19 12.09 
4 *797:19 *6459:D 6.135 
5 *797:19 *5893:B 9.825 
*END

*D_NET *798 0.00141061
*CONN
*I *6460:D I *D sky130_fd_sc_hd__dfrtp_1
*I *5892:B I *D sky130_fd_sc_hd__xor2_1
*I *6273:A1 I *D sky130_fd_sc_hd__mux2_1
*I *6474:Q O *D sky130_fd_sc_hd__dfrtp_1
*CAP
1 *6460:D 0.000205947
2 *5892:B 0.000107581
3 *6273:A1 8.70873e-05
4 *6474:Q 0
5 *798:21 0.000340356
6 *798:6 0.000113915
7 *5892:B *5892:A 1.83756e-05
8 *6460:D *5892:A 3.03775e-05
9 *5898:A *5892:B 0
10 *5898:A *6460:D 9.53428e-06
11 *6460:CLK *6460:D 4.44849e-05
12 *239:54 *6273:A1 0.000187759
13 *239:54 *798:21 7.23533e-05
14 *709:38 *6273:A1 0.000120186
15 *709:48 *6273:A1 3.95347e-05
16 *709:48 *798:21 3.31204e-05
*RES
1 *6474:Q *798:6 3.6 
2 *798:6 *6273:A1 6.195 
3 *798:6 *798:21 2.87 
4 *798:21 *5892:B 3.01 
5 *798:21 *6460:D 4.84 
*END

*D_NET *799 0.000151255
*CONN
*I *6577:A I *D sky130_fd_sc_hd__dlygate4sd3_1
*I *6457:Q O *D sky130_fd_sc_hd__dfrtp_1
*CAP
1 *6577:A 7.56277e-05
2 *6457:Q 7.56277e-05
*RES
1 *6457:Q *6577:A 4.34 
*END

*D_NET *800 0.000503248
*CONN
*I *6517:A I *D sky130_fd_sc_hd__dlygate4sd3_1
*I *6458:Q O *D sky130_fd_sc_hd__dfrtp_1
*CAP
1 *6517:A 0.000214611
2 *6458:Q 0.000214611
3 *6260:A *6517:A 7.4027e-05
*RES
1 *6458:Q *6517:A 10.515 
*END

*D_NET *801 0.000540834
*CONN
*I *6599:A I *D sky130_fd_sc_hd__dlygate4sd3_1
*I *6459:Q O *D sky130_fd_sc_hd__dfrtp_1
*CAP
1 *6599:A 0.000222303
2 *6459:Q 0.000222303
3 *6599:A *5893:A 0
4 *6449:RESET_B *6599:A 0
5 *210:12 *6599:A 9.6227e-05
6 *709:211 *6599:A 0
*RES
1 *6459:Q *6599:A 11.07 
*END

*D_NET *802 0.000521979
*CONN
*I *6588:A I *D sky130_fd_sc_hd__dlygate4sd3_1
*I *6460:Q O *D sky130_fd_sc_hd__dfrtp_1
*CAP
1 *6588:A 0.000158977
2 *6460:Q 0.000158977
3 *6460:RESET_B *6588:A 0.000204026
*RES
1 *6460:Q *6588:A 6.41 
*END

*D_NET *803 0.000568927
*CONN
*I *6566:A I *D sky130_fd_sc_hd__dlygate4sd3_1
*I *6461:Q O *D sky130_fd_sc_hd__dfrtp_1
*CAP
1 *6566:A 0.000166966
2 *6461:Q 0.000166966
3 *5898:C *6566:A 0.000114196
4 *6260:A *6566:A 0
5 *6461:CLK *6566:A 8.35068e-05
6 *6461:RESET_B *6566:A 3.72916e-05
*RES
1 *6461:Q *6566:A 10.17 
*END

*D_NET *804 0.000354189
*CONN
*I *5885:B I *D sky130_fd_sc_hd__xnor2_1
*I *6462:Q O *D sky130_fd_sc_hd__dfrtp_1
*CAP
1 *5885:B 0.000107265
2 *6462:Q 0.000107265
3 *6462:RESET_B *5885:B 0
4 *6477:RESET_B *5885:B 5.30673e-05
5 *491:35 *5885:B 8.65905e-05
*RES
1 *6462:Q *5885:B 9.375 
*END

*D_NET *805 0.000859611
*CONN
*I *5883:A_N I *D sky130_fd_sc_hd__nand3b_1
*I *5882:B1_N I *D sky130_fd_sc_hd__a21bo_1
*I *6463:Q O *D sky130_fd_sc_hd__dfrtp_1
*CAP
1 *5883:A_N 0
2 *5882:B1_N 0.000125541
3 *6463:Q 0.000159649
4 *805:8 0.00028519
5 *5871:B *5882:B1_N 3.72916e-05
6 *5887:B *5882:B1_N 0
7 *5889:C1 *5882:B1_N 5.72004e-05
8 *712:33 *5882:B1_N 7.89689e-05
9 *712:33 *805:8 0.00011577
*RES
1 *6463:Q *805:8 4.48 
2 *805:8 *5882:B1_N 8.645 
3 *805:8 *5883:A_N 1.6 
*END

*D_NET *806 0.00130409
*CONN
*I *5888:A I *D sky130_fd_sc_hd__xnor2_1
*I *6464:Q O *D sky130_fd_sc_hd__dfrtp_1
*CAP
1 *5888:A 0.000551503
2 *6464:Q 0.000551503
3 *6449:RESET_B *5888:A 0
4 *6464:D *5888:A 0
5 *6464:RESET_B *5888:A 0.000114492
6 *479:61 *5888:A 0
7 *487:65 *5888:A 0
8 *712:33 *5888:A 8.65961e-05
*RES
1 *6464:Q *5888:A 16.77 
*END

*D_NET *807 0.00115807
*CONN
*I *5876:A I *D sky130_fd_sc_hd__xnor2_2
*I *6465:Q O *D sky130_fd_sc_hd__dfrtp_1
*CAP
1 *5876:A 0.00055439
2 *6465:Q 0.00055439
3 *5876:A *5893:A 0
4 *5899:A *5876:A 4.92935e-05
5 *6229:A0 *5876:A 0
6 *6229:A1 *5876:A 0
7 *6464:D *5876:A 0
8 *712:33 *5876:A 0
*RES
1 *6465:Q *5876:A 16.35 
*END

*D_NET *808 0.0010678
*CONN
*I *5884:A I *D sky130_fd_sc_hd__xnor2_1
*I *6466:Q O *D sky130_fd_sc_hd__dfrtp_1
*CAP
1 *5884:A 0.000364571
2 *6466:Q 0.000364571
3 *5875:A0 *5884:A 0
4 *5875:S *5884:A 3.09233e-05
5 *5876:B *5884:A 0.00012657
6 *712:33 *5884:A 0.00018116
*RES
1 *6466:Q *5884:A 14.085 
*END

*D_NET *809 0.000248809
*CONN
*I *5869:A I *D sky130_fd_sc_hd__clkbuf_4
*I *6476:Q O *D sky130_fd_sc_hd__dfrtp_1
*CAP
1 *5869:A 0.000124404
2 *6476:Q 0.000124404
*RES
1 *6476:Q *5869:A 4.7 
*END

*D_NET *810 0.00989179
*CONN
*I *5900:A I *D sky130_fd_sc_hd__inv_2
*I *6075:C I *D sky130_fd_sc_hd__and4b_1
*I *5872:B I *D sky130_fd_sc_hd__and3_1
*I *6002:B I *D sky130_fd_sc_hd__and4b_1
*I *6185:B I *D sky130_fd_sc_hd__and4b_1
*I *6113:B I *D sky130_fd_sc_hd__or2_1
*I *6279:A0 I *D sky130_fd_sc_hd__mux2_1
*I *5885:A I *D sky130_fd_sc_hd__xnor2_1
*I *5879:B I *D sky130_fd_sc_hd__xor2_1
*I *5878:A2 I *D sky130_fd_sc_hd__a21oi_2
*I *5870:B I *D sky130_fd_sc_hd__and4_1
*I *6477:Q O *D sky130_fd_sc_hd__dfrtp_4
*CAP
1 *5900:A 5.69643e-05
2 *6075:C 0
3 *5872:B 0
4 *6002:B 0.000269417
5 *6185:B 9.73191e-06
6 *6113:B 0.000166603
7 *6279:A0 0
8 *5885:A 0.000254672
9 *5879:B 0
10 *5878:A2 0
11 *5870:B 0.000237147
12 *6477:Q 2.08101e-05
13 *810:107 0.000482026
14 *810:83 0.00021175
15 *810:81 0.000456171
16 *810:79 0.000414327
17 *810:75 0.000672883
18 *810:45 0.000254672
19 *810:18 0.000708609
20 *810:14 0.000624559
21 *810:12 0.000650208
22 *810:6 0.000927662
23 *6002:B *5870:C 4.99619e-05
24 *6002:B *811:76 2.0514e-05
25 *6002:B *812:38 9.54399e-05
26 *6002:B *812:46 8.53113e-06
27 *6002:B *812:68 3.66286e-05
28 *6113:B *6020:A 8.45218e-05
29 *6113:B *6020:B 3.74161e-05
30 *6113:B *811:26 0
31 *6113:B *811:32 8.49205e-05
32 *6113:B *811:38 1.52184e-05
33 *810:79 *811:8 8.76033e-05
34 *810:79 *811:12 0.000212505
35 *810:79 *811:20 0
36 *810:81 *811:20 0
37 *5872:A *6002:B 5.4155e-06
38 *5878:A1 *5870:B 0.000127457
39 *5879:A *810:75 0
40 *5889:C1 *5885:A 0
41 *5889:C1 *810:14 0
42 *5889:C1 *810:18 0
43 *6003:B1 *6002:B 0.00012657
44 *6003:B1 *6185:B 4.82863e-05
45 *6003:B1 *810:81 6.55328e-05
46 *6003:B1 *810:83 1.52184e-05
47 *6003:B1 *810:107 0.000297061
48 *6076:B1 *810:81 2.87867e-05
49 *6185:D *6113:B 0
50 *6222:A0 *5885:A 0
51 *6222:A1 *5900:A 5.05521e-05
52 *6222:A1 *810:75 0.000316648
53 *6222:S *5885:A 0.000115378
54 *6224:A *810:18 0.000141599
55 *6279:A1 *810:14 0
56 *6280:A *5885:A 3.45588e-05
57 *6281:A *5870:B 9.53428e-06
58 *6281:B *5870:B 2.06033e-05
59 *6462:RESET_B *5885:A 1.71013e-05
60 *6476:CLK *810:12 9.70988e-05
61 *6476:CLK *810:75 1.83756e-05
62 *6476:RESET_B *810:6 0
63 *6476:RESET_B *810:75 6.21553e-05
64 *6477:D *5885:A 0.000238919
65 *6477:D *810:12 3.67779e-05
66 *6477:RESET_B *810:12 0.000117787
67 *6478:RESET_B *810:75 0.000225182
68 *182:44 *810:81 0
69 *182:102 *6185:B 4.82863e-05
70 *182:104 *6002:B 2.16917e-05
71 *182:114 *5870:B 4.59521e-05
72 *186:10 *810:18 3.81581e-05
73 *186:12 *810:18 1.22676e-05
74 *186:41 *5870:B 4.60584e-05
75 *191:6 *5870:B 8.65961e-05
76 *192:12 *810:14 0
77 *192:12 *810:18 0
78 *193:18 *810:18 7.23533e-05
79 *298:18 *810:79 0
80 *298:18 *810:81 0
81 *420:85 *810:75 0
82 *460:14 *6002:B 0
83 *460:14 *810:79 0
84 *479:61 *810:18 0
85 *491:20 *810:12 0
86 *491:20 *810:14 0
87 *491:22 *810:12 4.61932e-05
88 *491:81 *810:12 7.94673e-05
89 *710:185 *810:12 2.66935e-05
*RES
1 *6477:Q *810:6 1.96 
2 *810:6 *810:12 9.095 
3 *810:12 *810:14 2.4 
4 *810:14 *810:18 10.52 
5 *810:18 *5870:B 5.635 
6 *810:18 *5878:A2 1.6 
7 *810:14 *5879:B 3.6 
8 *810:12 *810:45 2 
9 *810:45 *5885:A 11.24 
10 *810:45 *6279:A0 1.6 
11 *810:6 *810:75 12.805 
12 *810:75 *810:79 6.44 
13 *810:79 *810:81 3.42 
14 *810:81 *810:83 0.615 
15 *810:83 *6113:B 6.63 
16 *810:83 *6185:B 4.05 
17 *810:81 *810:107 4.865 
18 *810:107 *6002:B 9.71 
19 *810:107 *5872:B 1.6 
20 *810:79 *6075:C 3.6 
21 *810:75 *5900:A 2.755 
*END

*D_NET *811 0.00741917
*CONN
*I *6039:D I *D sky130_fd_sc_hd__and4_1
*I *6057:D I *D sky130_fd_sc_hd__and4b_1
*I *6075:A_N I *D sky130_fd_sc_hd__and4b_1
*I *6185:A_N I *D sky130_fd_sc_hd__and4b_1
*I *6002:D I *D sky130_fd_sc_hd__and4b_1
*I *6282:A0 I *D sky130_fd_sc_hd__mux2_1
*I *5870:D I *D sky130_fd_sc_hd__and4_1
*I *5878:B1 I *D sky130_fd_sc_hd__a21oi_2
*I *5872:C I *D sky130_fd_sc_hd__and3_1
*I *6020:B I *D sky130_fd_sc_hd__or2_1
*I *5902:B I *D sky130_fd_sc_hd__nand2_1
*I *6094:B I *D sky130_fd_sc_hd__or2_1
*I *6478:Q O *D sky130_fd_sc_hd__dfrtp_4
*CAP
1 *6039:D 0.000241065
2 *6057:D 0.000208417
3 *6075:A_N 0
4 *6185:A_N 0
5 *6002:D 0
6 *6282:A0 0.000104405
7 *5870:D 3.6899e-05
8 *5878:B1 3.20876e-05
9 *5872:C 6.17555e-05
10 *6020:B 0.000135281
11 *5902:B 0
12 *6094:B 8.23301e-05
13 *6478:Q 3.24079e-05
14 *811:87 0.000141304
15 *811:78 0.000155904
16 *811:76 0.000199076
17 *811:74 7.52601e-05
18 *811:38 0.000251937
19 *811:32 0.000533996
20 *811:26 0.000358598
21 *811:20 0.000289665
22 *811:16 0.000334178
23 *811:12 0.000380323
24 *811:8 0.000333133
25 *6020:B *6020:A 0.000102541
26 *6057:D *6057:C 4.82919e-05
27 *6057:D *812:107 2.66663e-05
28 *811:16 *812:88 4.58257e-05
29 *811:16 *812:107 4.52555e-05
30 *811:32 *6020:A 0.000111285
31 *811:32 *812:46 7.00889e-06
32 *5873:A *811:20 0.000107651
33 *5873:A *811:26 2.65288e-05
34 *5873:A *811:32 3.09164e-05
35 *5878:A1 *5878:B1 4.82919e-05
36 *6002:B *811:76 2.0514e-05
37 *6003:B1 *811:76 0.000272978
38 *6039:A *6039:D 4.66108e-05
39 *6075:D *6057:D 6.6564e-05
40 *6075:D *811:16 1.24905e-06
41 *6094:A *6094:B 4.82863e-05
42 *6113:B *6020:B 3.74161e-05
43 *6113:B *811:26 0
44 *6113:B *811:32 8.49205e-05
45 *6113:B *811:38 1.52184e-05
46 *6185:D *811:32 7.23602e-05
47 *6185:D *811:38 0
48 *6282:A1 *5878:B1 0.000199833
49 *6282:A1 *6282:A0 0.000120186
50 *6282:A1 *811:78 4.82919e-05
51 *182:102 *5872:C 0.000106433
52 *182:102 *811:76 0.000232099
53 *182:104 *811:76 0.000101745
54 *182:104 *811:78 0.000209543
55 *182:114 *5878:B1 0.000164085
56 *182:114 *811:78 0.000112349
57 *182:142 *6057:D 2.49909e-05
58 *192:12 *6282:A0 0
59 *193:16 *5870:D 0
60 *199:40 *6094:B 5.14739e-05
61 *211:31 *6020:B 8.8266e-05
62 *298:18 *811:8 3.68682e-05
63 *298:18 *811:12 8.56227e-05
64 *401:12 *811:38 0.000138196
65 *420:27 *5870:D 1.94805e-05
66 *420:27 *6282:A0 1.53032e-05
67 *420:31 *6282:A0 1.34361e-05
68 *460:14 *811:20 6.1452e-05
69 *460:14 *811:32 3.50033e-05
70 *460:14 *811:38 0
71 *810:79 *811:8 8.76033e-05
72 *810:79 *811:12 0.000212505
73 *810:79 *811:20 0
74 *810:81 *811:20 0
*RES
1 *6478:Q *811:8 4.725 
2 *811:8 *811:12 4.4 
3 *811:12 *811:16 2.19 
4 *811:16 *811:20 6.185 
5 *811:20 *811:26 1.17 
6 *811:26 *811:32 5.645 
7 *811:32 *811:38 6.91 
8 *811:38 *6094:B 3.1 
9 *811:38 *5902:B 1.6 
10 *811:32 *6020:B 4.24 
11 *811:26 *5872:C 4.62 
12 *811:20 *811:74 2 
13 *811:74 *811:76 3.11625 
14 *811:76 *811:78 2.95875 
15 *811:78 *5878:B1 3.43 
16 *811:78 *811:87 2 
17 *811:87 *5870:D 4.215 
18 *811:87 *6282:A0 5.745 
19 *811:76 *6002:D 1.6 
20 *811:74 *6185:A_N 1.6 
21 *811:16 *6075:A_N 1.6 
22 *811:12 *6057:D 4.91875 
23 *811:8 *6039:D 6.12 
*END

*D_NET *812 0.00804037
*CONN
*I *6057:C I *D sky130_fd_sc_hd__and4b_1
*I *6039:C I *D sky130_fd_sc_hd__and4_1
*I *6075:B I *D sky130_fd_sc_hd__and4b_1
*I *6002:C I *D sky130_fd_sc_hd__and4b_1
*I *5870:C I *D sky130_fd_sc_hd__and4_1
*I *6020:A I *D sky130_fd_sc_hd__or2_1
*I *5886:A I *D sky130_fd_sc_hd__inv_2
*I *6285:A0 I *D sky130_fd_sc_hd__mux2_1
*I *5874:A I *D sky130_fd_sc_hd__xnor2_1
*I *6479:Q O *D sky130_fd_sc_hd__dfrtp_4
*CAP
1 *6057:C 1.58418e-05
2 *6039:C 9.06555e-05
3 *6075:B 0
4 *6002:C 0
5 *5870:C 0.000170485
6 *6020:A 0.000228279
7 *5886:A 0
8 *6285:A0 0
9 *5874:A 0.000179364
10 *6479:Q 0
11 *812:107 0.000332032
12 *812:88 0.000605394
13 *812:68 0.000179539
14 *812:46 0.000487325
15 *812:38 0.000493874
16 *812:36 0.00140439
17 *812:10 0.000514286
18 *812:4 0.00113368
19 *5889:C1 *5874:A 0
20 *5889:C1 *812:10 0
21 *6002:B *5870:C 4.99619e-05
22 *6002:B *812:38 9.54399e-05
23 *6002:B *812:46 8.53113e-06
24 *6002:B *812:68 3.66286e-05
25 *6020:B *6020:A 0.000102541
26 *6057:B *812:107 4.82919e-05
27 *6057:D *6057:C 4.82919e-05
28 *6057:D *812:107 2.66663e-05
29 *6075:D *812:107 0.000103362
30 *6113:B *6020:A 8.45218e-05
31 *6225:A0 *5874:A 0
32 *6283:A *812:36 9.4087e-05
33 *6285:A1 *5874:A 0.000247574
34 *6285:A1 *812:10 9.50342e-06
35 *6478:D *812:36 3.3814e-05
36 *182:56 *6020:A 0.000236878
37 *182:104 *5870:C 0.000152328
38 *182:104 *812:68 4.82863e-05
39 *182:114 *5870:C 0.000132649
40 *182:142 *812:107 3.57349e-05
41 *199:10 *6020:A 1.34503e-05
42 *199:10 *812:46 0.000130209
43 *211:25 *6039:C 0.000187071
44 *211:31 *6020:A 3.23663e-05
45 *319:12 *6039:C 0
46 *420:27 *812:38 0
47 *420:27 *812:46 0
48 *420:31 *812:36 0
49 *420:31 *812:38 0
50 *420:47 *812:10 3.76596e-05
51 *420:85 *812:36 0
52 *460:14 *812:36 0
53 *460:14 *812:38 0
54 *460:14 *812:46 0
55 *811:16 *812:88 4.58257e-05
56 *811:16 *812:107 4.52555e-05
57 *811:32 *6020:A 0.000111285
58 *811:32 *812:46 7.00889e-06
*RES
1 *6479:Q *812:4 1.6 
2 *812:4 *812:10 7.52 
3 *812:10 *5874:A 7.275 
4 *812:10 *6285:A0 3.6 
5 *812:4 *812:36 13.595 
6 *812:36 *812:38 3.93 
7 *812:38 *812:46 6.605 
8 *812:46 *5886:A 1.6 
9 *812:46 *6020:A 7.705 
10 *812:38 *812:68 2.45 
11 *812:68 *5870:C 4.93 
12 *812:68 *6002:C 1.6 
13 *812:36 *812:88 6.245 
14 *812:88 *6075:B 1.6 
15 *812:88 *812:107 4.77 
16 *812:107 *6039:C 7.745 
17 *812:107 *6057:C 2.05 
*END

*D_NET *813 0.00366284
*CONN
*I *6231:A0 I *D sky130_fd_sc_hd__mux2_1
*I *5868:A I *D sky130_fd_sc_hd__inv_2
*I *6451:D I *D sky130_fd_sc_hd__dfrtp_1
*I *6438:Q O *D sky130_fd_sc_hd__dfrtp_1
*CAP
1 *6231:A0 0.000114232
2 *5868:A 0.000129124
3 *6451:D 0.00104953
4 *6438:Q 0
5 *813:10 0.00128748
6 *813:4 0.000223061
7 *6232:A *5868:A 4.82919e-05
8 *6232:A *6451:D 0.000312182
9 *6232:A *813:10 7.4027e-05
10 *6260:A *813:10 0
11 *6438:D *6451:D 9.13204e-05
12 *6451:RESET_B *6451:D 7.98735e-05
13 *710:30 *6231:A0 0.000203178
14 *710:30 *813:10 0
15 *711:46 *6451:D 5.05437e-05
*RES
1 *6438:Q *813:4 1.6 
2 *813:4 *813:10 5.635 
3 *813:10 *6451:D 18.61 
4 *813:10 *5868:A 3.79 
5 *813:4 *6231:A0 3.79 
*END

*D_NET *814 0.00439993
*CONN
*I *6558:A I *D sky130_fd_sc_hd__dlygate4sd3_1
*I *6447:D I *D sky130_fd_sc_hd__dfrtp_1
*I *6434:Q O *D sky130_fd_sc_hd__dfrtp_1
*CAP
1 *6558:A 3.68213e-05
2 *6447:D 0.00134627
3 *6434:Q 0
4 *814:6 0.0013831
5 *6447:D *6452:D 0.000446299
6 *6222:A0 *6447:D 0
7 *6222:A0 *6558:A 0
8 *6222:A1 *6447:D 0.000122325
9 *6261:S *6447:D 4.66108e-05
10 *6262:A *6447:D 7.33706e-05
11 *6447:RESET_B *6447:D 2.51336e-05
12 *6471:D *6447:D 0.000124895
13 *6471:RESET_B *6447:D 0.00038879
14 *6479:RESET_B *6447:D 0.000266618
15 *6479:RESET_B *6558:A 4.31106e-05
16 *491:35 *6558:A 4.82919e-05
17 *710:149 *6558:A 4.82919e-05
*RES
1 *6434:Q *814:6 3.6 
2 *814:6 *6447:D 28.035 
3 *814:6 *6558:A 4.665 
*END

*D_NET *815 0.00365181
*CONN
*I *6557:A I *D sky130_fd_sc_hd__dlygate4sd3_1
*I *6448:D I *D sky130_fd_sc_hd__dfrtp_1
*I *6435:Q O *D sky130_fd_sc_hd__dfrtp_1
*CAP
1 *6557:A 6.56273e-05
2 *6448:D 0.00151473
3 *6435:Q 0
4 *815:4 0.00158036
5 *6435:CLK *6448:D 0.000386004
6 *6435:CLK *6557:A 5.4155e-06
7 *6448:RESET_B *6448:D 2.56006e-05
8 *490:6 *6448:D 2.10134e-05
9 *490:6 *6557:A 5.30673e-05
*RES
1 *6435:Q *815:4 1.6 
2 *815:4 *6448:D 20.71 
3 *815:4 *6557:A 3.01 
*END

*D_NET *816 0.00255169
*CONN
*I *6610:A I *D sky130_fd_sc_hd__dlygate4sd3_1
*I *6449:D I *D sky130_fd_sc_hd__dfrtp_1
*I *6436:Q O *D sky130_fd_sc_hd__dfrtp_1
*CAP
1 *6610:A 0.000182468
2 *6449:D 0.000595401
3 *6436:Q 0.000162116
4 *816:6 0.000939985
5 *6228:A1 *6610:A 4.82919e-05
6 *6436:RESET_B *6449:D 0.000496985
7 *411:10 *6610:A 0
8 *411:20 *6610:A 0
9 *479:61 *6449:D 0.000126446
10 *487:40 *6449:D 0
11 *487:53 *6449:D 0
12 *680:14 *6610:A 0
*RES
1 *6436:Q *816:6 3.43 
2 *816:6 *6449:D 13.895 
3 *816:6 *6610:A 8.705 
*END

*D_NET *817 0.00386887
*CONN
*I *6559:A I *D sky130_fd_sc_hd__dlygate4sd3_1
*I *6450:D I *D sky130_fd_sc_hd__dfrtp_1
*I *6437:Q O *D sky130_fd_sc_hd__dfrtp_1
*CAP
1 *6559:A 5.58624e-05
2 *6450:D 0.00166311
3 *6437:Q 0
4 *817:4 0.00171898
5 *6260:A *6450:D 0
6 *6437:RESET_B *6559:A 4.99619e-05
7 *6450:CLK *6450:D 1.04217e-05
8 *6450:RESET_B *6450:D 1.83756e-05
9 *487:69 *6450:D 0.000352161
10 *710:36 *6450:D 0
*RES
1 *6437:Q *817:4 1.6 
2 *817:4 *6450:D 24.53 
3 *817:4 *6559:A 2.665 
*END

*D_NET *818 0.00143768
*CONN
*I *6452:D I *D sky130_fd_sc_hd__dfrtp_1
*I *6447:Q O *D sky130_fd_sc_hd__dfrtp_1
*CAP
1 *6452:D 0.000472607
2 *6447:Q 0.000472607
3 *6447:D *6452:D 0.000446299
4 *711:28 *6452:D 4.61658e-05
*RES
1 *6447:Q *6452:D 14.205 
*END

*D_NET *819 0.000678967
*CONN
*I *6453:D I *D sky130_fd_sc_hd__dfrtp_1
*I *6448:Q O *D sky130_fd_sc_hd__dfrtp_1
*CAP
1 *6453:D 0.000283973
2 *6448:Q 0.000283973
3 *709:99 *6453:D 3.86607e-05
4 *712:14 *6453:D 7.23602e-05
*RES
1 *6448:Q *6453:D 10.95 
*END

*D_NET *820 0.00289411
*CONN
*I *6454:D I *D sky130_fd_sc_hd__dfrtp_1
*I *6449:Q O *D sky130_fd_sc_hd__dfrtp_1
*CAP
1 *6454:D 0.00104305
2 *6449:Q 0.00104305
3 *6454:D *5893:A 5.48404e-05
4 *5948:A3 *6454:D 2.12451e-05
5 *6385:CLK *6454:D 0.000115779
6 *6454:RESET_B *6454:D 0.000157375
7 *391:22 *6454:D 0.000364514
8 *680:14 *6454:D 9.42644e-05
*RES
1 *6449:Q *6454:D 22.065 
*END

*D_NET *821 0.000847308
*CONN
*I *6455:D I *D sky130_fd_sc_hd__dfrtp_1
*I *6450:Q O *D sky130_fd_sc_hd__dfrtp_1
*CAP
1 *6455:D 0.000410303
2 *6450:Q 0.000410303
3 *239:54 *6455:D 0
4 *709:59 *6455:D 2.67022e-05
*RES
1 *6450:Q *6455:D 12.0188 
*END

*D_NET *822 0.00072726
*CONN
*I *6456:D I *D sky130_fd_sc_hd__dfrtp_1
*I *6451:Q O *D sky130_fd_sc_hd__dfrtp_1
*CAP
1 *6456:D 0.000349237
2 *6451:Q 0.000349237
3 *239:54 *6456:D 0
4 *709:80 *6456:D 2.87867e-05
*RES
1 *6451:Q *6456:D 12.585 
*END

*D_NET *823 0.000893268
*CONN
*I *5896:A I *D sky130_fd_sc_hd__xor2_1
*I *6452:Q O *D sky130_fd_sc_hd__dfrtp_1
*CAP
1 *5896:A 0.000347537
2 *6452:Q 0.000347537
3 *5896:B *5896:A 4.94457e-05
4 *711:14 *5896:A 0.000137017
5 *711:24 *5896:A 1.17309e-05
6 *712:14 *5896:A 0
*RES
1 *6452:Q *5896:A 12.24 
*END

*D_NET *824 0.000215919
*CONN
*I *5894:A I *D sky130_fd_sc_hd__xor2_1
*I *6453:Q O *D sky130_fd_sc_hd__dfrtp_1
*CAP
1 *5894:A 9.16681e-05
2 *6453:Q 9.16681e-05
3 *5894:B *5894:A 3.25831e-05
4 *6261:S *5894:A 0
5 *712:14 *5894:A 0
*RES
1 *6453:Q *5894:A 8.835 
*END

*D_NET *825 0.00374513
*CONN
*I *5893:A I *D sky130_fd_sc_hd__xor2_1
*I *6454:Q O *D sky130_fd_sc_hd__dfrtp_1
*CAP
1 *5893:A 0.00131522
2 *6454:Q 0.00131522
3 *5876:A *5893:A 0
4 *6449:RESET_B *5893:A 0
5 *6454:CLK *5893:A 9.36617e-05
6 *6454:D *5893:A 5.48404e-05
7 *6454:RESET_B *5893:A 5.23585e-05
8 *6459:RESET_B *5893:A 0
9 *6465:D *5893:A 0
10 *6599:A *5893:A 0
11 *210:12 *5893:A 0.000139238
12 *391:22 *5893:A 3.64998e-06
13 *487:69 *5893:A 0.000770938
14 *710:36 *5893:A 0
15 *710:38 *5893:A 0
*RES
1 *6454:Q *5893:A 27.99 
*END

*D_NET *826 0.000482132
*CONN
*I *5892:A I *D sky130_fd_sc_hd__xor2_1
*I *6455:Q O *D sky130_fd_sc_hd__dfrtp_1
*CAP
1 *5892:A 0.000114741
2 *6455:Q 0.000114741
3 *5892:B *5892:A 1.83756e-05
4 *5898:A *5892:A 0.000129871
5 *6460:D *5892:A 3.03775e-05
6 *239:54 *5892:A 7.4027e-05
*RES
1 *6455:Q *5892:A 9.825 
*END

*D_NET *827 0.000163206
*CONN
*I *5895:B I *D sky130_fd_sc_hd__xor2_1
*I *6456:Q O *D sky130_fd_sc_hd__dfrtp_1
*CAP
1 *5895:B 8.1603e-05
2 *6456:Q 8.1603e-05
*RES
1 *6456:Q *5895:B 4.34 
*END
